<?xml version="1.0"?>
<VTKFile type="UnstructuredGrid" version="0.1" byte_order="LittleEndian" header_type="UInt32" compressor="vtkZLibDataCompressor">
  <UnstructuredGrid>
    <Piece NumberOfPoints="13" NumberOfCells="11">
      <PointData>
        <DataArray type="Float64" Name="Disp" NumberOfComponents="3" format="ascii" RangeMin="0.03425177502282473" RangeMax="0.11661127548803077">
          -0.006882417697603425 -0.04762179352662293 0 -0.0009767627943888099 -0.06217568784240204 0
          -0.007918452922805167 -0.061657201228724916 0 -0.0020322974029055073 -0.07594319584534572 0
          -0.0088766615062539 -0.07543762144475262 0 -0.0030743968342845287 -0.08960689188632054 0
          -0.009857452267508254 -0.0890834804838924 0 -0.004173421010646338 -0.10309206906980829 0
          -0.010888620508401527 -0.10257382457783212 0 -0.005190574943146437 -0.11649569735704829 0
          -0.011900961830188378 -0.11599317308779952 0 0.00009348349672244855 -0.048166996370440494 0
          -0.005667899646682501 -0.03377956491444697 0
          <InformationKey name="L2_NORM_RANGE" location="vtkDataArray" length="2">
            <Value index="0">
              0.034251775023
            </Value>
            <Value index="1">
              0.11661127549
            </Value>
          </InformationKey>
        </DataArray>
        <DataArray type="Float64" Name="Nodal Stress" NumberOfComponents="6" format="ascii" RangeMin="609.1987022915033" RangeMax="20626.73743295736">
          -7265.8568200966865 868.752183086982 0 -795.5109098879444 0 0
          4531.1062265739965 1433.332096869515 0 -3502.389295554332 0 0
          -766.9574115625417 128.24476603097077 0 -500.4113025228349 0 0
          1522.6493865485031 6.554193964085525 0 -1117.4834687443063 0 0
          397.18291078516756 -160.60044682266988 0 -433.1007858850317 0 0
          -886.2258700836605 140.34452812651477 0 -237.548845857179 0 0
          1016.4045749522667 379.0612052136113 0 -190.492643821814 0 0
          -949.5340496000633 58.240147968179244 0 616.3270220301326 0 0
          657.172588933528 -122.46049193669938 0 -102.71503050343254 0 0
          -1114.5863821868354 -645.4355223663554 0 850.175980978453 0 0
          2612.620752712558 -173.0126419593721 0 211.51308587670366 0 0
          9664.393188148653 3830.7740466471528 0 -6945.177329763564 0 0
          -20598.809537691868 950.300298043501 0 498.2691056019257 0 0
          <InformationKey name="L2_NORM_RANGE" location="vtkDataArray" length="2">
            <Value index="0">
              609.19870229
            </Value>
            <Value index="1">
              20626.737433
            </Value>
          </InformationKey>
        </DataArray>
        <DataArray type="Float64" Name="Nodal Strain" NumberOfComponents="6" format="ascii" RangeMin="0" RangeMax="0">
          0 0 0 0 0 0
          0 0 0 0 0 0
          0 0 0 0 0 0
          0 0 0 0 0 0
          0 0 0 0 0 0
          0 0 0 0 0 0
          0 0 0 0 0 0
          0 0 0 0 0 0
          0 0 0 0 0 0
          0 0 0 0 0 0
          0 0 0 0 0 0
          0 0 0 0 0 0
          0 0 0 0 0 0
          <InformationKey name="L2_NORM_RANGE" location="vtkDataArray" length="2">
            <Value index="0">
              0
            </Value>
            <Value index="1">
              0
            </Value>
          </InformationKey>
        </DataArray>
        <DataArray type="Float64" Name="Sld_traction" NumberOfComponents="3" format="ascii" RangeMin="237.79541769768304" RangeMax="10227.533169938819">
          -675.8636133868293 415.4513169537859 0 -4514.1690582981755 1532.0371631946748 0
          -389.92337895272703 150.96249126621925 0 -1545.3361349788247 2.369860599774225 0
          93.53811301625235 218.62589529004643 0 -387.77143760673647 97.53630028523789 0
          272.2827888690339 -333.76539445189377 0 933.4790075846572 21.52711826377433 0
          540.2804681211547 -66.4004035509973 0 601.3355805381267 31.34362889603122 0
          715.6539618969665 121.76541348835 0 -9058.458097389503 4748.3440945278335 0
          -2664.4949357658825 1843.057470393349 0
          <InformationKey name="L2_NORM_RANGE" location="vtkDataArray" length="2">
            <Value index="0">
              237.7954177
            </Value>
            <Value index="1">
              10227.53317
            </Value>
          </InformationKey>
        </DataArray>
        <DataArray type="Float64" Name="Velocity" NumberOfComponents="3" format="ascii" RangeMin="4.925381982339649" RangeMax="11.397152153036108">
          -0.7224582929322432 -6.073177631859496 0 -0.5110857780706803 -6.474133450358177 0
          -0.6873321821555395 -6.428220874393528 0 -0.47619417437868544 -7.132260008571709 0
          -1.0068542150162028 -7.020341860711018 0 -0.6081568956521711 -8.542927207804919 0
          -1.2880595061448805 -8.423569949361942 0 -0.8042026219957311 -9.776552045394785 0
          -1.4819051573620703 -9.686876761959896 0 -0.9457868622182449 -11.35784153836947 0
          -1.724325476803929 -11.20567917083601 0 -0.34239221996403124 -6.107706447687404 0
          -0.7947507270620626 -4.8608393260619485 0
          <InformationKey name="L2_NORM_RANGE" location="vtkDataArray" length="2">
            <Value index="0">
              4.9253819823
            </Value>
            <Value index="1">
              11.397152153
            </Value>
          </InformationKey>
        </DataArray>
        <DataArray type="Float64" Name="Acceleration" NumberOfComponents="3" format="ascii" RangeMin="261.1352916527828" RangeMax="3894.5934227138973">
          548.1764143873374 2899.7100945366165 0 -93.86957424025127 3046.0884417002762 0
          -1308.9323799821655 3668.044976943518 0 -630.1709723109034 -1436.1515810517794 0
          -1530.143120575252 -1287.1156649487293 0 -1051.0794258411465 322.6130345778256 0
          -112.82465520780465 235.50422018261997 0 606.8884659678691 1296.8914934158615 0
          352.8909179764555 1357.0146719252075 0 1385.2382570072054 -2534.9565869339076 0
          126.09546856144402 -1025.1413276592593 0 227.29073543985896 2716.703495954421 0
          736.7606625920515 2550.776778249324 0
          <InformationKey name="L2_NORM_RANGE" location="vtkDataArray" length="2">
            <Value index="0">
              261.13529165
            </Value>
            <Value index="1">
              3894.5934227
            </Value>
          </InformationKey>
        </DataArray>
        <DataArray type="Float64" Name="Sigma" NumberOfComponents="6" format="ascii" RangeMin="1079.6023475206741" RangeMax="36438.471637797345">
          -9213.207024154068 9213.207024178511 0 2918.137244394449 0 0
          4438.117182905844 -4438.117182926457 0 -5896.875705179118 0 0
          -1386.3788781029398 1386.3788780994764 0 1022.2006080004685 0 0
          1290.0393154224803 -1290.039315415168 0 -1427.6822447524628 0 0
          706.2284180958195 -706.2284181223913 0 -409.9073940323251 0 0
          -1720.4140907613983 1720.4140907877882 0 -173.55726123696513 0 0
          1356.2633077006612 -1356.2633077011888 0 -558.0008961155609 0 0
          -1253.7095296512107 1253.7095296259158 0 1556.406154787419 0 0
          927.2431368224734 -927.2431368233665 0 -1292.3376430013695 0 0
          -1371.4788127630554 1371.4788127470301 0 1931.642642984696 0 0
          3007.751232665001 -3007.7512326109813 0 103.37367176174394 0 0
          11872.857840905057 -11872.857840914807 0 -13105.83883955499 0 0
          -24789.767792346145 24789.76779235329 0 9934.63843837925 0 0
          <InformationKey name="L2_NORM_RANGE" location="vtkDataArray" length="2">
            <Value index="0">
              1079.6023475
            </Value>
            <Value index="1">
              36438.471638
            </Value>
          </InformationKey>
        </DataArray>
        <DataArray type="Float64" Name="Press" format="ascii" RangeMin="-28018.699988193646" RangeMax="18444.306086174136">
          -9777.652985949186 6494.467322866913 -1601.201012148027 1141.4395283398262 284.20112047467774 -1531.8966335904952
          2096.723927173178 -1188.129293255448 947.3898428501489 -2775.281879431378 3353.5541290210194 18444.306086174136
          -28018.699988193646
        </DataArray>
        <DataArray type="Float64" Name="Dev strain" NumberOfComponents="6" format="ascii" RangeMin="0" RangeMax="0">
          0 0 0 0 0 0
          0 0 0 0 0 0
          0 0 0 0 0 0
          0 0 0 0 0 0
          0 0 0 0 0 0
          0 0 0 0 0 0
          0 0 0 0 0 0
          0 0 0 0 0 0
          0 0 0 0 0 0
          0 0 0 0 0 0
          0 0 0 0 0 0
          0 0 0 0 0 0
          0 0 0 0 0 0
          <InformationKey name="L2_NORM_RANGE" location="vtkDataArray" length="2">
            <Value index="0">
              0
            </Value>
            <Value index="1">
              0
            </Value>
          </InformationKey>
        </DataArray>
        <DataArray type="Float64" Name="J2 Stresses" format="ascii" RangeMin="540764.5964654824" RangeMax="639206847.42395">
          87012064.91442756 28390169.899878513 2183269.914394296 2173770.5833216263 540764.5964654824 2967355.174467789
          1917291.409832296 2177387.614371587 1277313.980664792 2813764.958885207 9049239.006438728 183905506.23255348
          639206847.42395
        </DataArray>
      </PointData>
      <CellData>
        <DataArray type="UInt8" Name="vtkGhostType" format="ascii" RangeMin="0" RangeMax="1">
          1 1 0 0 0 0
          0 0 0 0 0
        </DataArray>
        <DataArray type="Float64" Name="Gauss Stress" NumberOfComponents="6" format="ascii" RangeMin="404.2044292772876" RangeMax="13858.617989366638">
          -13827.387954521284 926.0233625494341 0 -84.35438559376144 0 0
          7419.629474249567 2687.784141143038 0 -5361.525766779886 0 0
          -3681.951798193822 425.69401470707714 0 -652.1792842614002 0 0
          144.77616402727892 -261.81640625720195 0 -271.7963435947732 0 0
          3458.8278197613654 564.3094062721874 0 -2100.785780643704 0 0
          397.03534969748137 168.9835930071897 0 -380.4885171282837 0 0
          56.53255266030283 -127.36987584192067 0 -670.3823000072509 0 0
          961.9271305466009 275.3958539564131 0 -97.97746144317074 0 0
          -747.0541041282379 331.5194376799167 0 274.94933247829783 0 0
          1363.0592163880706 -345.9511547491756 0 247.5595572483569 0 0
          -1571.3221784761568 -439.3587080956994 0 731.9037182569153 0 0
          <InformationKey name="L2_NORM_RANGE" location="vtkDataArray" length="2">
            <Value index="0">
              404.20442928
            </Value>
            <Value index="1">
              13858.617989
            </Value>
          </InformationKey>
        </DataArray>
        <DataArray type="Float64" Name="Gauss Strain" NumberOfComponents="6" format="ascii" RangeMin="0" RangeMax="0">
          0 0 0 0 0 0
          0 0 0 0 0 0
          0 0 0 0 0 0
          0 0 0 0 0 0
          0 0 0 0 0 0
          0 0 0 0 0 0
          0 0 0 0 0 0
          0 0 0 0 0 0
          0 0 0 0 0 0
          0 0 0 0 0 0
          0 0 0 0 0 0
          <InformationKey name="L2_NORM_RANGE" location="vtkDataArray" length="2">
            <Value index="0">
              0
            </Value>
            <Value index="1">
              0
            </Value>
          </InformationKey>
        </DataArray>
      </CellData>
      <Points>
        <DataArray type="Float32" Name="Points" NumberOfComponents="3" format="ascii" RangeMin="0.4000000059604645" RangeMax="1.0012492197622458">
          0.5 0 0 0.6000000238418579 0.05000000074505806 0
          0.6000000238418579 0 0 0.699999988079071 0.05000000074505806 0
          0.699999988079071 0 0 0.800000011920929 0.05000000074505806 0
          0.800000011920929 0 0 0.8999999761581421 0.05000000074505806 0
          0.8999999761581421 0 0 1 0.05000000074505806 0
          1 0 0 0.5 0.05000000074505806 0
          0.4000000059604645 0 0
          <InformationKey name="L2_NORM_RANGE" location="vtkDataArray" length="2">
            <Value index="0">
              0.40000000596
            </Value>
            <Value index="1">
              1.0012492198
            </Value>
          </InformationKey>
        </DataArray>
      </Points>
      <Cells>
        <DataArray type="Int64" Name="connectivity" format="ascii" RangeMin="0" RangeMax="12">
          0 11 12 1 11 0
          2 1 0 4 3 2
          3 1 2 6 5 4
          5 3 4 8 7 6
          7 5 6 10 9 8
          9 7 8
        </DataArray>
        <DataArray type="Int64" Name="offsets" format="ascii" RangeMin="3" RangeMax="33">
          3 6 9 12 15 18
          21 24 27 30 33
        </DataArray>
        <DataArray type="UInt8" Name="types" format="ascii" RangeMin="5" RangeMax="5">
          5 5 5 5 5 5
          5 5 5 5 5
        </DataArray>
      </Cells>
    </Piece>
  </UnstructuredGrid>
</VTKFile>
