<?xml version="1.0"?>
<VTKFile type="UnstructuredGrid" version="0.1" byte_order="LittleEndian" header_type="UInt32" compressor="vtkZLibDataCompressor">
  <UnstructuredGrid>
    <Piece NumberOfPoints="13" NumberOfCells="11">
      <PointData>
        <DataArray type="Float64" Name="Disp" NumberOfComponents="3" format="ascii" RangeMin="0.037320933300366864" RangeMax="0.17882461650281728">
          -0.009388945244566148 -0.055678782033134484 0 -0.001163274347658387 -0.0786204067955435 0
          -0.012527755325861962 -0.07721148232370814 0 -0.0038517810490766636 -0.10244357678573467 0
          -0.01603201311715918 -0.10079166232139491 0 -0.007105411478084378 -0.12745270284174928 0
          -0.01973808685600347 -0.12565678406693967 0 -0.010709450730376567 -0.15298001844191783 0
          -0.02341467899842648 -0.1511586760295741 0 -0.014423125429765048 -0.17824201783029986 0
          -0.02701150751196205 -0.1764394807683048 0 0.0008270731896293489 -0.056799811784364086 0
          -0.006715276502340653 -0.03671181177642346 0
          <InformationKey name="L2_NORM_RANGE" location="vtkDataArray" length="2">
            <Value index="0">
              0.0373209333
            </Value>
            <Value index="1">
              0.1788246165
            </Value>
          </InformationKey>
        </DataArray>
        <DataArray type="Float64" Name="Nodal Stress" NumberOfComponents="6" format="ascii" RangeMin="1918.3614192556777" RangeMax="68326.76135510657">
          -55186.02355114192 -4417.829271656267 0 11981.771002545862 0 0
          39728.75983073134 9502.21456318859 0 -17825.526127505942 0 0
          -43081.87835673038 -2631.1889635056787 0 9248.205133806454 0 0
          25935.59155538652 8873.60757439162 0 -14552.77369957572 0 0
          -29490.888477650093 -607.4600431836433 0 6139.349688486399 0 0
          13126.89390802043 7021.281942676792 0 -10002.419974333232 0 0
          -16793.805491298488 605.9737939118165 0 2762.023938380939 0 0
          4260.682758796614 4273.630165194551 0 -5571.579806287428 0 0
          -8221.748994855778 741.2704315790177 0 747.5036475384176 0 0
          468.4232956345154 3100.0955007981506 0 -3335.986262928963 0 0
          900.3220731639994 778.1927881849871 0 1504.6417127938505 0 0
          52817.14613465981 9675.43200480869 0 -19879.74830417004 0 0
          -66869.5954881585 -5275.469923767409 0 13006.649592080284 0 0
          <InformationKey name="L2_NORM_RANGE" location="vtkDataArray" length="2">
            <Value index="0">
              1918.3614193
            </Value>
            <Value index="1">
              68326.761355
            </Value>
          </InformationKey>
        </DataArray>
        <DataArray type="Float64" Name="Nodal Strain" NumberOfComponents="6" format="ascii" RangeMin="0" RangeMax="0">
          0 0 0 0 0 0
          0 0 0 0 0 0
          0 0 0 0 0 0
          0 0 0 0 0 0
          0 0 0 0 0 0
          0 0 0 0 0 0
          0 0 0 0 0 0
          0 0 0 0 0 0
          0 0 0 0 0 0
          0 0 0 0 0 0
          0 0 0 0 0 0
          0 0 0 0 0 0
          0 0 0 0 0 0
          <InformationKey name="L2_NORM_RANGE" location="vtkDataArray" length="2">
            <Value index="0">
              0
            </Value>
            <Value index="1">
              0
            </Value>
          </InformationKey>
        </DataArray>
        <DataArray type="Float64" Name="Sld_traction" NumberOfComponents="3" format="ascii" RangeMin="568.9726923930207" RangeMax="21679.637917201664">
          -9982.476916017138 9295.256524592915 0 -15889.922550529895 11467.662591648785 0
          -7072.032601384396 6252.607827459404 0 -14140.257882371163 9701.729976263088 0
          -4785.782428600183 3092.6153778447315 0 -11052.886962357667 7206.496352857517 0
          -2154.3105953181475 1045.459284746314 0 -7159.368022766113 4518.7683674921645 0
          -1432.2535779682007 441.0319214329331 0 -2195.529992159339 1001.6898592324602 0
          -487.4804090181553 -293.415704270332 0 -17346.57424348847 13003.963328005448 0
          -12340.883525431642 11653.211638859088 0
          <InformationKey name="L2_NORM_RANGE" location="vtkDataArray" length="2">
            <Value index="0">
              568.97269239
            </Value>
            <Value index="1">
              21679.637917
            </Value>
          </InformationKey>
        </DataArray>
        <DataArray type="Float64" Name="Velocity" NumberOfComponents="3" format="ascii" RangeMin="0.4301045033390052" RangeMax="4.946756814899594">
          -0.6166281191239097 -0.4959344549731195 0 -0.3059884588452163 -1.7712542024932194 0
          -0.7754815000490106 -1.7218652323730823 0 -0.5334349604532702 -2.1592884038139184 0
          -0.7619635697807046 -2.2777811301565336 0 -0.3253141973700423 -2.815453583462297 0
          -0.8405907728434199 -2.8865680177069013 0 -0.5377995982311066 -4.060254161619 0
          -1.0542542094020253 -4.026192554506206 0 -0.7313991046098645 -4.878960662769582 0
          -1.1096038858821269 -4.82070349660616 0 -0.2426790549059787 -0.5897322944135007 0
          -0.3866452646265309 -0.1884020252926496 0
          <InformationKey name="L2_NORM_RANGE" location="vtkDataArray" length="2">
            <Value index="0">
              0.43010450334
            </Value>
            <Value index="1">
              4.9467568149
            </Value>
          </InformationKey>
        </DataArray>
        <DataArray type="Float64" Name="Acceleration" NumberOfComponents="3" format="ascii" RangeMin="532.0538458153621" RangeMax="5706.979375454448">
          344.59721557405817 956.0385068216167 0 308.8896730909919 -3580.832443182522 0
          790.2575878965451 -3078.6511843988915 0 -1913.1104554738224 3253.959227410134 0
          -584.9371760530462 2033.0856563370162 0 785.7838886001509 1108.2632134694159 0
          -494.75073867920423 -195.71152603589508 0 -972.61806891171 2723.227222372943 0
          877.2218348144711 1518.2192121858238 0 1667.0842253463984 3857.6487909735606 0
          3002.538852668662 4853.284870072805 0 1229.7723690395324 708.4038615661063 0
          563.597519218645 -1364.442010764971 0
          <InformationKey name="L2_NORM_RANGE" location="vtkDataArray" length="2">
            <Value index="0">
              532.05384582
            </Value>
            <Value index="1">
              5706.9793755
            </Value>
          </InformationKey>
        </DataArray>
        <DataArray type="Float64" Name="Sigma" NumberOfComponents="6" format="ascii" RangeMin="7488.849551728422" RangeMax="131084.1001465342">
          -69248.12021968508 69248.12021966989 0 43534.30689237059 0 0
          53054.00844001648 -53054.00844000238 0 -46778.89680137417 0 0
          -52406.53344144311 52406.53344145051 0 35175.142446798294 0 0
          34223.28035281101 -34223.2803528177 0 -37212.354913666124 0 0
          -34178.28179976303 34178.28179977744 0 24860.244837494683 0 0
          16718.20435203663 -16718.20435205441 0 -24295.943067905686 0 0
          -17940.036379738605 17940.036379726687 0 12559.949429047781 0 0
          6199.7350862689955 -6199.735086239854 0 -11749.718290514673 0 0
          -8468.595312620559 8468.595312614763 0 5061.35768370906 0 0
          -1184.3040744661075 1184.3040744631753 0 -7299.158535532427 0 0
          4948.578978513117 -4948.57897852721 0 4128.183851499383 0 0
          71256.34036609337 -71256.34036609135 0 -52808.112735496215 0 0
          -86435.88717539568 86435.887175398 0 47336.20313914867 0 0
          <InformationKey name="L2_NORM_RANGE" location="vtkDataArray" length="2">
            <Value index="0">
              7488.8495517
            </Value>
            <Value index="1">
              131084.10015
            </Value>
          </InformationKey>
        </DataArray>
        <DataArray type="Float64" Name="Press" format="ascii" RangeMin="-106848.04935827889" RangeMax="95745.68901710918">
          -88039.70405858818 75841.17186026866 -67156.81364410617 53834.30670701251 -43480.034287083545 30691.44999741888
          -21936.989394364107 13539.578516098214 -10559.573388633344 4256.997317916355 4829.802896716709 95745.68901710918
          -106848.04935827889
        </DataArray>
        <DataArray type="Float64" Name="Dev strain" NumberOfComponents="6" format="ascii" RangeMin="0" RangeMax="0">
          0 0 0 0 0 0
          0 0 0 0 0 0
          0 0 0 0 0 0
          0 0 0 0 0 0
          0 0 0 0 0 0
          0 0 0 0 0 0
          0 0 0 0 0 0
          0 0 0 0 0 0
          0 0 0 0 0 0
          0 0 0 0 0 0
          0 0 0 0 0 0
          0 0 0 0 0 0
          0 0 0 0 0 0
          <InformationKey name="L2_NORM_RANGE" location="vtkDataArray" length="2">
            <Value index="0">
              0
            </Value>
            <Value index="1">
              0
            </Value>
          </InformationKey>
        </DataArray>
        <DataArray type="Float64" Name="J2 Stresses" format="ascii" RangeMin="14722004.972502522" RangeMax="8031341623.70562">
          5269111123.108683 3361794108.0409946 3055767408.88762 1517422757.6624923 1322662890.1295505 427071569.1464824
          361282987.7211902 72950685.11634792 78121441.9695 14722004.972502522 28748909.384596728 5774640235.039622
          8031341623.70562
        </DataArray>
      </PointData>
      <CellData>
        <DataArray type="UInt8" Name="vtkGhostType" format="ascii" RangeMin="0" RangeMax="1">
          1 1 0 0 0 0
          0 0 0 0 0
        </DataArray>
        <DataArray type="Float64" Name="Gauss Stress" NumberOfComponents="6" format="ascii" RangeMin="2407.6943914244202" RangeMax="62683.60221047292">
          -61189.91047624844 -4904.799123593784 0 12687.465765341016 0 0
          46203.12846840483 9494.976077455276 0 -18684.234214833275 0 0
          -49318.66368784581 -3584.900207102555 0 10643.517512598237 0 0
          -36388.025370857446 -1480.3354452556537 0 7607.677456875621 0 0
          32463.14009151981 9215.969857268483 0 -16272.036422747336 0 0
          -23375.229170497925 224.8467144736469 0 4374.750399545594 0 0
          19269.64177414415 8094.173170751056 0 -12216.017714692376 0 0
          -13055.293624329803 417.3041130674526 0 1957.196274080723 0 0
          9090.647392573337 5772.045353528469 0 -7828.570643124195 0 0
          -2059.031194191275 1077.182411516816 0 630.1276665586731 0 0
          1261.2793815211844 3563.3889154064364 0 -4662.506380779347 0 0
          <InformationKey name="L2_NORM_RANGE" location="vtkDataArray" length="2">
            <Value index="0">
              2407.6943914
            </Value>
            <Value index="1">
              62683.60221
            </Value>
          </InformationKey>
        </DataArray>
        <DataArray type="Float64" Name="Gauss Strain" NumberOfComponents="6" format="ascii" RangeMin="0" RangeMax="0">
          0 0 0 0 0 0
          0 0 0 0 0 0
          0 0 0 0 0 0
          0 0 0 0 0 0
          0 0 0 0 0 0
          0 0 0 0 0 0
          0 0 0 0 0 0
          0 0 0 0 0 0
          0 0 0 0 0 0
          0 0 0 0 0 0
          0 0 0 0 0 0
          <InformationKey name="L2_NORM_RANGE" location="vtkDataArray" length="2">
            <Value index="0">
              0
            </Value>
            <Value index="1">
              0
            </Value>
          </InformationKey>
        </DataArray>
      </CellData>
      <Points>
        <DataArray type="Float32" Name="Points" NumberOfComponents="3" format="ascii" RangeMin="0.4000000059604645" RangeMax="1.0012492197622458">
          0.5 0 0 0.6000000238418579 0.05000000074505806 0
          0.6000000238418579 0 0 0.699999988079071 0.05000000074505806 0
          0.699999988079071 0 0 0.800000011920929 0.05000000074505806 0
          0.800000011920929 0 0 0.8999999761581421 0.05000000074505806 0
          0.8999999761581421 0 0 1 0.05000000074505806 0
          1 0 0 0.5 0.05000000074505806 0
          0.4000000059604645 0 0
          <InformationKey name="L2_NORM_RANGE" location="vtkDataArray" length="2">
            <Value index="0">
              0.40000000596
            </Value>
            <Value index="1">
              1.0012492198
            </Value>
          </InformationKey>
        </DataArray>
      </Points>
      <Cells>
        <DataArray type="Int64" Name="connectivity" format="ascii" RangeMin="0" RangeMax="12">
          0 11 12 1 11 0
          2 1 0 4 3 2
          3 1 2 6 5 4
          5 3 4 8 7 6
          7 5 6 10 9 8
          9 7 8
        </DataArray>
        <DataArray type="Int64" Name="offsets" format="ascii" RangeMin="3" RangeMax="33">
          3 6 9 12 15 18
          21 24 27 30 33
        </DataArray>
        <DataArray type="UInt8" Name="types" format="ascii" RangeMin="5" RangeMax="5">
          5 5 5 5 5 5
          5 5 5 5 5
        </DataArray>
      </Cells>
    </Piece>
  </UnstructuredGrid>
</VTKFile>
