<?xml version="1.0"?>
<VTKFile type="UnstructuredGrid" version="0.1" byte_order="LittleEndian" header_type="UInt32" compressor="vtkZLibDataCompressor">
  <UnstructuredGrid>
    <Piece NumberOfPoints="13" NumberOfCells="11">
      <PointData>
        <DataArray type="Float64" Name="Disp" NumberOfComponents="3" format="ascii" RangeMin="0" RangeMax="0.006281189962300234">
          0 0 0 0 0 0
          0.000018997756188767485 0.0000155911949408068 0 0.00001984120860963501 0.000022332124594444895 0
          0.00008000731467052746 -0.000057337434808830214 0 -0.00005968460178217351 -0.00005377492620035167 0
          0.0002269783361667269 -0.0005959387868967923 0 -0.00019683726246247043 -0.0005903545046558536 0
          0.00039337088630723695 -0.001766313325457939 0 -0.0003688194839470202 -0.0017576177601062223 0
          0.0005591152672575548 -0.003653014745859088 0 -0.0005611156499674008 -0.003638276655765369 0
          0.0006939118747517546 -0.006242742478476885 0
          <InformationKey name="L2_NORM_RANGE" location="vtkDataArray" length="2">
            <Value index="0">
              0
            </Value>
            <Value index="1">
              0.0062811899623
            </Value>
          </InformationKey>
        </DataArray>
        <DataArray type="Float64" Name="Nodal Stress" NumberOfComponents="6" format="ascii" RangeMin="2640.086183887933" RangeMax="11675.926708442239">
          5509.892102086154 288.94058126790895 0 666.9051150304299 0 0
          -1922.7635861596727 -342.6228295050757 0 1776.4134785562399 0 0
          6701.7457635687715 57.74123257419483 0 895.574769642251 0 0
          -3698.8642026342654 -746.7414163738091 0 1238.6084204883243 0 0
          8532.945246181489 -92.52814255304716 0 650.6971985637355 0 0
          -6278.288615492312 -763.7748698943325 0 1358.435804745754 0 0
          10671.475900341342 168.44683064858197 0 46.63080860532568 0 0
          -8316.452653565528 -727.8631299398902 0 1266.1583320186703 0 0
          11650.223862092567 391.68840951541125 0 -667.9286293422728 0 0
          -9383.321905697365 -623.1581708412153 0 1021.9547176543397 0 0
          11254.048030372463 611.1510913412636 0 -1343.5244187294827 0 0
          -9177.599954796371 -408.464324546978 0 641.4378663055995 0 0
          9550.703329437945 770.0413788691387 0 -1809.7303160840352 0 0
          <InformationKey name="L2_NORM_RANGE" location="vtkDataArray" length="2">
            <Value index="0">
              2640.0861839
            </Value>
            <Value index="1">
              11675.926708
            </Value>
          </InformationKey>
        </DataArray>
        <DataArray type="Float64" Name="Nodal Strain" NumberOfComponents="6" format="ascii" RangeMin="0" RangeMax="0">
          0 0 0 0 0 0
          0 0 0 0 0 0
          0 0 0 0 0 0
          0 0 0 0 0 0
          0 0 0 0 0 0
          0 0 0 0 0 0
          0 0 0 0 0 0
          0 0 0 0 0 0
          0 0 0 0 0 0
          0 0 0 0 0 0
          0 0 0 0 0 0
          0 0 0 0 0 0
          0 0 0 0 0 0
          <InformationKey name="L2_NORM_RANGE" location="vtkDataArray" length="2">
            <Value index="0">
              0
            </Value>
            <Value index="1">
              0
            </Value>
          </InformationKey>
        </DataArray>
        <DataArray type="Float64" Name="Sld_traction" NumberOfComponents="3" format="ascii" RangeMin="236.8230739609553" RangeMax="3635.1443875218265">
          -676.2027917196732 176.04644777720407 0 -232.95416433858773 42.63244864685069 0
          181.82975792656586 658.8723812767589 0 -1836.0986837488294 1397.2908625830544 0
          55.54844805230076 649.8182120267899 0 -2210.141691456601 1554.3401135024587 0
          -981.1235641036894 1055.1219935810593 0 -2593.652035927524 1704.4166636266523 0
          -2000.4161521104857 1430.0842604682932 0 -2586.1163003421966 1693.2438222336639 0
          -2798.5363497236376 1658.8971221878096 0 -2236.2402042242543 1448.4951804091988 0
          -3216.8713055204375 1692.9305130012488 0
          <InformationKey name="L2_NORM_RANGE" location="vtkDataArray" length="2">
            <Value index="0">
              236.82307396
            </Value>
            <Value index="1">
              3635.1443875
            </Value>
          </InformationKey>
        </DataArray>
        <DataArray type="Float64" Name="Velocity" NumberOfComponents="3" format="ascii" RangeMin="0" RangeMax="7.781830836609555">
          0 0 0 0 0 0
          0.11263254652182203 -0.213546352837718 0 -0.13169180868803027 -0.21436242184660076 0
          0.2408509749122145 -0.9796142040648007 0 -0.25425782932044727 -0.9805522539411298 0
          0.3337739121383839 -2.181641152190096 0 -0.3620085630765899 -2.177744531118226 0
          0.40120045058326415 -3.7625963678742957 0 -0.46631903619186477 -3.751299473852255 0
          0.4315983158314344 -5.650738750914124 0 -0.5701052238488539 -5.629184241411206 0
          0.42226762062220213 -7.770365578670121 0
          <InformationKey name="L2_NORM_RANGE" location="vtkDataArray" length="2">
            <Value index="0">
              0
            </Value>
            <Value index="1">
              7.7818308366
            </Value>
          </InformationKey>
        </DataArray>
        <DataArray type="Float64" Name="Acceleration" NumberOfComponents="3" format="ascii" RangeMin="0" RangeMax="591.1892124532842">
          0 0 0 0 0 0
          28.409560794321095 -66.85964490693897 0 -41.49165018065429 -67.09150805912111 0
          44.81367412633767 -265.96492057670866 0 -57.6723195183929 -262.4484110557296 0
          19.379963620255694 -460.63491093360517 0 -59.78377506053141 -451.6192173289455 0
          -29.65456310645959 -581.9359151846811 0 -59.964967244628724 -566.8684800026604 0
          -98.36047582341553 -582.9493131627532 0 -63.00762490481304 -562.637106012593 0
          -176.28397498661275 -445.28217858303105 0
          <InformationKey name="L2_NORM_RANGE" location="vtkDataArray" length="2">
            <Value index="0">
              0
            </Value>
            <Value index="1">
              591.18921245
            </Value>
          </InformationKey>
        </DataArray>
        <DataArray type="Float64" Name="Sigma" NumberOfComponents="6" format="ascii" RangeMin="5107.5478517481715" RangeMax="22277.23204323342">
          3600.680704084849 -3600.680704082854 0 -396.5375043722929 0 0
          -4875.86575663325 4875.865756633157 0 3150.9607197597875 0 0
          8116.407390102107 -8116.4073901018655 0 309.7347491065181 0 0
          -6651.243359985081 6651.243359985051 0 1384.6455183468413 0 0
          10616.065431681536 -10616.065431680572 0 214.40142510199027 0 0
          -10405.690620103662 10405.69062010358 0 2357.2371193470594 0 0
          14029.270006569577 -14029.270006569239 0 -1268.4253309759995 0 0
          -13331.461624572996 13331.461624572761 0 2885.7670747395537 0 0
          15651.066856637683 -15651.06685663796 0 -2522.5542622849694 0 0
          -14556.923727068062 14556.923727067327 0 3113.9208661505445 0 0
          15326.961224160159 -15326.961224161121 0 -3598.2386104441634 0 0
          -13912.550687187766 13912.550687187979 0 2949.7722687243845 0 0
          13116.668217849923 -13116.668217850573 0 -4123.004959427881 0 0
          <InformationKey name="L2_NORM_RANGE" location="vtkDataArray" length="2">
            <Value index="0">
              5107.5478517
            </Value>
            <Value index="1">
              22277.232043
            </Value>
          </InformationKey>
        </DataArray>
        <DataArray type="Float64" Name="Press" format="ascii" RangeMin="-16339.397630447207" RangeMax="17138.167666684338">
          4237.487288385807 -5690.905876343724 8813.59666627816 -8163.38645781885 11143.186467079384 -11928.756783055522
          15126.342363780128 -15098.709253438725 17138.167666684338 -16339.397630447207 17099.62049101433 -15455.584929413657
          14970.714381541462
        </DataArray>
        <DataArray type="Float64" Name="Dev strain" NumberOfComponents="6" format="ascii" RangeMin="0" RangeMax="0">
          0 0 0 0 0 0
          0 0 0 0 0 0
          0 0 0 0 0 0
          0 0 0 0 0 0
          0 0 0 0 0 0
          0 0 0 0 0 0
          0 0 0 0 0 0
          0 0 0 0 0 0
          0 0 0 0 0 0
          0 0 0 0 0 0
          0 0 0 0 0 0
          0 0 0 0 0 0
          0 0 0 0 0 0
          <InformationKey name="L2_NORM_RANGE" location="vtkDataArray" length="2">
            <Value index="0">
              0
            </Value>
            <Value index="1">
              0
            </Value>
          </InformationKey>
        </DataArray>
        <DataArray type="Float64" Name="J2 Stresses" format="ascii" RangeMin="13004212.030855231" RangeMax="246546713.75248992">
          13004212.030855231 26256205.241075568 65900052.825803146 44718349.03661493 112712337.2425049 109667538.99051942
          197222642.62229335 179809781.94987208 246546713.75248992 214328154.18582836 238152570.64134666 195734355.73290557
          176296777.61102957
        </DataArray>
      </PointData>
      <CellData>
        <DataArray type="UInt8" Name="vtkGhostType" format="ascii" RangeMin="0" RangeMax="0">
          0 0 0 0 0 0
          0 0 0 0 0
        </DataArray>
        <DataArray type="Float64" Name="Gauss Stress" NumberOfComponents="6" format="ascii" RangeMin="3292.4210519404555" RangeMax="11494.208119203713">
          -2817.1324648002146 -543.3313137893576 0 1615.113662404382 0 0
          4733.800138624652 172.9852469228939 0 1021.3859881646705 0 0
          -5129.941774067401 -836.0294084623099 0 1318.761354265297 0 0
          7958.208712445756 -95.94426208623105 0 636.2605641851164 0 0
          -7203.001970273736 -731.0804782023379 0 1324.8596210368714 0 0
          9526.805621983813 33.70907655258702 0 434.4044044910165 0 0
          -8845.752570734994 -687.5402407331555 0 1159.0445595350432 0 0
          11171.55867188667 272.30851279710214 0 -301.7375061738053 0 0
          -9279.291752980736 -517.6162929174479 0 821.8181748102554 0 0
          11439.831626993751 492.4287245065706 0 -1002.2906688595297 0 0
          10381.94289932149 694.5570627728083 0 -1590.4904337158866 0 0
          <InformationKey name="L2_NORM_RANGE" location="vtkDataArray" length="2">
            <Value index="0">
              3292.4210519
            </Value>
            <Value index="1">
              11494.208119
            </Value>
          </InformationKey>
        </DataArray>
        <DataArray type="Float64" Name="Gauss Strain" NumberOfComponents="6" format="ascii" RangeMin="0" RangeMax="0">
          0 0 0 0 0 0
          0 0 0 0 0 0
          0 0 0 0 0 0
          0 0 0 0 0 0
          0 0 0 0 0 0
          0 0 0 0 0 0
          0 0 0 0 0 0
          0 0 0 0 0 0
          0 0 0 0 0 0
          0 0 0 0 0 0
          0 0 0 0 0 0
          <InformationKey name="L2_NORM_RANGE" location="vtkDataArray" length="2">
            <Value index="0">
              0
            </Value>
            <Value index="1">
              0
            </Value>
          </InformationKey>
        </DataArray>
      </CellData>
      <Points>
        <DataArray type="Float32" Name="Points" NumberOfComponents="3" format="ascii" RangeMin="0" RangeMax="0.6020797527609908">
          0 0.05000000074505806 0 0 0 0
          0.10000000149011612 0.05000000074505806 0 0.10000000149011612 0 0
          0.20000000298023224 0.05000000074505806 0 0.20000000298023224 0 0
          0.30000001192092896 0.05000000074505806 0 0.30000001192092896 0 0
          0.4000000059604645 0.05000000074505806 0 0.4000000059604645 0 0
          0.5 0.05000000074505806 0 0.5 0 0
          0.6000000238418579 0.05000000074505806 0
          <InformationKey name="L2_NORM_RANGE" location="vtkDataArray" length="2">
            <Value index="0">
              0
            </Value>
            <Value index="1">
              0.60207975276
            </Value>
          </InformationKey>
        </DataArray>
      </Points>
      <Cells>
        <DataArray type="Int64" Name="connectivity" format="ascii" RangeMin="0" RangeMax="12">
          3 2 1 2 0 1
          5 4 3 4 2 3
          7 6 5 6 4 5
          9 8 7 8 6 7
          11 10 9 10 8 9
          12 10 11
        </DataArray>
        <DataArray type="Int64" Name="offsets" format="ascii" RangeMin="3" RangeMax="33">
          3 6 9 12 15 18
          21 24 27 30 33
        </DataArray>
        <DataArray type="UInt8" Name="types" format="ascii" RangeMin="5" RangeMax="5">
          5 5 5 5 5 5
          5 5 5 5 5
        </DataArray>
      </Cells>
    </Piece>
  </UnstructuredGrid>
</VTKFile>
