<?xml version="1.0"?>
<VTKFile type="UnstructuredGrid" version="0.1" byte_order="LittleEndian" header_type="UInt32" compressor="vtkZLibDataCompressor">
  <UnstructuredGrid>
    <Piece NumberOfPoints="13" NumberOfCells="11">
      <PointData>
        <DataArray type="Float64" Name="Disp" NumberOfComponents="3" format="ascii" RangeMin="0.03938284393075559" RangeMax="0.16498172622899432">
          0.00081497197576316 0.05778635044264915 0 -0.011218853070908336 0.0768870435936113 0
          -0.0008698368985700023 0.07797642409337065 0 -0.013693171860961664 0.09805145785269119 0
          -0.002940228994492534 0.09922696399894812 0 -0.016169022441955297 0.11978364588889537 0
          -0.005245911504377067 0.1209954284972432 0 -0.0186012043364578 0.14168305987809526 0
          -0.007678443432925239 0.14289262222691593 0 -0.020966378429866955 0.16347643127254102 0
          -0.010096404792649331 0.1646725010430151 0 -0.008821703094330757 0.05684227429230804 0
          0.001970621097503649 0.03933351050394976 0
          <InformationKey name="L2_NORM_RANGE" location="vtkDataArray" length="2">
            <Value index="0">
              0.039382843931
            </Value>
            <Value index="1">
              0.16498172623
            </Value>
          </InformationKey>
        </DataArray>
        <DataArray type="Float64" Name="Nodal Stress" NumberOfComponents="6" format="ascii" RangeMin="1244.1786064160303" RangeMax="35701.16593717819">
          24289.251475801728 1076.2878752018062 0 5399.228768287637 0 0
          -16710.92900475207 -725.0292990462186 0 2625.7416159035656 0 0
          15640.211917781693 842.4731517376188 0 4326.538383673941 0 0
          -9873.733325752888 -345.9120135907162 0 2156.0202722436293 0 0
          9058.962643541981 570.0275948238692 0 3085.6543132096263 0 0
          -5038.432976171405 -171.06364728300252 0 1574.9344595380062 0 0
          4667.889067647448 416.74275768667354 0 2033.0237233887142 0 0
          -2124.1957355306163 -110.7860254797169 0 748.3028297663228 0 0
          1931.5409718063786 138.59712391531573 0 797.2157872615323 0 0
          -1216.077694079039 -32.512092423858576 0 260.91839811129563 0 0
          2092.5123743491026 880.5235097200422 0 1155.5612535496255 0 0
          -25553.628606313618 -1379.768433069897 0 3042.6162932344623 0 0
          35156.62533153396 1150.9366289528782 0 6104.120694105858 0 0
          <InformationKey name="L2_NORM_RANGE" location="vtkDataArray" length="2">
            <Value index="0">
              1244.1786064
            </Value>
            <Value index="1">
              35701.165937
            </Value>
          </InformationKey>
        </DataArray>
        <DataArray type="Float64" Name="Nodal Strain" NumberOfComponents="6" format="ascii" RangeMin="0" RangeMax="0">
          0 0 0 0 0 0
          0 0 0 0 0 0
          0 0 0 0 0 0
          0 0 0 0 0 0
          0 0 0 0 0 0
          0 0 0 0 0 0
          0 0 0 0 0 0
          0 0 0 0 0 0
          0 0 0 0 0 0
          0 0 0 0 0 0
          0 0 0 0 0 0
          0 0 0 0 0 0
          0 0 0 0 0 0
          <InformationKey name="L2_NORM_RANGE" location="vtkDataArray" length="2">
            <Value index="0">
              0
            </Value>
            <Value index="1">
              0
            </Value>
          </InformationKey>
        </DataArray>
        <DataArray type="Float64" Name="Sld_traction" NumberOfComponents="3" format="ascii" RangeMin="133.62208070751817" RangeMax="16273.158056168082">
          5522.430018758732 -1563.6016168187764 0 11331.96541368814 -2465.059547184979 0
          3066.396724911466 -866.4692512468621 0 7463.851451147937 -1513.8523993418407 0
          1245.7200862646628 -451.731992554221 0 4232.459300652688 -940.6369498401691 0
          60.91246526230047 -264.80337680632255 0 1834.9549555754006 -483.8086087616453 0
          -100.53338165978094 -220.69347565929948 0 97.26636114165372 -109.11634628915408 0
          -18.272921248172615 -132.36676622802483 0 15807.55186581089 -3864.8385646397674 0
          8519.631730125815 -2572.897559767729 0
          <InformationKey name="L2_NORM_RANGE" location="vtkDataArray" length="2">
            <Value index="0">
              133.62208071
            </Value>
            <Value index="1">
              16273.158056
            </Value>
          </InformationKey>
        </DataArray>
        <DataArray type="Float64" Name="Velocity" NumberOfComponents="3" format="ascii" RangeMin="0.3993328258254212" RangeMax="10.670415041199227">
          0.0314068479362975 1.2821460089789944 0 -0.8913648256585249 2.4621994369058697 0
          -0.13315051010037576 2.6228562888980207 0 -1.3463402471813497 4.145692718668272 0
          -0.4195410978485833 4.349953283314001 0 -1.836869264849704 6.112232497839663 0
          -0.8084787693139226 6.342253498014841 0 -2.322195634523599 8.21407779647312 0
          -1.272032186132635 8.44840431835646 0 -2.771326921718593 10.298982854128553 0
          -1.7392842019074335 10.527708564376482 0 -0.5136846864500839 1.175374843788795 0
          0.08374902218329439 0.39045205475840206 0
          <InformationKey name="L2_NORM_RANGE" location="vtkDataArray" length="2">
            <Value index="0">
              0.39933282583
            </Value>
            <Value index="1">
              10.670415041
            </Value>
          </InformationKey>
        </DataArray>
        <DataArray type="Float64" Name="Acceleration" NumberOfComponents="3" format="ascii" RangeMin="575.9966402263476" RangeMax="934.0946281210445">
          53.60489199588528 -730.5578705297594 0 111.45438818498133 -841.1782250506585 0
          68.0265212653448 -837.0677701598906 0 76.82824605870701 -909.1306456410384 0
          56.99801027831677 -892.7226118440012 0 24.642297985506957 -933.7695280070911 0
          21.272868180368732 -908.6345993761352 0 -33.71771429599721 -933.1095230048522 0
          -31.744790645254398 -905.7335767079785 0 -86.22274780940643 -929.7633617892861 0
          -85.86031852974793 -903.5398945200577 0 121.8201451506875 -722.9367175716252 0
          22.798072534666517 -575.5452870458976 0
          <InformationKey name="L2_NORM_RANGE" location="vtkDataArray" length="2">
            <Value index="0">
              575.99664023
            </Value>
            <Value index="1">
              934.09462812
            </Value>
          </InformationKey>
        </DataArray>
        <DataArray type="Float64" Name="Sigma" NumberOfComponents="6" format="ascii" RangeMin="2524.197527528916" RangeMax="68486.24672878665">
          32718.505398207053 -32718.505398208366 0 8108.483887863717 0 0
          -25005.54336159188 25005.54336158619 0 325.865867278404 0 0
          20678.70159768513 -20678.701597681025 0 6267.877145057927 0 0
          -14873.447727899538 14873.447727903105 0 661.1420760420341 0 0
          11606.911892383265 -11606.911892387072 0 4207.335391266775 0 0
          -7573.694402261748 7573.694402260615 0 618.9378151474335 0 0
          5465.166755075279 -5465.166755060283 0 2947.661530960985 0 0
          -3050.9648029292684 3050.964802918767 0 212.3063453256558 0 0
          2352.0981373840864 -2352.0981373845893 0 838.0757306833618 0 0
          -1834.9743580968736 1834.974358104093 0 -483.62975801287536 0 0
          953.4269749859596 -953.4269749883067 0 2133.899520764008 0 0
          -38042.35118311406 38042.351183117906 0 111.37504152015296 0 0
          48011.33215153209 -48011.33215153014 0 8954.884760115507 0 0
          <InformationKey name="L2_NORM_RANGE" location="vtkDataArray" length="2">
            <Value index="0">
              2524.1975275
            </Value>
            <Value index="1">
              68486.246729
            </Value>
          </InformationKey>
        </DataArray>
        <DataArray type="Float64" Name="Press" format="ascii" RangeMin="-41849.79229281524" RangeMax="51927.26520244915">
          35916.92965424329 -27392.067072820242 22841.814222643996 -16194.175420240634 12939.842826996693 -8414.217858949212
          6462.7455387834025 -3402.95534501855 2418.8559148043546 -2340.315443425296 2933.76564837911 -41849.79229281524
          51927.26520244915
        </DataArray>
        <DataArray type="Float64" Name="Dev strain" NumberOfComponents="6" format="ascii" RangeMin="0" RangeMax="0">
          0 0 0 0 0 0
          0 0 0 0 0 0
          0 0 0 0 0 0
          0 0 0 0 0 0
          0 0 0 0 0 0
          0 0 0 0 0 0
          0 0 0 0 0 0
          0 0 0 0 0 0
          0 0 0 0 0 0
          0 0 0 0 0 0
          0 0 0 0 0 0
          0 0 0 0 0 0
          0 0 0 0 0 0
          <InformationKey name="L2_NORM_RANGE" location="vtkDataArray" length="2">
            <Value index="0">
              0
            </Value>
            <Value index="1">
              0
            </Value>
          </InformationKey>
        </DataArray>
        <DataArray type="Float64" Name="J2 Stresses" format="ascii" RangeMin="2047404.7878123312" RangeMax="2325135505.2313833">
          1086937473.2324834 625303745.9491737 437430270.7424055 221328724.52579132 139145821.4512437 57456617.90359723
          32040224.78597492 9319654.724747576 5707958.380476983 3425605.3305951785 2047404.7878123312 1447223584.6394944
          2325135505.2313833
        </DataArray>
      </PointData>
      <CellData>
        <DataArray type="UInt8" Name="vtkGhostType" format="ascii" RangeMin="0" RangeMax="1">
          1 1 0 0 0 0
          0 0 0 0 0
        </DataArray>
        <DataArray type="Float64" Name="Gauss Stress" NumberOfComponents="6" format="ascii" RangeMin="1784.6530523313693" RangeMax="30130.06055202386">
          29560.62964350076 1102.3053990855292 0 5724.91456316646 0 0
          -21218.106285963702 -998.5135216321567 0 2848.574932220757 0 0
          19919.44681278912 991.6710565879481 0 4900.742300066682 0 0
          12333.215797189638 725.1052890783537 0 3712.1182041222455 0 0
          -13314.905920741057 -514.7129262028698 0 2418.295029459455 0 0
          6828.918250675893 496.66208721471367 0 2591.311579125065 0 0
          -7502.926896657059 -276.10673813883653 0 1829.1384274854142 0 0
          3414.9820660331015 237.44867301436696 0 1332.6812023233342 0 0
          -3504.6400384333656 -64.97840502175336 0 1259.6352304780246 0 0
          1494.285624677114 513.9184551631221 0 829.4484978114981 0 0
          -1952.7519657605158 -263.5246166670736 0 188.9174393320473 0 0
          <InformationKey name="L2_NORM_RANGE" location="vtkDataArray" length="2">
            <Value index="0">
              1784.6530523
            </Value>
            <Value index="1">
              30130.060552
            </Value>
          </InformationKey>
        </DataArray>
        <DataArray type="Float64" Name="Gauss Strain" NumberOfComponents="6" format="ascii" RangeMin="0" RangeMax="0">
          0 0 0 0 0 0
          0 0 0 0 0 0
          0 0 0 0 0 0
          0 0 0 0 0 0
          0 0 0 0 0 0
          0 0 0 0 0 0
          0 0 0 0 0 0
          0 0 0 0 0 0
          0 0 0 0 0 0
          0 0 0 0 0 0
          0 0 0 0 0 0
          <InformationKey name="L2_NORM_RANGE" location="vtkDataArray" length="2">
            <Value index="0">
              0
            </Value>
            <Value index="1">
              0
            </Value>
          </InformationKey>
        </DataArray>
      </CellData>
      <Points>
        <DataArray type="Float32" Name="Points" NumberOfComponents="3" format="ascii" RangeMin="0.4000000059604645" RangeMax="1.0012492197622458">
          0.5 0 0 0.6000000238418579 0.05000000074505806 0
          0.6000000238418579 0 0 0.699999988079071 0.05000000074505806 0
          0.699999988079071 0 0 0.800000011920929 0.05000000074505806 0
          0.800000011920929 0 0 0.8999999761581421 0.05000000074505806 0
          0.8999999761581421 0 0 1 0.05000000074505806 0
          1 0 0 0.5 0.05000000074505806 0
          0.4000000059604645 0 0
          <InformationKey name="L2_NORM_RANGE" location="vtkDataArray" length="2">
            <Value index="0">
              0.40000000596
            </Value>
            <Value index="1">
              1.0012492198
            </Value>
          </InformationKey>
        </DataArray>
      </Points>
      <Cells>
        <DataArray type="Int64" Name="connectivity" format="ascii" RangeMin="0" RangeMax="12">
          0 11 12 1 11 0
          2 1 0 4 3 2
          3 1 2 6 5 4
          5 3 4 8 7 6
          7 5 6 10 9 8
          9 7 8
        </DataArray>
        <DataArray type="Int64" Name="offsets" format="ascii" RangeMin="3" RangeMax="33">
          3 6 9 12 15 18
          21 24 27 30 33
        </DataArray>
        <DataArray type="UInt8" Name="types" format="ascii" RangeMin="5" RangeMax="5">
          5 5 5 5 5 5
          5 5 5 5 5
        </DataArray>
      </Cells>
    </Piece>
  </UnstructuredGrid>
</VTKFile>
