<?xml version="1.0"?>
<VTKFile type="UnstructuredGrid" version="0.1" byte_order="LittleEndian" header_type="UInt32" compressor="vtkZLibDataCompressor">
  <UnstructuredGrid>
    <Piece NumberOfPoints="13" NumberOfCells="11">
      <PointData>
        <DataArray type="Float64" Name="Disp" NumberOfComponents="3" format="ascii" RangeMin="0.03470773547190476" RangeMax="0.13086511027079156">
          0.0010025120997475651 0.04976676306418218 0 -0.008179599638644496 0.06505198927487675 0
          -0.00012160950912721358 0.06571105474387025 0 -0.009554735957702868 0.08131581924868844 0
          -0.0014041527240612752 0.08198813347331294 0 -0.01088720991206579 0.0976376325976145 0
          -0.0027452868543319303 0.09830687771749445 0 -0.012197356277396236 0.1138972302969913 0
          -0.004088786879234482 0.11455967600530907 0 -0.01350581912517106 0.13009397784796142 0
          -0.00541446366592987 0.13075305223740194 0 -0.00675985250236029 0.049153393349572284 0
          0.0018363947176450453 0.03465911937757106 0
          <InformationKey name="L2_NORM_RANGE" location="vtkDataArray" length="2">
            <Value index="0">
              0.034707735472
            </Value>
            <Value index="1">
              0.13086511027
            </Value>
          </InformationKey>
        </DataArray>
        <DataArray type="Float64" Name="Nodal Stress" NumberOfComponents="6" format="ascii" RangeMin="85.68788716215776" RangeMax="25562.293885509447">
          15385.085481628654 468.6757161579632 0 3735.7707959596573 0 0
          -8443.041354062749 -530.3452143025432 0 2590.1204873840516 0 0
          8517.520832439392 294.47544514293816 0 2515.3780953668524 0 0
          -3806.552884141216 -253.06839176205054 0 1579.6769872063005 0 0
          4121.906319612119 182.6785709934491 0 1417.307241111446 0 0
          -1277.4033299070172 -90.91764908718628 0 753.4372202423963 0 0
          1699.7889975380795 115.32204536024578 0 621.5900078476265 0 0
          -264.84040915047353 -16.50457488969868 0 208.65001826749204 0 0
          540.3153910144689 55.39918764197927 0 146.48157735606603 0 0
          -82.23640894479752 14.746736089010337 0 19.029472533409553 0 0
          375.8445261314939 120.44318309438061 0 136.2097815406046 0 0
          -15630.226333212348 -1040.0091482285793 0 3652.812674810224 0 0
          25094.398277924392 568.8213595951032 0 4835.130403507989 0 0
          <InformationKey name="L2_NORM_RANGE" location="vtkDataArray" length="2">
            <Value index="0">
              85.687887162
            </Value>
            <Value index="1">
              25562.293886
            </Value>
          </InformationKey>
        </DataArray>
        <DataArray type="Float64" Name="Nodal Strain" NumberOfComponents="6" format="ascii" RangeMin="0" RangeMax="0">
          0 0 0 0 0 0
          0 0 0 0 0 0
          0 0 0 0 0 0
          0 0 0 0 0 0
          0 0 0 0 0 0
          0 0 0 0 0 0
          0 0 0 0 0 0
          0 0 0 0 0 0
          0 0 0 0 0 0
          0 0 0 0 0 0
          0 0 0 0 0 0
          0 0 0 0 0 0
          0 0 0 0 0 0
          <InformationKey name="L2_NORM_RANGE" location="vtkDataArray" length="2">
            <Value index="0">
              0
            </Value>
            <Value index="1">
              0
            </Value>
          </InformationKey>
        </DataArray>
        <DataArray type="Float64" Name="Sld_traction" NumberOfComponents="3" format="ascii" RangeMin="25.792366209992544" RangeMax="11358.709973349443">
          2301.0453338196867 -982.2399302745841 0 6651.696240177127 -1777.0629893680434 0
          790.1530131284036 -490.4892468230357 0 3480.302919190853 -938.4877057279028 0
          65.65133808820235 -245.71792850740047 0 1420.251077738368 -418.8009334562604 0
          -117.71565974250409 -138.18900678935358 0 363.34465230765545 -130.9607404898337 0
          -48.29111746948733 -85.04393279164121 0 -7.974235233214482 -24.52871230121398 0
          -4.738060683810244 -39.51648561264714 0 10947.279607860379 -3029.4160239215116 0
          4723.896043550383 -1771.7489367564024 0
          <InformationKey name="L2_NORM_RANGE" location="vtkDataArray" length="2">
            <Value index="0">
              25.79236621
            </Value>
            <Value index="1">
              11358.709973
            </Value>
          </InformationKey>
        </DataArray>
        <DataArray type="Float64" Name="Velocity" NumberOfComponents="3" format="ascii" RangeMin="2.9356915018863994" RangeMax="11.811632564099206">
          -0.17458042241461114 4.271635632396347 0 -1.1172986702324246 5.589351701723022 0
          -0.38571907144751055 5.7086276213919795 0 -1.3709838790380258 7.076562529068923 0
          -0.6199326244074995 7.199650784874919 0 -1.621190124504837 8.588531400735967 0
          -0.864001353554535 8.711986398236185 0 -1.8666796049132834 10.104098683480906 0
          -1.1111837733635304 10.226581366871812 0 -2.108545328824224 11.611816906631034 0
          -1.3561768599394917 11.733518149040101 0 -0.865971087804033 4.1622060233258935 0
          -0.0041375762226542045 2.935688586126094 0
          <InformationKey name="L2_NORM_RANGE" location="vtkDataArray" length="2">
            <Value index="0">
              2.9356915019
            </Value>
            <Value index="1">
              11.811632564
            </Value>
          </InformationKey>
        </DataArray>
        <DataArray type="Float64" Name="Acceleration" NumberOfComponents="3" format="ascii" RangeMin="147.54054565904437" RangeMax="1231.5297516216363">
          62.014430671324135 -1223.283754511147 0 25.846037452838573 -1209.631200541 0
          81.28234474864121 -1190.3447492115156 0 -62.030737380751816 -1024.6323978999862 0
          66.50307140172976 -993.3521536428088 0 -155.77208900337519 -714.9320926119835 0
          18.867408887757904 -676.5462584942288 0 -242.15633434642496 -344.0416401736438 0
          -57.31799689466288 -304.44244966850965 0 -313.15639413991084 18.123649889443186 0
          -136.52668845125868 55.93456850554503 0 92.84072626293482 -1228.0252964317224 0
          17.97375614319776 -1082.1800939702407 0
          <InformationKey name="L2_NORM_RANGE" location="vtkDataArray" length="2">
            <Value index="0">
              147.54054566
            </Value>
            <Value index="1">
              1231.5297516
            </Value>
          </InformationKey>
        </DataArray>
        <DataArray type="Float64" Name="Sigma" NumberOfComponents="6" format="ascii" RangeMin="326.93409487338073" RangeMax="47535.81298386767">
          19874.976893001167 -19874.976893000316 0 4428.592612368382 0 0
          -13069.195537904214 13069.195537908605 0 2042.5052894416008 0 0
          10508.455864822068 -10508.455864826416 0 2933.1129774938936 0 0
          -6070.308095286051 6070.308095289412 0 1208.763744755598 0 0
          4666.14454420152 -4666.144544200494 0 1651.5630262278632 0 0
          -2187.536255019103 2187.536255011059 0 491.99382477232876 0 0
          1643.3122946087083 -1643.3122946069495 0 762.8707765093334 0 0
          -541.9154370184983 541.9154370327669 0 51.85850683199462 0 0
          440.2354362849012 -440.23543629149515 0 142.5945882664478 0 0
          -217.6329148853135 217.63291489053782 0 -110.26210185483718 0 0
          144.1000823332344 -144.10008234071972 0 256.25331987540386 0 0
          -23812.18848672617 23812.18848672821 0 2893.224744490313 0 0
          33391.55894523037 -33391.558945229524 0 5446.200368303556 0 0
          <InformationKey name="L2_NORM_RANGE" location="vtkDataArray" length="2">
            <Value index="0">
              326.93409487
            </Value>
            <Value index="1">
              47535.812984
            </Value>
          </InformationKey>
        </DataArray>
        <DataArray type="Float64" Name="Press" format="ascii" RangeMin="-26324.18181637474" RangeMax="35728.48912046181">
          21571.64041831641 -14468.536221211485 11429.030361821608 -6766.292527727127 5168.046213021375 -2494.9762899174584
          1910.124229382259 -629.6887838420004 511.8269810237572 -258.3473946250993 369.5479160306307 -26324.18181637474
          35728.48912046181
        </DataArray>
        <DataArray type="Float64" Name="Dev strain" NumberOfComponents="6" format="ascii" RangeMin="0" RangeMax="0">
          0 0 0 0 0 0
          0 0 0 0 0 0
          0 0 0 0 0 0
          0 0 0 0 0 0
          0 0 0 0 0 0
          0 0 0 0 0 0
          0 0 0 0 0 0
          0 0 0 0 0 0
          0 0 0 0 0 0
          0 0 0 0 0 0
          0 0 0 0 0 0
          0 0 0 0 0 0
          0 0 0 0 0 0
          <InformationKey name="L2_NORM_RANGE" location="vtkDataArray" length="2">
            <Value index="0">
              0
            </Value>
            <Value index="1">
              0
            </Value>
          </InformationKey>
        </DataArray>
        <DataArray type="Float64" Name="J2 Stresses" format="ascii" RangeMin="37181.27471631508" RangeMax="1122411483.4056935">
          399917814.62889427 171846828.972382 112578432.59764475 37213917.819374666 22454820.014777564 4845829.347908933
          2845968.253022236 294344.66706939344 198890.54351457965 50403.51841897672 37181.27471631508 569113007.8829556
          1122411483.4056935
        </DataArray>
      </PointData>
      <CellData>
        <DataArray type="UInt8" Name="vtkGhostType" format="ascii" RangeMin="0" RangeMax="1">
          1 1 0 0 0 0
          0 0 0 0 0
        </DataArray>
        <DataArray type="Float64" Name="Gauss Stress" NumberOfComponents="6" format="ascii" RangeMin="234.30187555229406" RangeMax="20594.384636590403">
          20143.431691302947 507.2001236339473 0 4256.005908387417 0 0
          -12075.828250299677 -738.2234958777743 0 3121.4408821000984 0 0
          11948.790592948517 405.96577966946785 0 3134.736959767959 0 0
          6311.692120284464 242.1639111261191 0 1931.1465828257851 0 0
          -6145.615385161734 -391.5835395818007 0 2061.460670563698 0 0
          2901.704912092434 153.75785622992998 0 968.8092091698417 0 0
          -2561.6408035756144 -167.1742661744115 0 1117.4401985852633 0 0
          1111.2982401463755 83.54337756611268 0 319.10795720259193 0 0
          -766.8934139353644 -42.800482313441094 0 435.57436937121884 0 0
          329.91003538737027 85.44163289587051 0 96.19526876233817 0 0
          -231.8407043540845 -18.96542727051095 0 28.063664414535054 0 0
          <InformationKey name="L2_NORM_RANGE" location="vtkDataArray" length="2">
            <Value index="0">
              234.30187555
            </Value>
            <Value index="1">
              20594.384637
            </Value>
          </InformationKey>
        </DataArray>
        <DataArray type="Float64" Name="Gauss Strain" NumberOfComponents="6" format="ascii" RangeMin="0" RangeMax="0">
          0 0 0 0 0 0
          0 0 0 0 0 0
          0 0 0 0 0 0
          0 0 0 0 0 0
          0 0 0 0 0 0
          0 0 0 0 0 0
          0 0 0 0 0 0
          0 0 0 0 0 0
          0 0 0 0 0 0
          0 0 0 0 0 0
          0 0 0 0 0 0
          <InformationKey name="L2_NORM_RANGE" location="vtkDataArray" length="2">
            <Value index="0">
              0
            </Value>
            <Value index="1">
              0
            </Value>
          </InformationKey>
        </DataArray>
      </CellData>
      <Points>
        <DataArray type="Float32" Name="Points" NumberOfComponents="3" format="ascii" RangeMin="0.4000000059604645" RangeMax="1.0012492197622458">
          0.5 0 0 0.6000000238418579 0.05000000074505806 0
          0.6000000238418579 0 0 0.699999988079071 0.05000000074505806 0
          0.699999988079071 0 0 0.800000011920929 0.05000000074505806 0
          0.800000011920929 0 0 0.8999999761581421 0.05000000074505806 0
          0.8999999761581421 0 0 1 0.05000000074505806 0
          1 0 0 0.5 0.05000000074505806 0
          0.4000000059604645 0 0
          <InformationKey name="L2_NORM_RANGE" location="vtkDataArray" length="2">
            <Value index="0">
              0.40000000596
            </Value>
            <Value index="1">
              1.0012492198
            </Value>
          </InformationKey>
        </DataArray>
      </Points>
      <Cells>
        <DataArray type="Int64" Name="connectivity" format="ascii" RangeMin="0" RangeMax="12">
          0 11 12 1 11 0
          2 1 0 4 3 2
          3 1 2 6 5 4
          5 3 4 8 7 6
          7 5 6 10 9 8
          9 7 8
        </DataArray>
        <DataArray type="Int64" Name="offsets" format="ascii" RangeMin="3" RangeMax="33">
          3 6 9 12 15 18
          21 24 27 30 33
        </DataArray>
        <DataArray type="UInt8" Name="types" format="ascii" RangeMin="5" RangeMax="5">
          5 5 5 5 5 5
          5 5 5 5 5
        </DataArray>
      </Cells>
    </Piece>
  </UnstructuredGrid>
</VTKFile>
