<?xml version="1.0"?>
<VTKFile type="UnstructuredGrid" version="0.1" byte_order="LittleEndian" header_type="UInt32" compressor="vtkZLibDataCompressor">
  <UnstructuredGrid>
    <Piece NumberOfPoints="13" NumberOfCells="11">
      <PointData>
        <DataArray type="Float64" Name="Disp" NumberOfComponents="3" format="ascii" RangeMin="0.04230224162384294" RangeMax="0.19462790844412478">
          0.0006265694101340621 0.06342676274861658 0 -0.014016456183118791 0.08573927737254194 0
          -0.0016488224737156315 0.08729806040817682 0 -0.01773995938635651 0.11127824210045786 0
          -0.0046166039447564705 0.11303694685310367 0 -0.02157559824254905 0.13797809861672405 0
          -0.008070505528245531 0.13984175042856892 0 -0.025375441560303004 0.16513284160185066 0
          -0.011823104395203126 0.16700703320880564 0 -0.029030532713310565 0.19215662232366407 0
          -0.015566651550795412 0.19400438681852206 0 -0.010578219269926595 0.06215247424352611 0
          0.0020771500450506783 0.042251214113825604 0
          <InformationKey name="L2_NORM_RANGE" location="vtkDataArray" length="2">
            <Value index="0">
              0.042302241624
            </Value>
            <Value index="1">
              0.19462790844
            </Value>
          </InformationKey>
        </DataArray>
        <DataArray type="Float64" Name="Nodal Stress" NumberOfComponents="6" format="ascii" RangeMin="2719.3349012961135" RangeMax="44430.21307747056">
          31944.77300765649 1640.2406296372144 0 7008.977641150627 0 0
          -25151.518347110923 -976.1008106134703 0 2027.5802783535555 0 0
          21560.637290598035 1463.2298853906736 0 6206.558850029217 0 0
          -16364.335785873893 -390.35649741967063 0 2196.046803257182 0 0
          12923.94628406419 1109.7912804897994 0 4870.52741711099 0 0
          -9393.925526416437 -155.966895272645 0 2009.2952223126083 0 0
          6884.668828629053 953.1791226956556 0 3613.560449170079 0 0
          -4500.109798906026 -173.29780612554381 0 1034.0863546774058 0 0
          2970.5106980984806 294.2353817578662 0 1524.397364335837 0 0
          -2701.124195909695 -99.34617695656587 0 298.0616057167711 0 0
          4014.1102172764154 2211.556858078323 0 2639.858882429535 0 0
          -35374.98144930344 -1861.213310640797 0 1782.8938676957503 0 0
          43824.80310639597 1611.6499533811902 0 7129.730094668969 0 0
          <InformationKey name="L2_NORM_RANGE" location="vtkDataArray" length="2">
            <Value index="0">
              2719.3349013
            </Value>
            <Value index="1">
              44430.213077
            </Value>
          </InformationKey>
        </DataArray>
        <DataArray type="Float64" Name="Nodal Strain" NumberOfComponents="6" format="ascii" RangeMin="0" RangeMax="0">
          0 0 0 0 0 0
          0 0 0 0 0 0
          0 0 0 0 0 0
          0 0 0 0 0 0
          0 0 0 0 0 0
          0 0 0 0 0 0
          0 0 0 0 0 0
          0 0 0 0 0 0
          0 0 0 0 0 0
          0 0 0 0 0 0
          0 0 0 0 0 0
          0 0 0 0 0 0
          0 0 0 0 0 0
          <InformationKey name="L2_NORM_RANGE" location="vtkDataArray" length="2">
            <Value index="0">
              0
            </Value>
            <Value index="1">
              0
            </Value>
          </InformationKey>
        </DataArray>
        <DataArray type="Float64" Name="Sld_traction" NumberOfComponents="3" format="ascii" RangeMin="248.3286036044246" RangeMax="21230.051167102272">
          9126.38146676278 -1827.3614696130835 0 16397.14706761705 -2795.5489006388175 0
          5767.109825278064 -931.1567017185502 0 11893.552139853738 -1728.9589206030635 0
          2720.0582555033147 -447.0369699631024 0 7369.596972997156 -1222.7138641133436 0
          319.81715576840037 -330.1165727589118 0 3442.440659725644 -731.5249986327004 0
          -175.5310972850465 -364.4335878122391 0 167.40139156603692 -212.18131256340385 0
          -18.160504021930826 -247.66366601056538 0 20763.32165432462 -4427.137499201356 0
          12485.40954894275 -3127.0124450240614 0
          <InformationKey name="L2_NORM_RANGE" location="vtkDataArray" length="2">
            <Value index="0">
              248.3286036
            </Value>
            <Value index="1">
              21230.051167
            </Value>
          </InformationKey>
        </DataArray>
        <DataArray type="Float64" Name="Velocity" NumberOfComponents="3" format="ascii" RangeMin="0.23200920834948077" RangeMax="3.227477661508757">
          -0.13316184751379734 0.8756318598151474 0 0.1587341522995196 0.5314316574143376 0
          -0.10978601524498344 0.4635002905008889 0 0.40475793499986246 -0.12358922530361127 0
          0.010015050356444455 -0.2317929496885327 0 0.6956870189568747 -0.9974173283165868 0
          0.21997838870085484 -1.132767388436676 0 0.993840363150202 -1.9852319141445918 0
          0.4971804659154575 -2.1270059802738928 0 1.2642764855572697 -2.969548286121139 0
          0.7794440519852337 -3.107011347747317 0 -0.01371639896468313 0.9010405485558053 0
          -0.08350570465089158 0.9813521174673738 0
          <InformationKey name="L2_NORM_RANGE" location="vtkDataArray" length="2">
            <Value index="0">
              0.23200920835
            </Value>
            <Value index="1">
              3.2274776615
            </Value>
          </InformationKey>
        </DataArray>
        <DataArray type="Float64" Name="Acceleration" NumberOfComponents="3" format="ascii" RangeMin="20.304657120843135" RangeMax="1935.8531433485177">
          -10.153314446504623 -154.92848489724565 0 164.71746533334226 -361.7405723289412 0
          26.18055937344502 -396.7861076337722 0 265.4579067869963 -672.2759830681171 0
          91.71291343040684 -718.4320746967132 0 377.2025123231615 -1042.9367417985923 0
          181.74738187512776 -1095.8298663895694 0 489.5851342094211 -1443.4127453778347 0
          289.01723738537294 -1497.616196603456 0 594.1601121809435 -1841.7087569665746 0
          397.1097363166009 -1894.685000187339 0 84.81653924849707 -133.24803173010878 0
          -19.86969632395858 -4.180223533337994 0
          <InformationKey name="L2_NORM_RANGE" location="vtkDataArray" length="2">
            <Value index="0">
              20.304657121
            </Value>
            <Value index="1">
              1935.8531433
            </Value>
          </InformationKey>
        </DataArray>
        <DataArray type="Float64" Name="Sigma" NumberOfComponents="6" format="ascii" RangeMin="5318.451154406031" RangeMax="87440.9036466649">
          44325.45245220332 -44325.452452204416 0 12355.15642614278 0 0
          -36448.0076492721 36448.00764926919 0 -2711.9473478732803 0 0
          29703.04408397407 -29703.04408396711 0 10358.751124097638 0 0
          -23527.96478841153 23527.96478840409 0 -1071.7680509364827 0 0
          17618.732967734984 -17618.73296773866 0 7465.475447653967 0 0
          -13103.779138716693 13103.779138720207 0 -200.26822178432434 0 0
          8600.369277182177 -8600.369277182948 0 5806.82181967342 0 0
          -5781.182067165532 5781.182067156786 0 -174.47058756643355 0 0
          4112.426912894899 -4112.426912893297 0 1795.8924756625931 0 0
          -3598.2448264384166 3598.2448264305895 0 -1546.3476387531705 0 0
          1545.4623159767593 -1545.462315959829 0 5154.945346404358 0 0
          -51451.00004943965 51451.0000494412 0 -3855.0875583908114 0 0
          61182.333505429284 -61182.33350542978 0 12623.619299001602 0 0
          <InformationKey name="L2_NORM_RANGE" location="vtkDataArray" length="2">
            <Value index="0">
              5318.4511544
            </Value>
            <Value index="1">
              87440.903647
            </Value>
          </InformationKey>
        </DataArray>
        <DataArray type="Float64" Name="Press" format="ascii" RangeMin="-56768.05419326302" RangeMax="66597.3402798555">
          49039.91619319179 -39956.662469814895 33258.79912491823 -25471.590951750986 19995.257731738242 -14507.862297861264
          10782.732226704487 -6410.894004596412 4143.850887009217 -4921.892278390016 6614.687771038227 -56768.05419326302
          66597.3402798555
        </DataArray>
        <DataArray type="Float64" Name="Dev strain" NumberOfComponents="6" format="ascii" RangeMin="0" RangeMax="0">
          0 0 0 0 0 0
          0 0 0 0 0 0
          0 0 0 0 0 0
          0 0 0 0 0 0
          0 0 0 0 0 0
          0 0 0 0 0 0
          0 0 0 0 0 0
          0 0 0 0 0 0
          0 0 0 0 0 0
          0 0 0 0 0 0
          0 0 0 0 0 0
          0 0 0 0 0 0
          0 0 0 0 0 0
          <InformationKey name="L2_NORM_RANGE" location="vtkDataArray" length="2">
            <Value index="0">
              0
            </Value>
            <Value index="1">
              0
            </Value>
          </InformationKey>
        </DataArray>
        <DataArray type="Float64" Name="J2 Stresses" format="ascii" RangeMin="9031819.15118207" RangeMax="3783116874.221136">
          2002908207.6712003 1330295926.2057004 909096759.067049 553852298.7733097 324353082.30329734 171719054.55647695
          82396146.61526455 33429676.09014722 17718362.55993106 13545163.585932042 9031819.15118207 2650920831.1082325
          3783116874.221136
        </DataArray>
      </PointData>
      <CellData>
        <DataArray type="UInt8" Name="vtkGhostType" format="ascii" RangeMin="0" RangeMax="1">
          1 1 0 0 0 0
          0 0 0 0 0
        </DataArray>
        <DataArray type="Float64" Name="Gauss Stress" NumberOfComponents="6" format="ascii" RangeMin="3429.0534196432154" RangeMax="38328.47557818973">
          37641.996062659084 1604.138790530427 0 7041.229388917858 0 0
          -30419.45190546485 -1370.4150744600524 0 1929.3738399595618 0 0
          26640.847245066816 1587.1879871309295 0 6667.320067455713 0 0
          17192.09272273434 1329.5512138679355 0 5584.152840271709 0 0
          -20814.127550119072 -632.1753143138269 0 2191.678575095958 0 0
          9795.15025559398 1051.601518126689 0 4357.343015181021 0 0
          -12999.068825755752 -323.72818616279005 0 2064.47972497772 0 0
          5149.101077342945 528.0249953992775 0 2476.081235923193 0 0
          -6806.872001484412 49.52261764695152 0 1810.6943367742206 0 0
          2632.0969273635574 1259.0006590782975 0 1801.4967277712612 0 0
          -4151.978458895423 -640.6451384277112 0 25.024749780996217 0 0
          <InformationKey name="L2_NORM_RANGE" location="vtkDataArray" length="2">
            <Value index="0">
              3429.0534196
            </Value>
            <Value index="1">
              38328.475578
            </Value>
          </InformationKey>
        </DataArray>
        <DataArray type="Float64" Name="Gauss Strain" NumberOfComponents="6" format="ascii" RangeMin="0" RangeMax="0">
          0 0 0 0 0 0
          0 0 0 0 0 0
          0 0 0 0 0 0
          0 0 0 0 0 0
          0 0 0 0 0 0
          0 0 0 0 0 0
          0 0 0 0 0 0
          0 0 0 0 0 0
          0 0 0 0 0 0
          0 0 0 0 0 0
          0 0 0 0 0 0
          <InformationKey name="L2_NORM_RANGE" location="vtkDataArray" length="2">
            <Value index="0">
              0
            </Value>
            <Value index="1">
              0
            </Value>
          </InformationKey>
        </DataArray>
      </CellData>
      <Points>
        <DataArray type="Float32" Name="Points" NumberOfComponents="3" format="ascii" RangeMin="0.4000000059604645" RangeMax="1.0012492197622458">
          0.5 0 0 0.6000000238418579 0.05000000074505806 0
          0.6000000238418579 0 0 0.699999988079071 0.05000000074505806 0
          0.699999988079071 0 0 0.800000011920929 0.05000000074505806 0
          0.800000011920929 0 0 0.8999999761581421 0.05000000074505806 0
          0.8999999761581421 0 0 1 0.05000000074505806 0
          1 0 0 0.5 0.05000000074505806 0
          0.4000000059604645 0 0
          <InformationKey name="L2_NORM_RANGE" location="vtkDataArray" length="2">
            <Value index="0">
              0.40000000596
            </Value>
            <Value index="1">
              1.0012492198
            </Value>
          </InformationKey>
        </DataArray>
      </Points>
      <Cells>
        <DataArray type="Int64" Name="connectivity" format="ascii" RangeMin="0" RangeMax="12">
          0 11 12 1 11 0
          2 1 0 4 3 2
          3 1 2 6 5 4
          5 3 4 8 7 6
          7 5 6 10 9 8
          9 7 8
        </DataArray>
        <DataArray type="Int64" Name="offsets" format="ascii" RangeMin="3" RangeMax="33">
          3 6 9 12 15 18
          21 24 27 30 33
        </DataArray>
        <DataArray type="UInt8" Name="types" format="ascii" RangeMin="5" RangeMax="5">
          5 5 5 5 5 5
          5 5 5 5 5
        </DataArray>
      </Cells>
    </Piece>
  </UnstructuredGrid>
</VTKFile>
