<?xml version="1.0"?>
<VTKFile type="UnstructuredGrid" version="0.1" byte_order="LittleEndian" header_type="UInt32" compressor="vtkZLibDataCompressor">
  <UnstructuredGrid>
    <Piece NumberOfPoints="13" NumberOfCells="11">
      <PointData>
        <DataArray type="Float64" Name="Disp" NumberOfComponents="3" format="ascii" RangeMin="0.02768463170432264" RangeMax="0.10836912904185905">
          -0.005284789626835418 -0.03994891443091934 0 0.000495126328012647 -0.05387711609810585 0
          -0.006329545687725431 -0.05341016884125693 0 -0.00042847895325227024 -0.06765077467328731 0
          -0.00729722285190396 -0.06717689776110997 0 -0.0014070210893280565 -0.08133785497108553 0
          -0.008201181829714792 -0.08087327814791147 0 -0.002360133341744707 -0.09484934445965584 0
          -0.009098202448615303 -0.09439202438823464 0 -0.003271756668453303 -0.1083197292167661 0
          -0.010008995070701972 -0.10786415384300009 0 0.0012577719476939383 -0.04037770790528977 0
          -0.004198594029191983 -0.0273644046305053 0
          <InformationKey name="L2_NORM_RANGE" location="vtkDataArray" length="2">
            <Value index="0">
              0.027684631704
            </Value>
            <Value index="1">
              0.10836912904
            </Value>
          </InformationKey>
        </DataArray>
        <DataArray type="Float64" Name="Nodal Stress" NumberOfComponents="6" format="ascii" RangeMin="79.347326063322" RangeMax="29317.624243225375">
          -18251.888170271417 385.4391279702036 0 797.4763273616419 0 0
          8959.895265080175 3069.4355792866345 0 -5585.47506399119 0 0
          -9192.310513637221 644.1958270360525 0 -173.97598682461455 0 0
          3097.748278671427 1743.6374042831285 0 -2963.345790479153 0 0
          -3019.2989282717276 470.6446735854617 0 -460.0926795252049 0 0
          498.46398933709963 567.607106135021 0 -960.1235087494391 0 0
          1.8968704004873798 86.427181606461 0 -205.97118512251623 0 0
          -64.15743547019596 -44.14326292509663 0 15.20506381481413 0 0
          651.1041692407854 -72.08361459270569 0 -2.1937125481392328 0 0
          -101.2065850282603 -144.05983892530116 0 239.35965052515326 0 0
          301.7504302103939 -31.972783520199798 0 0.9202382790728191 0 0
          18098.71251893599 4225.440462258137 0 -8271.02889018596 0 0
          -29242.300358276385 -311.6324256111447 0 2076.980080456434 0 0
          <InformationKey name="L2_NORM_RANGE" location="vtkDataArray" length="2">
            <Value index="0">
              79.347326063
            </Value>
            <Value index="1">
              29317.624243
            </Value>
          </InformationKey>
        </DataArray>
        <DataArray type="Float64" Name="Nodal Strain" NumberOfComponents="6" format="ascii" RangeMin="0" RangeMax="0">
          0 0 0 0 0 0
          0 0 0 0 0 0
          0 0 0 0 0 0
          0 0 0 0 0 0
          0 0 0 0 0 0
          0 0 0 0 0 0
          0 0 0 0 0 0
          0 0 0 0 0 0
          0 0 0 0 0 0
          0 0 0 0 0 0
          0 0 0 0 0 0
          0 0 0 0 0 0
          0 0 0 0 0 0
          <InformationKey name="L2_NORM_RANGE" location="vtkDataArray" length="2">
            <Value index="0">
              0
            </Value>
            <Value index="1">
              0
            </Value>
          </InformationKey>
        </DataArray>
        <DataArray type="Float64" Name="Sld_traction" NumberOfComponents="3" format="ascii" RangeMin="17.341042951790794" RangeMax="11662.180344238122">
          -2006.2772537313967 1818.7795816226258 0 -7012.683939063915 3969.753002476974 0
          -614.119990404421 608.8790787679497 0 -3863.602653142526 2111.51280838699 0
          63.911344009599915 65.58481551099386 0 -1320.7416599640792 680.4919899384388 0
          74.12959547539559 17.008880170752064 0 -15.031128083835918 -20.249305823230426 0
          25.83684847550865 27.40699566801389 0 33.75573505846301 6.742086934114076 0
          -7.345904814663752 15.708260664687005 0 -10040.72239711428 5932.144985215862 0
          -3961.5812824508375 3573.338187317491 0
          <InformationKey name="L2_NORM_RANGE" location="vtkDataArray" length="2">
            <Value index="0">
              17.341042952
            </Value>
            <Value index="1">
              11662.180344
            </Value>
          </InformationKey>
        </DataArray>
        <DataArray type="Float64" Name="Velocity" NumberOfComponents="3" format="ascii" RangeMin="6.35804127188783" RangeMax="9.57694436113283">
          -1.113674173121814 -8.061669172130385 0 -0.7227238347383069 -9.234438944013586 0
          -1.0722047942385071 -9.18409688952984 0 -0.9446972844387869 -9.530236635939733 0
          -0.949568550411898 -9.527138067610238 0 -1.0060596617550057 -9.291485070097217 0
          -0.8513925829738698 -9.310070323194548 0 -0.9497766052082224 -8.972291949855475 0
          -0.8304633108362109 -8.98712084120293 0 -0.8922409593770098 -8.803774603671933 0
          -0.8216589205233396 -8.813822097115384 0 -0.38909147100216346 -8.158915553452527 0
          -1.02735625398229 -6.274490253592915 0
          <InformationKey name="L2_NORM_RANGE" location="vtkDataArray" length="2">
            <Value index="0">
              6.3580412719
            </Value>
            <Value index="1">
              9.5769443611
            </Value>
          </InformationKey>
        </DataArray>
        <DataArray type="Float64" Name="Acceleration" NumberOfComponents="3" format="ascii" RangeMin="195.86044042079234" RangeMax="1532.020852723214">
          40.811661109282795 657.977393555735 0 -153.41888885846924 1209.5213576536044 0
          80.24453081459251 1181.9146185967438 0 -21.02214212943204 1531.8766147177303 0
          0.9772915343091881 1528.7292503615245 0 120.96476585956475 1195.08231051053 0
          -238.97023780664404 1243.6743205109815 0 75.13715474569995 180.87487414936186 0
          -394.09605052822644 246.24720180688746 0 -129.39580110819668 -575.2034971651883 0
          -477.091923403701 -532.5080454928975 0 -206.84159719080344 671.3863825544431 0
          -10.980933411479782 240.48282157529502 0
          <InformationKey name="L2_NORM_RANGE" location="vtkDataArray" length="2">
            <Value index="0">
              195.86044042
            </Value>
            <Value index="1">
              1532.0208527
            </Value>
          </InformationKey>
        </DataArray>
        <DataArray type="Float64" Name="Sigma" NumberOfComponents="6" format="ascii" RangeMin="173.66831356305434" RangeMax="55623.82932567368">
          -23036.812719811198 23036.812719809204 0 8461.109275431696 0 0
          12317.815290001723 -12317.815289997538 0 -11328.2228482286 0 0
          -10894.285837101099 10894.28583709542 0 3665.62542484205 0 0
          3929.979046605952 -3929.9790466062054 0 -5274.413311051759 0 0
          -3133.5784464900908 3133.578446491378 0 672.6713267423211 0 0
          280.165118452303 -280.1651184527936 0 -1258.9467012322586 0 0
          336.1912401392395 -336.19124013242293 0 -157.6825514325042 0 0
          -429.5140893962226 429.5140893912045 0 275.298644949186 0 0
          908.696033414321 -908.6960334163513 0 -231.18504761693362 0 0
          -313.10004207745965 313.10004207973833 0 567.0071788499921 0 0
          35.92521806493398 -35.92521805951618 0 -166.0705890583836 0 0
          25315.418467045463 -25315.418467044827 0 -18004.23054682046 0 0
          -38091.09074211198 38091.09074211399 0 13861.74595799186 0 0
          <InformationKey name="L2_NORM_RANGE" location="vtkDataArray" length="2">
            <Value index="0">
              173.66831356
            </Value>
            <Value index="1">
              55623.829326
            </Value>
          </InformationKey>
        </DataArray>
        <DataArray type="Float64" Name="Press" format="ascii" RangeMin="-43390.0564964373" RangeMax="33786.5469017394">
          -25891.254984385676 17863.332228018 -11902.325844333775 6730.34560929399 -3196.2624789922884 995.9275535884483
          336.8055471288699 -588.3778133611294 891.0857540171737 -571.174041041795 109.8217901997337 33786.5469017394
          -43390.0564964373
        </DataArray>
        <DataArray type="Float64" Name="Dev strain" NumberOfComponents="6" format="ascii" RangeMin="0" RangeMax="0">
          0 0 0 0 0 0
          0 0 0 0 0 0
          0 0 0 0 0 0
          0 0 0 0 0 0
          0 0 0 0 0 0
          0 0 0 0 0 0
          0 0 0 0 0 0
          0 0 0 0 0 0
          0 0 0 0 0 0
          0 0 0 0 0 0
          0 0 0 0 0 0
          0 0 0 0 0 0
          0 0 0 0 0 0
          <InformationKey name="L2_NORM_RANGE" location="vtkDataArray" length="2">
            <Value index="0">
              0
            </Value>
            <Value index="1">
              0
            </Value>
          </InformationKey>
        </DataArray>
        <DataArray type="Float64" Name="J2 Stresses" format="ascii" RangeMin="8185.481430368052" RangeMax="1498968194.1748614">
          548592332.8303082 183810731.7433308 122044666.33921185 22399594.250712812 9932435.558766603 474729.1927334268
          119240.49670063422 203429.68896542548 839090.1127051766 178405.92156647722 8185.481430368052 721908491.5573761
          1498968194.1748614
        </DataArray>
      </PointData>
      <CellData>
        <DataArray type="UInt8" Name="vtkGhostType" format="ascii" RangeMin="0" RangeMax="1">
          1 1 0 0 0 0
          0 0 0 0 0
        </DataArray>
        <DataArray type="Float64" Name="Gauss Stress" NumberOfComponents="6" format="ascii" RangeMin="252.27478261760498" RangeMax="23812.87071977289">
          -23769.083191320435 105.9068052649327 0 1439.5415622010323 0 0
          13451.681727535904 3720.734369379522 0 -6957.1147065391215 0 0
          -13847.843955870678 561.0115554018784 0 266.17061734838217 0 0
          -6155.375983672437 576.5475076495061 0 -312.0388531557958 0 0
          6014.95349749493 2445.947831156631 0 -4312.336911479437 0 0
          -1460.2504887245057 217.89756987706375 0 -247.9859753074806 0 0
          1868.8588008194374 1151.148321774176 0 -1953.5628951805654 0 0
          484.9622239807509 -58.61989879088519 0 -37.85631803341732 0 0
          310.3991855171693 185.8376727207255 0 -380.44353590519216 0 0
          353.75157085896933 -67.26256874033888 0 56.58384739155828 0 0
          -34.12806614837075 -144.84933411038637 0 203.70692539408162 0 0
          <InformationKey name="L2_NORM_RANGE" location="vtkDataArray" length="2">
            <Value index="0">
              252.27478262
            </Value>
            <Value index="1">
              23812.87072
            </Value>
          </InformationKey>
        </DataArray>
        <DataArray type="Float64" Name="Gauss Strain" NumberOfComponents="6" format="ascii" RangeMin="0" RangeMax="0">
          0 0 0 0 0 0
          0 0 0 0 0 0
          0 0 0 0 0 0
          0 0 0 0 0 0
          0 0 0 0 0 0
          0 0 0 0 0 0
          0 0 0 0 0 0
          0 0 0 0 0 0
          0 0 0 0 0 0
          0 0 0 0 0 0
          0 0 0 0 0 0
          <InformationKey name="L2_NORM_RANGE" location="vtkDataArray" length="2">
            <Value index="0">
              0
            </Value>
            <Value index="1">
              0
            </Value>
          </InformationKey>
        </DataArray>
      </CellData>
      <Points>
        <DataArray type="Float32" Name="Points" NumberOfComponents="3" format="ascii" RangeMin="0.4000000059604645" RangeMax="1.0012492197622458">
          0.5 0 0 0.6000000238418579 0.05000000074505806 0
          0.6000000238418579 0 0 0.699999988079071 0.05000000074505806 0
          0.699999988079071 0 0 0.800000011920929 0.05000000074505806 0
          0.800000011920929 0 0 0.8999999761581421 0.05000000074505806 0
          0.8999999761581421 0 0 1 0.05000000074505806 0
          1 0 0 0.5 0.05000000074505806 0
          0.4000000059604645 0 0
          <InformationKey name="L2_NORM_RANGE" location="vtkDataArray" length="2">
            <Value index="0">
              0.40000000596
            </Value>
            <Value index="1">
              1.0012492198
            </Value>
          </InformationKey>
        </DataArray>
      </Points>
      <Cells>
        <DataArray type="Int64" Name="connectivity" format="ascii" RangeMin="0" RangeMax="12">
          0 11 12 1 11 0
          2 1 0 4 3 2
          3 1 2 6 5 4
          5 3 4 8 7 6
          7 5 6 10 9 8
          9 7 8
        </DataArray>
        <DataArray type="Int64" Name="offsets" format="ascii" RangeMin="3" RangeMax="33">
          3 6 9 12 15 18
          21 24 27 30 33
        </DataArray>
        <DataArray type="UInt8" Name="types" format="ascii" RangeMin="5" RangeMax="5">
          5 5 5 5 5 5
          5 5 5 5 5
        </DataArray>
      </Cells>
    </Piece>
  </UnstructuredGrid>
</VTKFile>
