<?xml version="1.0"?>
<VTKFile type="UnstructuredGrid" version="0.1" byte_order="LittleEndian" header_type="UInt32" compressor="vtkZLibDataCompressor">
  <UnstructuredGrid>
    <Piece NumberOfPoints="13" NumberOfCells="11">
      <PointData>
        <DataArray type="Float64" Name="Disp" NumberOfComponents="3" format="ascii" RangeMin="0" RangeMax="0.05224406924653339">
          0 0 0 0 0 0
          -0.0008400045410965771 0.0016609436918581244 0 0.0010681260436399254 0.0016987392082424382 0
          -0.0019799571934 0.007539417191027948 0 0.0017029488762018027 0.007677194006635177 0
          -0.0029001702401495245 0.016102688503835585 0 0.0019355705489211823 0.01634341003769048 0
          -0.003919328077395371 0.026755229069863475 0 0.0018102953316899357 0.027090916728231697 0
          -0.0049463061769126826 0.038870477259770754 0 0.0013672938482348538 0.039276644932847986 0
          -0.005968863458022317 0.051901979157408455 0
          <InformationKey name="L2_NORM_RANGE" location="vtkDataArray" length="2">
            <Value index="0">
              0
            </Value>
            <Value index="1">
              0.052244069247
            </Value>
          </InformationKey>
        </DataArray>
        <DataArray type="Float64" Name="Nodal Stress" NumberOfComponents="6" format="ascii" RangeMin="9237.914067395908" RangeMax="88497.47677529416">
          -84729.44095450021 -10078.244162870056 0 23476.674077159354 0 0
          42759.005465768605 -6165.749798539081 0 3364.555648472973 0 0
          -54489.58580735003 -5626.045291145032 0 5484.920090878967 0 0
          56234.23851007598 1333.635476892926 0 -423.8334730345344 0 0
          -42084.001883566896 -3147.18343679102 0 7103.546069383122 0 0
          44166.605841405566 492.9578152696418 0 2878.0480757516784 0 0
          -32330.492830628278 -2723.0598751789043 0 4816.440284515694 0 0
          33088.71192670398 643.1037690511465 0 3243.373898166711 0 0
          -22511.079171201854 -1647.7125931859255 0 4107.462672927502 0 0
          23372.50643118445 421.19408683563637 0 3297.92382049756 0 0
          -14890.42486951223 -1105.1101231709758 0 3181.9209746623424 0 0
          15460.672767033242 321.1800499269512 0 2781.010508139267 0 0
          -8894.85008973795 -653.2957780867033 0 2407.052725640646 0 0
          <InformationKey name="L2_NORM_RANGE" location="vtkDataArray" length="2">
            <Value index="0">
              9237.9140674
            </Value>
            <Value index="1">
              88497.476775
            </Value>
          </InformationKey>
        </DataArray>
        <DataArray type="Float64" Name="Nodal Strain" NumberOfComponents="6" format="ascii" RangeMin="0" RangeMax="0">
          0 0 0 0 0 0
          0 0 0 0 0 0
          0 0 0 0 0 0
          0 0 0 0 0 0
          0 0 0 0 0 0
          0 0 0 0 0 0
          0 0 0 0 0 0
          0 0 0 0 0 0
          0 0 0 0 0 0
          0 0 0 0 0 0
          0 0 0 0 0 0
          0 0 0 0 0 0
          0 0 0 0 0 0
          <InformationKey name="L2_NORM_RANGE" location="vtkDataArray" length="2">
            <Value index="0">
              0
            </Value>
            <Value index="1">
              0
            </Value>
          </InformationKey>
        </DataArray>
        <DataArray type="Float64" Name="Sld_traction" NumberOfComponents="3" format="ascii" RangeMin="2860.2711554659827" RangeMax="46267.476053315324">
          42768.64378710227 -17649.998553996124 0 -13209.817082775911 -2718.678135311824 0
          19641.2049288369 -9357.813876219032 0 11081.01007297701 -5378.164566261206 0
          21235.030323080493 -8554.193249914708 0 9878.78880256381 -4451.703815387622 0
          16858.21063535799 -6509.691814398243 0 6799.954910826814 -3082.1462790302694 0
          13036.130365025185 -4435.579891260168 0 4534.782993939546 -1897.2967840610263 0
          9483.612789305294 -2970.4502904586197 0 2625.4396189414624 -1134.9968678737478 0
          6349.135734810394 -1883.528640781544 0
          <InformationKey name="L2_NORM_RANGE" location="vtkDataArray" length="2">
            <Value index="0">
              2860.2711555
            </Value>
            <Value index="1">
              46267.476053
            </Value>
          </InformationKey>
        </DataArray>
        <DataArray type="Float64" Name="Velocity" NumberOfComponents="3" format="ascii" RangeMin="0" RangeMax="7.680212860653338">
          0 0 0 0 0 0
          -0.16078067409289878 0.33565254897578944 0 0.22122916642429208 0.3507883432209531 0
          -0.4088647771957271 1.4835536229070954 0 0.2723719384892377 1.5334879727711423 0
          -0.5830610580345246 2.963085381207053 0 0.20097833788915753 3.042054447978134 0
          -0.7747923263546883 4.584430213384625 0 0.03485707331266075 4.6798226262654214 0
          -0.9436370259049733 6.170556383455915 0 -0.18750028120995899 6.268425070416226 0
          -1.0868304282536183 7.602925042716585 0
          <InformationKey name="L2_NORM_RANGE" location="vtkDataArray" length="2">
            <Value index="0">
              0
            </Value>
            <Value index="1">
              7.6802128607
            </Value>
          </InformationKey>
        </DataArray>
        <DataArray type="Float64" Name="Acceleration" NumberOfComponents="3" format="ascii" RangeMin="0" RangeMax="799.2726741522613">
          0 0 0 0 0 0
          27.11226660382465 -63.612992526803396 0 -41.18902371792808 -63.90008139540623 0
          42.392063312765686 -260.2791547938159 0 -63.372126526307056 -257.382863006158 0
          28.19733228156406 -474.5946149327947 0 -71.38918044791467 -470.1811024197941 0
          2.729474448824476 -656.5515416251728 0 -71.76167208885181 -651.2967723892489 0
          -31.160303928583744 -770.251604844103 0 -65.97181423731854 -764.0295673710862 0
          -69.7533486876141 -796.2231332945375 0
          <InformationKey name="L2_NORM_RANGE" location="vtkDataArray" length="2">
            <Value index="0">
              0
            </Value>
            <Value index="1">
              799.27267415
            </Value>
          </InformationKey>
        </DataArray>
        <DataArray type="Float64" Name="Sigma" NumberOfComponents="6" format="ascii" RangeMin="19808.965543480852" RangeMax="126520.35012655043">
          -78719.7608195357 78719.76081953464 0 47507.9413072132 0 0
          89369.14682848661 -89369.14682848689 0 -5806.047402636418 0 0
          -81232.01877267666 81232.01877267678 0 4696.861096847445 0 0
          77922.43175207035 -77922.43175207045 0 -6251.787207648495 0 0
          -63690.586167159054 63690.586167158726 0 14709.983530636498 0 0
          60451.86588349579 -60451.86588349665 0 -399.79166433950064 0 0
          -48436.98038419368 48436.980384192364 0 5663.822891400724 0 0
          44664.96114471617 -44664.9611447138 0 2539.760098047204 0 0
          -34319.74570960466 34319.74570960205 0 4892.015705436563 0 0
          31166.85373526819 -31166.853735265562 0 2997.9171380741927 0 0
          -22900.895311602646 22900.89531160197 0 3209.0294522358136 0 0
          20203.32584598678 -20203.3258459884 0 2850.70896868415 0 0
          -13908.669603360224 13908.669603360553 0 2343.701267638273 0 0
          <InformationKey name="L2_NORM_RANGE" location="vtkDataArray" length="2">
            <Value index="0">
              19808.965543
            </Value>
            <Value index="1">
              126520.35013
            </Value>
          </InformationKey>
        </DataArray>
        <DataArray type="Float64" Name="Press" format="ascii" RangeMin="-91042.00014850158" RangeMax="86674.55643915368">
          -91042.00014850158 82059.88900878679 -89591.25894652301 86674.55643915368 -71739.60064599408 64002.29461199156
          -54288.66739363098 48214.659761684976 -38109.33262704363 33268.75778782797 -25427.361949513215 21702.914619214436
          -15441.348989686132
        </DataArray>
        <DataArray type="Float64" Name="Dev strain" NumberOfComponents="6" format="ascii" RangeMin="0" RangeMax="0">
          0 0 0 0 0 0
          0 0 0 0 0 0
          0 0 0 0 0 0
          0 0 0 0 0 0
          0 0 0 0 0 0
          0 0 0 0 0 0
          0 0 0 0 0 0
          0 0 0 0 0 0
          0 0 0 0 0 0
          0 0 0 0 0 0
          0 0 0 0 0 0
          0 0 0 0 0 0
          0 0 0 0 0 0
          <InformationKey name="L2_NORM_RANGE" location="vtkDataArray" length="2">
            <Value index="0">
              0
            </Value>
            <Value index="1">
              0
            </Value>
          </InformationKey>
        </DataArray>
        <DataArray type="Float64" Name="J2 Stresses" format="ascii" RangeMin="194824324.04342353" RangeMax="7995271951.462041">
          6761051865.29723 7995271951.462041 6604155999.925272 6081676580.978501 4110586670.1841917 3654468047.1399326
          2354160791.1749887 1996571349.397808 1183827899.9873974 973619648.5472085 527025473.5792978 410206010.64518404
          194824324.04342353
        </DataArray>
      </PointData>
      <CellData>
        <DataArray type="UInt8" Name="vtkGhostType" format="ascii" RangeMin="0" RangeMax="0">
          0 0 0 0 0 0
          0 0 0 0 0
        </DataArray>
        <DataArray type="Float64" Name="Gauss Stress" NumberOfComponents="6" format="ascii" RangeMin="12278.289999423625" RangeMax="59207.80648765557">
          55067.58210309927 -2305.457768821036 0 -2453.6578378124896 0 0
          -56385.3342833212 -9330.245774171093 0 15466.251667141409 0 0
          51206.987291186095 1417.846312247599 0 2686.1348862161676 0 0
          -47218.82544704294 -2552.043321866122 0 4385.0191399451505 0 0
          38202.7112080213 416.1467786758244 0 2601.2637750361423 0 0
          -37900.55803183015 -3450.090919926352 0 6658.004919232574 0 0
          28295.384697616348 620.6719173640007 0 3476.5643138526534 0 0
          -27425.035069357273 -2030.5251033030065 0 4365.199564961496 0 0
          19337.864909060503 358.34206262573457 0 3019.2185196647188 0 0
          -18773.90802488934 -1404.716500930141 0 3699.65409858219 0 0
          -11924.011796320334 -853.185750336928 0 2801.146562852746 0 0
          <InformationKey name="L2_NORM_RANGE" location="vtkDataArray" length="2">
            <Value index="0">
              12278.289999
            </Value>
            <Value index="1">
              59207.806488
            </Value>
          </InformationKey>
        </DataArray>
        <DataArray type="Float64" Name="Gauss Strain" NumberOfComponents="6" format="ascii" RangeMin="0" RangeMax="0">
          0 0 0 0 0 0
          0 0 0 0 0 0
          0 0 0 0 0 0
          0 0 0 0 0 0
          0 0 0 0 0 0
          0 0 0 0 0 0
          0 0 0 0 0 0
          0 0 0 0 0 0
          0 0 0 0 0 0
          0 0 0 0 0 0
          0 0 0 0 0 0
          <InformationKey name="L2_NORM_RANGE" location="vtkDataArray" length="2">
            <Value index="0">
              0
            </Value>
            <Value index="1">
              0
            </Value>
          </InformationKey>
        </DataArray>
      </CellData>
      <Points>
        <DataArray type="Float32" Name="Points" NumberOfComponents="3" format="ascii" RangeMin="0" RangeMax="0.6020797527609908">
          0 0.05000000074505806 0 0 0 0
          0.10000000149011612 0.05000000074505806 0 0.10000000149011612 0 0
          0.20000000298023224 0.05000000074505806 0 0.20000000298023224 0 0
          0.30000001192092896 0.05000000074505806 0 0.30000001192092896 0 0
          0.4000000059604645 0.05000000074505806 0 0.4000000059604645 0 0
          0.5 0.05000000074505806 0 0.5 0 0
          0.6000000238418579 0.05000000074505806 0
          <InformationKey name="L2_NORM_RANGE" location="vtkDataArray" length="2">
            <Value index="0">
              0
            </Value>
            <Value index="1">
              0.60207975276
            </Value>
          </InformationKey>
        </DataArray>
      </Points>
      <Cells>
        <DataArray type="Int64" Name="connectivity" format="ascii" RangeMin="0" RangeMax="12">
          3 2 1 2 0 1
          5 4 3 4 2 3
          7 6 5 6 4 5
          9 8 7 8 6 7
          11 10 9 10 8 9
          12 10 11
        </DataArray>
        <DataArray type="Int64" Name="offsets" format="ascii" RangeMin="3" RangeMax="33">
          3 6 9 12 15 18
          21 24 27 30 33
        </DataArray>
        <DataArray type="UInt8" Name="types" format="ascii" RangeMin="5" RangeMax="5">
          5 5 5 5 5 5
          5 5 5 5 5
        </DataArray>
      </Cells>
    </Piece>
  </UnstructuredGrid>
</VTKFile>
