<?xml version="1.0"?>
<VTKFile type="UnstructuredGrid" version="0.1" byte_order="LittleEndian" header_type="UInt32" compressor="vtkZLibDataCompressor">
  <UnstructuredGrid>
    <Piece NumberOfPoints="13" NumberOfCells="11">
      <PointData>
        <DataArray type="Float64" Name="Disp" NumberOfComponents="3" format="ascii" RangeMin="0" RangeMax="0.08196375534286811">
          0 0 0 0 0 0
          0.0012083211577411659 -0.0022621436617016304 0 -0.0013059483695382422 -0.0022124090222616264 0
          0.002181366703021761 -0.010188392434071427 0 -0.002966708643556083 -0.009951010808884069 0
          0.002481336729777023 -0.0229162429842897 0 -0.00485169871143113 -0.022386076950340623 0
          0.0019861232572839327 -0.039663902937048086 0 -0.007144535320152571 -0.038835597709044885 0
          0.0007047537469644842 -0.05960303682889355 0 -0.009827460534091614 -0.058488268875640896 0
          -0.0012868871467994008 -0.08195365221499859 0
          <InformationKey name="L2_NORM_RANGE" location="vtkDataArray" length="2">
            <Value index="0">
              0
            </Value>
            <Value index="1">
              0.081963755343
            </Value>
          </InformationKey>
        </DataArray>
        <DataArray type="Float64" Name="Nodal Stress" NumberOfComponents="6" format="ascii" RangeMin="38087.79708967331" RangeMax="142942.01772102911">
          138236.36541267252 -4423.023014561306 0 -36104.910677991465 0 0
          -76422.54559694878 -13644.671377721254 0 2559.620357544489 0 0
          103166.904831857 5876.560127339647 0 -14095.9406417125 0 0
          -95270.70328068231 -3999.923981665539 0 9005.614401583462 0 0
          83947.4503476328 7105.029487350546 0 -20090.039034233767 0 0
          -88323.5345751128 -6051.561463165809 0 10370.684746980009 0 0
          75465.86621866579 8620.238383272464 0 -20698.23166615541 0 0
          -77209.42101237255 -5068.178603073172 0 12285.609431490426 0 0
          61612.087014676305 9653.253071689713 0 -20888.58834790643 0 0
          -65509.28939164759 -4600.162554284706 0 11842.27934127624 0 0
          47793.73662050066 9937.009730445141 0 -19090.820014904784 0 0
          -52042.062582125654 -3312.2408063705566 0 10149.2656656506 0 0
          33283.932968575056 9293.096799916171 0 -16015.568836445274 0 0
          <InformationKey name="L2_NORM_RANGE" location="vtkDataArray" length="2">
            <Value index="0">
              38087.79709
            </Value>
            <Value index="1">
              142942.01772
            </Value>
          </InformationKey>
        </DataArray>
        <DataArray type="Float64" Name="Nodal Strain" NumberOfComponents="6" format="ascii" RangeMin="0" RangeMax="0">
          0 0 0 0 0 0
          0 0 0 0 0 0
          0 0 0 0 0 0
          0 0 0 0 0 0
          0 0 0 0 0 0
          0 0 0 0 0 0
          0 0 0 0 0 0
          0 0 0 0 0 0
          0 0 0 0 0 0
          0 0 0 0 0 0
          0 0 0 0 0 0
          0 0 0 0 0 0
          0 0 0 0 0 0
          <InformationKey name="L2_NORM_RANGE" location="vtkDataArray" length="2">
            <Value index="0">
              0
            </Value>
            <Value index="1">
              0
            </Value>
          </InformationKey>
        </DataArray>
        <DataArray type="Float64" Name="Sld_traction" NumberOfComponents="3" format="ascii" RangeMin="10534.661105572319" RangeMax="62740.82817869668">
          -60648.44567662134 16067.90457896267 0 22777.214513610474 19943.75630975405 0
          -24352.54430974552 17494.236970027287 0 -19565.76845418226 16268.605494648493 0
          -21147.68417962335 14441.32218545539 0 -15475.789236571252 14535.087809438783 0
          -18903.91937182328 14561.782559317951 0 -12433.627337440743 12815.460931752714 0
          -17490.252891121723 13974.535686106996 0 -9453.963681640877 10684.705952139328 0
          -15841.760506946563 12908.26204644688 0 -6793.254262641281 8051.756400460974 0
          -13953.17597176862 11146.495147665944 0
          <InformationKey name="L2_NORM_RANGE" location="vtkDataArray" length="2">
            <Value index="0">
              10534.661106
            </Value>
            <Value index="1">
              62740.828179
            </Value>
          </InformationKey>
        </DataArray>
        <DataArray type="Float64" Name="Velocity" NumberOfComponents="3" format="ascii" RangeMin="0" RangeMax="1.7697477491669846">
          0 0 0 0 0 0
          0.0982804687211446 -0.24294901266634505 0 -0.14570834569151703 -0.23206581887311606 0
          0.11172691186374539 -0.9241731025569617 0 -0.2235337765050711 -0.8885501961516322 0
          -0.01318657465639217 -1.5210276993615128 0 -0.22784087102393835 -1.485177532055772 0
          -0.15231741167054103 -1.763180791009134 0 -0.15730389439308246 -1.7581920364650827 0
          -0.22495733349843244 -1.5104478141381499 0 0.023020921431505137 -1.5602862776125548 0
          -0.17038199078740313 -0.7359069266683775 0
          <InformationKey name="L2_NORM_RANGE" location="vtkDataArray" length="2">
            <Value index="0">
              0
            </Value>
            <Value index="1">
              1.7697477492
            </Value>
          </InformationKey>
        </DataArray>
        <DataArray type="Float64" Name="Acceleration" NumberOfComponents="3" format="ascii" RangeMin="0" RangeMax="426.8590271368184">
          0 0 0 0 0 0
          26.744867060234583 -69.63164452898354 0 -41.963964173914064 -65.32096703043362 0
          25.65194012406073 -258.0424126982052 0 -62.80601636732308 -246.3665152270496 0
          -14.549090690055891 -403.83053239328 0 -57.584667462157086 -395.0902459686695 0
          -53.53533046335542 -421.81403323310224 0 -22.08176161739084 -426.28749084633455 0
          -66.4564787722395 -263.97333225631155 0 56.85382350582404 -288.9218274133964 0
          -35.1731757015898 88.3411456891481 0
          <InformationKey name="L2_NORM_RANGE" location="vtkDataArray" length="2">
            <Value index="0">
              0
            </Value>
            <Value index="1">
              426.85902714
            </Value>
          </InformationKey>
        </DataArray>
        <DataArray type="Float64" Name="Sigma" NumberOfComponents="6" format="ascii" RangeMin="75755.15182052323" RangeMax="208782.49681906498">
          138312.61902954627 -138312.61902954816 0 -73002.5329175471 0 0
          -136215.45281406108 136215.45281406134 0 29468.589090375273 0 0
          144908.99160943422 -144908.99160943463 0 -27883.16596724697 0 0
          -137835.2368022848 137835.23680228397 0 32693.86311679329 0 0
          119609.98302423346 -119609.98302423327 0 -51611.80091771178 0 0
          -117923.03473110578 117923.03473110746 0 42735.61127033254 0 0
          105727.65287812852 -105727.6528781271 0 -53079.72116647424 0 0
          -102623.58455493317 102623.58455493244 0 46154.20088870527 0 0
          85170.65552059143 -85170.65552059533 0 -54691.72765948746 0 0
          -83500.70443144938 83500.70443145336 0 44556.01022211221 0 0
          65185.269436903705 -65185.269436901355 0 -49743.14338958274 0 0
          -64184.112773524685 64184.11277352093 0 38459.48064419656 0 0
          44968.1945839107 -44968.19458391425 0 -41165.10632899291 0 0
          <InformationKey name="L2_NORM_RANGE" location="vtkDataArray" length="2">
            <Value index="0">
              75755.151821
            </Value>
            <Value index="1">
              208782.49682
            </Value>
          </InformationKey>
        </DataArray>
        <DataArray type="Float64" Name="Press" format="ascii" RangeMin="-172251.4657703627" RangeMax="170717.45632780818">
          134580.34711938942 -172251.4657703627 170717.45632780818 -150849.3406459619 136573.02751468847 -138200.18380854986
          129281.74560610505 -122174.74751991534 109420.29856307819 -102902.9026265979 89383.09366055905 -80753.40603931295
          66354.61809243893
        </DataArray>
        <DataArray type="Float64" Name="Dev strain" NumberOfComponents="6" format="ascii" RangeMin="0" RangeMax="0">
          0 0 0 0 0 0
          0 0 0 0 0 0
          0 0 0 0 0 0
          0 0 0 0 0 0
          0 0 0 0 0 0
          0 0 0 0 0 0
          0 0 0 0 0 0
          0 0 0 0 0 0
          0 0 0 0 0 0
          0 0 0 0 0 0
          0 0 0 0 0 0
          0 0 0 0 0 0
          0 0 0 0 0 0
          <InformationKey name="L2_NORM_RANGE" location="vtkDataArray" length="2">
            <Value index="0">
              0
            </Value>
            <Value index="1">
              0
            </Value>
          </InformationKey>
        </DataArray>
        <DataArray type="Float64" Name="J2 Stresses" format="ascii" RangeMin="2445780018.905938" RangeMax="21192983585.352394">
          20462723035.907047 18771749021.084076 21192983585.352394 19265774675.716713 14972492537.54977 14362425237.856026
          11882700782.895554 11064152671.822186 8001836830.402469 7468677152.276844 4867714430.130726 4489383245.379625
          2445780018.905938
        </DataArray>
      </PointData>
      <CellData>
        <DataArray type="UInt8" Name="vtkGhostType" format="ascii" RangeMin="0" RangeMax="0">
          0 0 0 0 0 0
          0 0 0 0 0
        </DataArray>
        <DataArray type="Float64" Name="Gauss Stress" NumberOfComponents="6" format="ascii" RangeMin="44996.948158659005" RangeMax="96688.59448738908">
          -93841.68269847606 -7747.217360535246 0 11426.428746640537 0 0
          93350.83183391814 -4653.273382695501 0 -23805.703264806267 0 0
          -96208.26181632683 -5442.73614355505 0 7939.224489804694 0 0
          94374.96034263924 9919.135121716936 0 -15600.367922721825 0 0
          -81970.71737675689 -5424.739771482457 0 11936.696997521196 0 0
          78356.39682783328 6746.662713663579 0 -20651.970271284492 0 0
          -72203.66168307539 -4901.2393725481925 0 12006.161150443348 0 0
          68267.34016435158 9417.524268492647 0 -20539.082645752147 0 0
          -58924.254257807406 -3924.555745759624 0 11090.782492242017 0 0
          54251.90337436173 9681.756356998672 0 -19959.62027565267 0 0
          40317.88565365826 9671.65148879679 0 -17482.92302479303 0 0
          <InformationKey name="L2_NORM_RANGE" location="vtkDataArray" length="2">
            <Value index="0">
              44996.948159
            </Value>
            <Value index="1">
              96688.594487
            </Value>
          </InformationKey>
        </DataArray>
        <DataArray type="Float64" Name="Gauss Strain" NumberOfComponents="6" format="ascii" RangeMin="0" RangeMax="0">
          0 0 0 0 0 0
          0 0 0 0 0 0
          0 0 0 0 0 0
          0 0 0 0 0 0
          0 0 0 0 0 0
          0 0 0 0 0 0
          0 0 0 0 0 0
          0 0 0 0 0 0
          0 0 0 0 0 0
          0 0 0 0 0 0
          0 0 0 0 0 0
          <InformationKey name="L2_NORM_RANGE" location="vtkDataArray" length="2">
            <Value index="0">
              0
            </Value>
            <Value index="1">
              0
            </Value>
          </InformationKey>
        </DataArray>
      </CellData>
      <Points>
        <DataArray type="Float32" Name="Points" NumberOfComponents="3" format="ascii" RangeMin="0" RangeMax="0.6020797527609908">
          0 0.05000000074505806 0 0 0 0
          0.10000000149011612 0.05000000074505806 0 0.10000000149011612 0 0
          0.20000000298023224 0.05000000074505806 0 0.20000000298023224 0 0
          0.30000001192092896 0.05000000074505806 0 0.30000001192092896 0 0
          0.4000000059604645 0.05000000074505806 0 0.4000000059604645 0 0
          0.5 0.05000000074505806 0 0.5 0 0
          0.6000000238418579 0.05000000074505806 0
          <InformationKey name="L2_NORM_RANGE" location="vtkDataArray" length="2">
            <Value index="0">
              0
            </Value>
            <Value index="1">
              0.60207975276
            </Value>
          </InformationKey>
        </DataArray>
      </Points>
      <Cells>
        <DataArray type="Int64" Name="connectivity" format="ascii" RangeMin="0" RangeMax="12">
          3 2 1 2 0 1
          5 4 3 4 2 3
          7 6 5 6 4 5
          9 8 7 8 6 7
          11 10 9 10 8 9
          12 10 11
        </DataArray>
        <DataArray type="Int64" Name="offsets" format="ascii" RangeMin="3" RangeMax="33">
          3 6 9 12 15 18
          21 24 27 30 33
        </DataArray>
        <DataArray type="UInt8" Name="types" format="ascii" RangeMin="5" RangeMax="5">
          5 5 5 5 5 5
          5 5 5 5 5
        </DataArray>
      </Cells>
    </Piece>
  </UnstructuredGrid>
</VTKFile>
