<?xml version="1.0"?>
<VTKFile type="UnstructuredGrid" version="0.1" byte_order="LittleEndian" header_type="UInt32" compressor="vtkZLibDataCompressor">
  <UnstructuredGrid>
    <Piece NumberOfPoints="13" NumberOfCells="11">
      <PointData>
        <DataArray type="Float64" Name="Disp" NumberOfComponents="3" format="ascii" RangeMin="0" RangeMax="0.07628489531221114">
          0 0 0 0 0 0
          0.0011907518989477722 -0.0022790229360749887 0 -0.0013280677568427398 -0.002228314446326098 0
          0.0021256339986587517 -0.010145118436317591 0 -0.0028961656977272796 -0.009916615333249251 0
          0.002358707104266129 -0.022358599687294 0 -0.0045795914658685035 -0.02188147300430392 0
          0.0018944502635643199 -0.0380029843415713 0 -0.00654298200304594 -0.037294714994722616 0
          0.0007943767908186488 -0.0562212885488222 0 -0.008748177417225939 -0.05530631528746237 0
          -0.0008373558714309798 -0.07628029947463233 0
          <InformationKey name="L2_NORM_RANGE" location="vtkDataArray" length="2">
            <Value index="0">
              0
            </Value>
            <Value index="1">
              0.076284895312
            </Value>
          </InformationKey>
        </DataArray>
        <DataArray type="Float64" Name="Nodal Stress" NumberOfComponents="6" format="ascii" RangeMin="28834.97342329776" RangeMax="139190.96607750584">
          134256.2730864272 -3210.6944324765072 0 -36593.30014897991 0 0
          -72270.26136018097 -12008.611728999153 0 595.5119803815069 0 0
          97634.60300130378 6153.115445418125 0 -14699.591854255392 0 0
          -89569.69248606643 -2988.317682967952 0 7438.760415179971 0 0
          76575.95825008336 7266.388692335475 0 -19742.246451326093 0 0
          -79968.72919329737 -4609.657207734176 0 8182.376192035457 0 0
          65583.65681251162 8187.52003186248 0 -18953.216947083485 0 0
          -66484.2237598341 -3461.176730320225 0 9316.496250129678 0 0
          50843.32086794533 8412.24645435604 0 -17828.144413205544 0 0
          -53520.55804579184 -2907.5750946068633 0 8364.40366054283 0 0
          37698.766906232464 7963.823147489331 0 -15236.210334690519 0 0
          -40325.66541240889 -1837.982907693231 0 6676.495898908844 0 0
          25257.80349207855 6888.004699645115 0 -12085.298768979592 0 0
          <InformationKey name="L2_NORM_RANGE" location="vtkDataArray" length="2">
            <Value index="0">
              28834.973423
            </Value>
            <Value index="1">
              139190.96608
            </Value>
          </InformationKey>
        </DataArray>
        <DataArray type="Float64" Name="Nodal Strain" NumberOfComponents="6" format="ascii" RangeMin="0" RangeMax="0">
          0 0 0 0 0 0
          0 0 0 0 0 0
          0 0 0 0 0 0
          0 0 0 0 0 0
          0 0 0 0 0 0
          0 0 0 0 0 0
          0 0 0 0 0 0
          0 0 0 0 0 0
          0 0 0 0 0 0
          0 0 0 0 0 0
          0 0 0 0 0 0
          0 0 0 0 0 0
          0 0 0 0 0 0
          <InformationKey name="L2_NORM_RANGE" location="vtkDataArray" length="2">
            <Value index="0">
              0
            </Value>
            <Value index="1">
              0
            </Value>
          </InformationKey>
        </DataArray>
        <DataArray type="Float64" Name="Sld_traction" NumberOfComponents="3" format="ascii" RangeMin="7882.126038890079" RangeMax="62767.430409330875">
          -60499.42472868634 16720.344723964576 0 22339.127500859508 19013.48392817659 0
          -24561.472688571077 16923.997469228565 0 -17427.791902359833 14365.704144440557 0
          -21544.817694366095 13885.346629332927 0 -13372.471942813583 12321.172297132916 0
          -18820.37278985461 13495.452702868899 0 -10348.498713174988 10335.049997900362 0
          -16615.736362728017 12275.344266183012 0 -7587.788625177186 8178.461382706621 0
          -14173.144987932152 10677.641217552175 0 -5271.925878568409 5859.582615155257 0
          -11679.60199689228 8647.91056618309 0
          <InformationKey name="L2_NORM_RANGE" location="vtkDataArray" length="2">
            <Value index="0">
              7882.1260389
            </Value>
            <Value index="1">
              62767.430409
            </Value>
          </InformationKey>
        </DataArray>
        <DataArray type="Float64" Name="Velocity" NumberOfComponents="3" format="ascii" RangeMin="0" RangeMax="2.753367586733809">
          0 0 0 0 0 0
          0.01344598488684845 -0.004545304987050303 0 0.0029348353221040346 -0.004404675675333314 0
          0.03208994375137553 -0.0686758755248773 0 -0.04565489640076881 -0.06252129390629246 0
          0.05791222996639234 -0.34527585958864826 0 -0.14178267494382002 -0.3185412943817205 0
          0.03805436460886735 -0.8845548036307598 0 -0.2933155404841412 -0.8287356676982256 0
          -0.04688011740114134 -1.6927235578916502 0 -0.5065809322267767 -1.603670788228424 0
          -0.20624017882172083 -2.7456325421141017 0
          <InformationKey name="L2_NORM_RANGE" location="vtkDataArray" length="2">
            <Value index="0">
              0
            </Value>
            <Value index="1">
              2.7533675867
            </Value>
          </InformationKey>
        </DataArray>
        <DataArray type="Float64" Name="Acceleration" NumberOfComponents="3" format="ascii" RangeMin="0" RangeMax="515.4333587439154">
          0 0 0 0 0 0
          -0.9555788542284063 -3.687666769277257 0 -4.007399439891515 -4.083694276831466 0
          -4.500013272943988 -5.6003415540708374 0 3.02530533170966 -6.7987387544872036 0
          -12.42681370315222 33.35294651833465 0 20.266351303373995 28.727124027376703 0
          -14.733078832750152 129.49415113929717 0 48.220350134349246 120.3214982553327 0
          -8.328173732672553 290.2380859337136 0 87.01905548089599 276.153169016412 0
          8.684460836926533 515.3601919492867 0
          <InformationKey name="L2_NORM_RANGE" location="vtkDataArray" length="2">
            <Value index="0">
              0
            </Value>
            <Value index="1">
              515.43335874
            </Value>
          </InformationKey>
        </DataArray>
        <DataArray type="Float64" Name="Sigma" NumberOfComponents="6" format="ascii" RangeMin="57026.92396100266" RangeMax="203262.29209339473">
          134320.86482188443 -134320.86482188437 0 -72328.20980822516 0 0
          -130722.75471596704 130722.7547159667 0 25812.115369179268 0 0
          137014.96011000543 -137014.96011000528 0 -27528.89634864859 0 0
          -129818.94814818245 129818.94814818157 0 30187.286053910528 0 0
          109337.05268027872 -109337.05268027874 0 -49406.65770176377 0 0
          -106618.8911994492 106618.89119944947 0 37381.49142350499 0 0
          92019.89057460336 -92019.89057460256 0 -46975.089632702504 0 0
          -88326.21169502479 88326.21169502437 0 37618.49824079268 0 0
          70492.32469200892 -70492.32469200758 0 -45138.45492894799 0 0
          -68424.90707849679 68424.90707849301 0 33815.287434513484 0 0
          51680.51558004331 -51680.515580037325 0 -38256.83591874395 0 0
          -50236.11252773449 50236.11252772733 0 27264.76850663971 0 0
          34365.06174636681 -34365.06174636899 0 -29835.467463919893 0 0
          <InformationKey name="L2_NORM_RANGE" location="vtkDataArray" length="2">
            <Value index="0">
              57026.923961
            </Value>
            <Value index="1">
              203262.29209
            </Value>
          </InformationKey>
        </DataArray>
        <DataArray type="Float64" Name="Press" format="ascii" RangeMin="-163679.72946913954" RangeMax="161674.15472087968">
          132048.36602808058 -163679.72946913954 161674.15472087968 -141220.31878635474 125710.48837385727 -123948.67800061221
          113183.57793007472 -103791.05413643658 90559.4069792232 -82696.65295372288 70206.03790454405 -61487.37753458089
          49544.28790927944
        </DataArray>
        <DataArray type="Float64" Name="Dev strain" NumberOfComponents="6" format="ascii" RangeMin="0" RangeMax="0">
          0 0 0 0 0 0
          0 0 0 0 0 0
          0 0 0 0 0 0
          0 0 0 0 0 0
          0 0 0 0 0 0
          0 0 0 0 0 0
          0 0 0 0 0 0
          0 0 0 0 0 0
          0 0 0 0 0 0
          0 0 0 0 0 0
          0 0 0 0 0 0
          0 0 0 0 0 0
          0 0 0 0 0 0
          <InformationKey name="L2_NORM_RANGE" location="vtkDataArray" length="2">
            <Value index="0">
              0
            </Value>
            <Value index="1">
              0
            </Value>
          </InformationKey>
        </DataArray>
        <DataArray type="Float64" Name="J2 Stresses" format="ascii" RangeMin="1403496248.5293338" RangeMax="19349937210.014603">
          19349937210.014603 17255004925.488796 18962559327.49001 17080777358.125523 12564845545.124857 11716931935.861412
          9019325022.862011 8155307524.867424 5478537868.826682 4967836324.770353 3036772064.247214 2709508902.329006
          1403496248.5293338
        </DataArray>
      </PointData>
      <CellData>
        <DataArray type="UInt8" Name="vtkGhostType" format="ascii" RangeMin="0" RangeMax="0">
          0 0 0 0 0 0
          0 0 0 0 0
        </DataArray>
        <DataArray type="Float64" Name="Gauss Stress" NumberOfComponents="6" format="ascii" RangeMin="34993.11904863488" RangeMax="93600.20585182727">
          -88917.54542958623 -6566.383593490536 0 9490.168358147072 0 0
          90218.62049858124 -3523.426312034073 0 -24681.663595898164 0 0
          -88853.09836015421 -4119.240581919135 0 6054.039925217257 0 0
          87565.79631682798 9877.086555426584 0 -15582.755998833947 0 0
          -72493.78884228157 -3876.980629034264 0 9341.633343865062 0 0
          69894.48011958429 6735.77874929599 0 -19666.751970320427 0 0
          -60729.031397482984 -3223.168676475487 0 8765.11024878606 0 0
          58045.97811481629 8588.642400425204 0 -18165.015440285944 0 0
          -46986.165536649234 -2332.4961858589036 0 7607.740007469749 0 0
          43938.90837453328 8106.952912164159 0 -16526.66780439282 0 0
          31357.471025972758 7484.494493521203 0 -13609.178292008048 0 0
          <InformationKey name="L2_NORM_RANGE" location="vtkDataArray" length="2">
            <Value index="0">
              34993.119049
            </Value>
            <Value index="1">
              93600.205852
            </Value>
          </InformationKey>
        </DataArray>
        <DataArray type="Float64" Name="Gauss Strain" NumberOfComponents="6" format="ascii" RangeMin="0" RangeMax="0">
          0 0 0 0 0 0
          0 0 0 0 0 0
          0 0 0 0 0 0
          0 0 0 0 0 0
          0 0 0 0 0 0
          0 0 0 0 0 0
          0 0 0 0 0 0
          0 0 0 0 0 0
          0 0 0 0 0 0
          0 0 0 0 0 0
          0 0 0 0 0 0
          <InformationKey name="L2_NORM_RANGE" location="vtkDataArray" length="2">
            <Value index="0">
              0
            </Value>
            <Value index="1">
              0
            </Value>
          </InformationKey>
        </DataArray>
      </CellData>
      <Points>
        <DataArray type="Float32" Name="Points" NumberOfComponents="3" format="ascii" RangeMin="0" RangeMax="0.6020797527609908">
          0 0.05000000074505806 0 0 0 0
          0.10000000149011612 0.05000000074505806 0 0.10000000149011612 0 0
          0.20000000298023224 0.05000000074505806 0 0.20000000298023224 0 0
          0.30000001192092896 0.05000000074505806 0 0.30000001192092896 0 0
          0.4000000059604645 0.05000000074505806 0 0.4000000059604645 0 0
          0.5 0.05000000074505806 0 0.5 0 0
          0.6000000238418579 0.05000000074505806 0
          <InformationKey name="L2_NORM_RANGE" location="vtkDataArray" length="2">
            <Value index="0">
              0
            </Value>
            <Value index="1">
              0.60207975276
            </Value>
          </InformationKey>
        </DataArray>
      </Points>
      <Cells>
        <DataArray type="Int64" Name="connectivity" format="ascii" RangeMin="0" RangeMax="12">
          3 2 1 2 0 1
          5 4 3 4 2 3
          7 6 5 6 4 5
          9 8 7 8 6 7
          11 10 9 10 8 9
          12 10 11
        </DataArray>
        <DataArray type="Int64" Name="offsets" format="ascii" RangeMin="3" RangeMax="33">
          3 6 9 12 15 18
          21 24 27 30 33
        </DataArray>
        <DataArray type="UInt8" Name="types" format="ascii" RangeMin="5" RangeMax="5">
          5 5 5 5 5 5
          5 5 5 5 5
        </DataArray>
      </Cells>
    </Piece>
  </UnstructuredGrid>
</VTKFile>
