<?xml version="1.0"?>
<VTKFile type="UnstructuredGrid" version="0.1" byte_order="LittleEndian" header_type="UInt32" compressor="vtkZLibDataCompressor">
  <UnstructuredGrid>
    <Piece NumberOfPoints="13" NumberOfCells="11">
      <PointData>
        <DataArray type="Float64" Name="Disp" NumberOfComponents="3" format="ascii" RangeMin="0.037356486610590406" RangeMax="0.18382831941094135">
          -0.009683487220080117 -0.056359067950588544 0 -0.001032414076070451 -0.08030002029188567 0
          -0.012895153467717572 -0.07888023793534954 0 -0.003728263531051296 -0.10508339508847764 0
          -0.016385628078480124 -0.1034595857993208 0 -0.006921711454866475 -0.13100198540991653 0
          -0.019982050252865858 -0.12927079269019182 0 -0.010410800741266978 -0.15729311105237964 0
          -0.023488564174998974 -0.1555574203103192 0 -0.013944301508686302 -0.18329868377292274 0
          -0.026910384194689312 -0.18158304947237025 0 0.0009652399749120325 -0.05749670994687104 0
          -0.006888457824611983 -0.03671588539972531 0
          <InformationKey name="L2_NORM_RANGE" location="vtkDataArray" length="2">
            <Value index="0">
              0.037356486611
            </Value>
            <Value index="1">
              0.18382831941
            </Value>
          </InformationKey>
        </DataArray>
        <DataArray type="Float64" Name="Nodal Stress" NumberOfComponents="6" format="ascii" RangeMin="1634.5565787240225" RangeMax="73212.2279912399">
          -59153.29881090312 -4169.6314654358675 0 11966.365092655573 0 0
          38649.85821756506 10551.949144283262 0 -18327.97660207055 0 0
          -44537.1684728596 -2417.442834552875 0 8991.857797896768 0 0
          23363.812910181434 9203.553586924376 0 -14081.938581845254 0 0
          -29074.321692193666 -556.8016171069262 0 5381.674529365679 0 0
          10541.678349845466 6840.059400790394 0 -9113.107793927937 0 0
          -15462.359811082706 621.833865777687 0 2120.32462579829 0 0
          2845.1430845386244 3736.7316112942763 0 -4470.003327329349 0 0
          -6882.155321568584 404.1255848764664 0 495.1613231932216 0 0
          -111.4988566013318 1897.2299805091866 0 -2296.9916663500785 0 0
          1403.9833797085762 131.11176684688616 0 826.6895325007772 0 0
          54197.196692180536 10601.936615656086 0 -20887.352965484515 0 0
          -71757.03561367802 -5555.945899569277 0 13419.747856785292 0 0
          <InformationKey name="L2_NORM_RANGE" location="vtkDataArray" length="2">
            <Value index="0">
              1634.5565787
            </Value>
            <Value index="1">
              73212.227991
            </Value>
          </InformationKey>
        </DataArray>
        <DataArray type="Float64" Name="Nodal Strain" NumberOfComponents="6" format="ascii" RangeMin="0" RangeMax="0">
          0 0 0 0 0 0
          0 0 0 0 0 0
          0 0 0 0 0 0
          0 0 0 0 0 0
          0 0 0 0 0 0
          0 0 0 0 0 0
          0 0 0 0 0 0
          0 0 0 0 0 0
          0 0 0 0 0 0
          0 0 0 0 0 0
          0 0 0 0 0 0
          0 0 0 0 0 0
          0 0 0 0 0 0
          <InformationKey name="L2_NORM_RANGE" location="vtkDataArray" length="2">
            <Value index="0">
              0
            </Value>
            <Value index="1">
              0
            </Value>
          </InformationKey>
        </DataArray>
        <DataArray type="Float64" Name="Sld_traction" NumberOfComponents="3" format="ascii" RangeMin="254.3969949683543" RangeMax="21524.94515997258">
          -7812.748076654375 9377.549884847764 0 -15262.25728070263 12496.322001659837 0
          -5066.243528187756 6310.9200692524655 0 -13114.160511992628 10247.791634937812 0
          -2827.529350401428 3324.1708229650153 0 -9762.070045712318 7287.063299004355 0
          -817.7670833847292 1188.651890448153 0 -5582.3082938633725 4104.175175321501 0
          -524.9015193755714 606.6867532761452 0 -1464.1203983962243 754.5794416937227 0
          253.64545040990652 19.5401262862997 0 -16484.37407362315 13841.556109798059 0
          -10746.807288658632 12122.726081404711 0
          <InformationKey name="L2_NORM_RANGE" location="vtkDataArray" length="2">
            <Value index="0">
              254.39699497
            </Value>
            <Value index="1">
              21524.94516
            </Value>
          </InformationKey>
        </DataArray>
        <DataArray type="Float64" Name="Velocity" NumberOfComponents="3" format="ascii" RangeMin="0.1092881562553812" RangeMax="4.3619023642014625">
          -0.1063574993564611 0.47874864651502946 0 0.025889505625997566 -0.10617737327765298 0
          -0.31480256541548446 -0.023313623807993622 0 -0.12970192954738113 -0.9466657600482549 0
          -0.5985863984129685 -0.8220064621350929 0 -0.37708507622522536 -1.9968532118213318 0
          -0.9259425942573376 -1.8451518176810708 0 -0.6890776768610758 -3.1349683859441626 0
          -1.2485831201756312 -2.979670988959839 0 -1.010668216372821 -4.228005254777045 0
          -1.5513648752164695 -4.076697101670774 0 0.08110806713721475 0.4402597981803389 0
          0.01904743490413452 0.6731925413756592 0
          <InformationKey name="L2_NORM_RANGE" location="vtkDataArray" length="2">
            <Value index="0">
              0.10928815626
            </Value>
            <Value index="1">
              4.3619023642
            </Value>
          </InformationKey>
        </DataArray>
        <DataArray type="Float64" Name="Acceleration" NumberOfComponents="3" format="ascii" RangeMin="303.1359140139262" RangeMax="3409.4694635103547">
          50.73005888789885 -883.376005768303 0 -90.45568244058495 -289.3253391586477 0
          239.85299130940075 -365.6570306705398 0 47.097091509549955 493.9674957936513 0
          470.4942868828839 391.884049010725 0 245.13169517034112 1412.5367057247204 0
          717.1034374717347 1297.2469797066879 0 478.28200195712907 2377.93993404723 0
          953.7959799441123 2262.0619825420727 0 716.9620617472774 3312.279912086582 0
          1180.0101332907107 3198.758838665526 0 -144.59276325802125 -842.302744655346 0
          -78.3356103151682 -1093.2245292653606 0
          <InformationKey name="L2_NORM_RANGE" location="vtkDataArray" length="2">
            <Value index="0">
              303.13591401
            </Value>
            <Value index="1">
              3409.4694635
            </Value>
          </InformationKey>
        </DataArray>
        <DataArray type="Float64" Name="Sigma" NumberOfComponents="6" format="ascii" RangeMin="4863.374823474161" RangeMax="139353.07420048807">
          -73201.35007231584 73201.35007231076 0 44467.39083649078 0 0
          52279.7345985315 -52279.7345985331 0 -47794.071299376075 0 0
          -52530.803347548346 52530.80334755386 0 34711.70438479109 0 0
          31347.033261689838 -31347.033261695673 0 -35571.72186967634 0 0
          -32194.89332832596 32194.893328324633 0 22373.816163682695 0 0
          13669.156170179182 -13669.156170183922 0 -21610.807592570545 0 0
          -15654.479861415499 15654.47986142368 0 10179.253899021338 0 0
          4446.894826178891 -4446.894826185442 0 -9130.501807775228 0 0
          -6656.164418078057 6656.164418063862 0 3507.202053954107 0 0
          -1077.3599070236266 1077.3599070368027 0 -4618.550198390185 0 0
          5139.6337754184115 -5139.633775406142 0 2209.053137219593 0 0
          74124.63701147142 -74124.63701146774 0 -55301.091980430756 0 0
          -92212.90732171018 92212.90732170909 0 49120.65487839418 0 0
          <InformationKey name="L2_NORM_RANGE" location="vtkDataArray" length="2">
            <Value index="0">
              4863.3748235
            </Value>
            <Value index="1">
              139353.0742
            </Value>
          </InformationKey>
        </DataArray>
        <DataArray type="Float64" Name="Press" format="ascii" RangeMin="-113847.55250905029" RangeMax="100647.07746614325">
          -92587.57168506966 77043.89437609182 -67589.29222019776 51442.172875862125 -41419.94894276183 27187.472101405026
          -19250.2592265196 10914.429298358724 -8379.318254662077 2075.798498814983 4686.85502447313 100647.07746614325
          -113847.55250905029
        </DataArray>
        <DataArray type="Float64" Name="Dev strain" NumberOfComponents="6" format="ascii" RangeMin="0" RangeMax="0">
          0 0 0 0 0 0
          0 0 0 0 0 0
          0 0 0 0 0 0
          0 0 0 0 0 0
          0 0 0 0 0 0
          0 0 0 0 0 0
          0 0 0 0 0 0
          0 0 0 0 0 0
          0 0 0 0 0 0
          0 0 0 0 0 0
          0 0 0 0 0 0
          0 0 0 0 0 0
          0 0 0 0 0 0
          <InformationKey name="L2_NORM_RANGE" location="vtkDataArray" length="2">
            <Value index="0">
              0
            </Value>
            <Value index="1">
              0
            </Value>
          </InformationKey>
        </DataArray>
        <DataArray type="Float64" Name="J2 Stresses" format="ascii" RangeMin="6493455.853038657" RangeMax="9106429960.64279">
          5852774864.360669 3304238962.5354357 3060710905.663367 1298973343.5030742 1161658068.8538122 303602581.6055886
          270967042.21677685 40616389.410572395 47379641.32220889 6493455.853038657 27635814.28612359 6259014505.639139
          9106429960.64279
        </DataArray>
      </PointData>
      <CellData>
        <DataArray type="UInt8" Name="vtkGhostType" format="ascii" RangeMin="0" RangeMax="1">
          1 1 0 0 0 0
          0 0 0 0 0
        </DataArray>
        <DataArray type="Float64" Name="Gauss Stress" NumberOfComponents="6" format="ascii" RangeMin="1486.5583789415923" RangeMax="67095.04209741692">
          -65692.55570351044 -4832.808781808202 0 12762.317911484735 0 0
          46102.140564950845 10633.45953982511 0 -19542.590814438692 0 0
          -52195.12945016944 -3226.85023594803 0 10461.674640635267 0 0
          -36981.91056709398 -1396.1349576382177 0 7171.266226265819 0 0
          30664.246514809733 9933.603506360425 0 -16218.029594753778 0 0
          -22554.317695812893 232.49365056266106 0 3647.420823377831 0 0
          16676.99737934946 8129.46664365012 0 -11602.90443285473 0 0
          -11526.299212045871 382.8670901597154 0 1518.651381733405 0 0
          7104.4044360622465 5463.357012766156 0 -6854.018500441478 0 0
          -1403.5184270190775 325.7419394401859 0 365.90166426117196 0 0
          441.4266811962789 2632.5130138089503 0 -3413.9499840704357 0 0
          <InformationKey name="L2_NORM_RANGE" location="vtkDataArray" length="2">
            <Value index="0">
              1486.5583789
            </Value>
            <Value index="1">
              67095.042097
            </Value>
          </InformationKey>
        </DataArray>
        <DataArray type="Float64" Name="Gauss Strain" NumberOfComponents="6" format="ascii" RangeMin="0" RangeMax="0">
          0 0 0 0 0 0
          0 0 0 0 0 0
          0 0 0 0 0 0
          0 0 0 0 0 0
          0 0 0 0 0 0
          0 0 0 0 0 0
          0 0 0 0 0 0
          0 0 0 0 0 0
          0 0 0 0 0 0
          0 0 0 0 0 0
          0 0 0 0 0 0
          <InformationKey name="L2_NORM_RANGE" location="vtkDataArray" length="2">
            <Value index="0">
              0
            </Value>
            <Value index="1">
              0
            </Value>
          </InformationKey>
        </DataArray>
      </CellData>
      <Points>
        <DataArray type="Float32" Name="Points" NumberOfComponents="3" format="ascii" RangeMin="0.4000000059604645" RangeMax="1.0012492197622458">
          0.5 0 0 0.6000000238418579 0.05000000074505806 0
          0.6000000238418579 0 0 0.699999988079071 0.05000000074505806 0
          0.699999988079071 0 0 0.800000011920929 0.05000000074505806 0
          0.800000011920929 0 0 0.8999999761581421 0.05000000074505806 0
          0.8999999761581421 0 0 1 0.05000000074505806 0
          1 0 0 0.5 0.05000000074505806 0
          0.4000000059604645 0 0
          <InformationKey name="L2_NORM_RANGE" location="vtkDataArray" length="2">
            <Value index="0">
              0.40000000596
            </Value>
            <Value index="1">
              1.0012492198
            </Value>
          </InformationKey>
        </DataArray>
      </Points>
      <Cells>
        <DataArray type="Int64" Name="connectivity" format="ascii" RangeMin="0" RangeMax="12">
          0 11 12 1 11 0
          2 1 0 4 3 2
          3 1 2 6 5 4
          5 3 4 8 7 6
          7 5 6 10 9 8
          9 7 8
        </DataArray>
        <DataArray type="Int64" Name="offsets" format="ascii" RangeMin="3" RangeMax="33">
          3 6 9 12 15 18
          21 24 27 30 33
        </DataArray>
        <DataArray type="UInt8" Name="types" format="ascii" RangeMin="5" RangeMax="5">
          5 5 5 5 5 5
          5 5 5 5 5
        </DataArray>
      </Cells>
    </Piece>
  </UnstructuredGrid>
</VTKFile>
