<?xml version="1.0"?>
<VTKFile type="UnstructuredGrid" version="0.1" byte_order="LittleEndian" header_type="UInt32" compressor="vtkZLibDataCompressor">
  <UnstructuredGrid>
    <Piece NumberOfPoints="13" NumberOfCells="11">
      <PointData>
        <DataArray type="Float64" Name="Disp" NumberOfComponents="3" format="ascii" RangeMin="0.016501495615848474" RangeMax="0.08517592066841162">
          0.0016349410896414965 0.025423881528966425 0 -0.004119534980571221 0.035632049067902766 0
          0.0014230056484365434 0.035944104406533464 0 -0.00503291113745612 0.04724029557962901 0
          0.0009799434876158876 0.047607367440340304 0 -0.0059259784119975 0.05958129230269306 0
          0.000342148542844632 0.059979553324047086 0 -0.006757206441424109 0.07222516728739284 0
          -0.00045327725823906005 0.07262674112686937 0 -0.0075049452826120465 0.08477541442301466 0
          -0.0012591153548817027 0.08516661370651442 0 -0.003235246466861349 0.025183366677748155 0
          0.0016165504409238769 0.016422122951427906 0
          <InformationKey name="L2_NORM_RANGE" location="vtkDataArray" length="2">
            <Value index="0">
              0.016501495616
            </Value>
            <Value index="1">
              0.085175920668
            </Value>
          </InformationKey>
        </DataArray>
        <DataArray type="Float64" Name="Nodal Stress" NumberOfComponents="6" format="ascii" RangeMin="1590.9296134117133" RangeMax="26518.89356685122">
          21576.915729298566 485.4895335213923 0 1670.693763570738 0 0
          -15753.419312081396 -1064.0672036169303 0 2463.373786434489 0 0
          16129.826350452886 292.41078723542336 0 2067.831161586482 0 0
          -10508.745432277581 -775.5647662771238 0 2475.938088861758 0 0
          10573.752580701466 90.70606166096509 0 2059.031083144038 0 0
          -5873.89054849421 -563.2211187241936 0 2164.819974930947 0 0
          5953.069370807135 37.63143782594617 0 1800.2147572834094 0 0
          -2592.9857150092494 -329.34070179654617 0 1270.984675109547 0 0
          2630.332385692743 -3.201773024673522 0 852.3813541195765 0 0
          -1439.899531119392 -123.68567970929469 0 665.1678192361297 0 0
          2289.6507277788205 577.8242320123761 0 968.4776658577395 0 0
          -20934.19837552883 -1361.1955549907418 0 2281.9286031850847 0 0
          26490.441669745924 705.5504107992334 0 1005.1938965159536 0 0
          <InformationKey name="L2_NORM_RANGE" location="vtkDataArray" length="2">
            <Value index="0">
              1590.9296134
            </Value>
            <Value index="1">
              26518.893567
            </Value>
          </InformationKey>
        </DataArray>
        <DataArray type="Float64" Name="Nodal Strain" NumberOfComponents="6" format="ascii" RangeMin="0" RangeMax="0">
          0 0 0 0 0 0
          0 0 0 0 0 0
          0 0 0 0 0 0
          0 0 0 0 0 0
          0 0 0 0 0 0
          0 0 0 0 0 0
          0 0 0 0 0 0
          0 0 0 0 0 0
          0 0 0 0 0 0
          0 0 0 0 0 0
          0 0 0 0 0 0
          0 0 0 0 0 0
          0 0 0 0 0 0
          <InformationKey name="L2_NORM_RANGE" location="vtkDataArray" length="2">
            <Value index="0">
              0
            </Value>
            <Value index="1">
              0
            </Value>
          </InformationKey>
        </DataArray>
        <DataArray type="Float64" Name="Sld_traction" NumberOfComponents="3" format="ascii" RangeMin="129.11519180018047" RangeMax="10245.903948647881">
          4992.719853333686 -2082.2365703019677 0 8538.308425497253 -2835.2463846669193 0
          3392.322248992874 -1306.3653517603927 0 6926.025182744862 -2079.632721904673 0
          1741.6833047768973 -656.1787800268261 0 4760.998136601458 -1449.0947501175704 0
          289.615617700839 -267.13121184284427 0 2475.2185043519903 -805.8366519061353 0
          -20.120049929969383 -202.65874863446786 0 286.1783715077514 -134.40007762183757 0
          -46.35101880440616 -120.50857151834046 0 9591.663098354358 -3602.575014151063 0
          6337.331475164838 -2892.958937986449 0
          <InformationKey name="L2_NORM_RANGE" location="vtkDataArray" length="2">
            <Value index="0">
              129.1151918
            </Value>
            <Value index="1">
              10245.903949
            </Value>
          </InformationKey>
        </DataArray>
        <DataArray type="Float64" Name="Velocity" NumberOfComponents="3" format="ascii" RangeMin="3.3249459519132922" RangeMax="15.769934027015065">
          -0.12765230790965743 -5.014879730904884 0 1.033475632207967 -6.834242674228861 0
          0.027392397534412027 -6.948634697509508 0 1.3208688813118918 -8.919516554307314 0
          0.24453996463221478 -9.053291109128281 0 1.6217358961043562 -11.114958857067002 0
          0.508176691498283 -11.259797730098931 0 1.9209556664193306 -13.3565736359728 0
          0.8017280628101313 -13.50301003037712 0 2.205684043238602 -15.58793123968892 0
          1.0944625436129478 -15.731909323315968 0 0.7748271259278687 -4.9258317899286155 0
          -0.21420654280334728 -3.318038749045108 0
          <InformationKey name="L2_NORM_RANGE" location="vtkDataArray" length="2">
            <Value index="0">
              3.3249459519
            </Value>
            <Value index="1">
              15.769934027
            </Value>
          </InformationKey>
        </DataArray>
        <DataArray type="Float64" Name="Acceleration" NumberOfComponents="3" format="ascii" RangeMin="130.52854141800506" RangeMax="1510.8863983426534">
          -106.8131847343393 402.34082571159524 0 -23.40884373094559 196.6915174698297 0
          -156.3590383091829 201.6279122435517 0 4.564045826635265 -130.44872406583454 0
          -186.85875433143093 -132.3555111221067 0 33.56144812036473 -555.8377490892017 0
          -194.64613783171967 -562.7908523998485 0 55.92106101093668 -1029.4056604319776 0
          -180.16617654748052 -1037.5401604547078 0 65.96645037461349 -1495.107674188679 0
          -163.28578564504915 -1502.0371037038713 0 -43.940766539643846 391.3906010881328 0
          -49.4402510229304 458.4474578104964 0
          <InformationKey name="L2_NORM_RANGE" location="vtkDataArray" length="2">
            <Value index="0">
              130.52854142
            </Value>
            <Value index="1">
              1510.8863983
            </Value>
          </InformationKey>
        </DataArray>
        <DataArray type="Float64" Name="Sigma" NumberOfComponents="6" format="ascii" RangeMin="2252.254564674115" RangeMax="52035.971659741685">
          29753.963679709173 -29753.96367970816 0 1039.4980843926844 0 0
          -23999.195762531068 23999.19576253135 0 3004.19218945069 0 0
          21920.84482503553 -21920.84482503163 0 1704.4074640007532 0 0
          -16217.77435580917 16217.774355809068 0 2906.8783828410565 0 0
          14028.463507035434 -14028.463507037131 0 1731.6849458174793 0 0
          -9092.236684988562 9092.23668498597 0 2396.6728098636513 0 0
          7366.010645275019 -7366.010645272162 0 2008.2953780880011 0 0
          -3913.413543911445 3913.4135439131705 0 1211.9394601695715 0 0
          3266.160124119701 -3266.160124124421 0 602.9309625124013 0 0
          -2274.614623472873 2274.6146234826674 0 362.3187028115779 0 0
          1216.0537454417058 -1216.0537454468922 0 1454.3304990534893 0 0
          -31483.853526285202 31483.85352628452 0 3147.3431779732455 0 0
          36794.75744080307 -36794.757440804126 0 -184.38090545593866 0 0
          <InformationKey name="L2_NORM_RANGE" location="vtkDataArray" length="2">
            <Value index="0">
              2252.2545647
            </Value>
            <Value index="1">
              52035.97166
            </Value>
          </InformationKey>
        </DataArray>
        <DataArray type="Float64" Name="Press" format="ascii" RangeMin="-34814.20211742332" RangeMax="39667.54510473107">
          31943.681775102217 -26518.318500655507 23409.987897666193 -17917.853321532904 14838.311103061347 -10286.158577273654
          7888.915952217724 -4476.884349119361 3284.3017014948146 -2734.1466658047793 2592.3974419475035 -34814.20211742332
          39667.54510473107
        </DataArray>
        <DataArray type="Float64" Name="Dev strain" NumberOfComponents="6" format="ascii" RangeMin="0" RangeMax="0">
          0 0 0 0 0 0
          0 0 0 0 0 0
          0 0 0 0 0 0
          0 0 0 0 0 0
          0 0 0 0 0 0
          0 0 0 0 0 0
          0 0 0 0 0 0
          0 0 0 0 0 0
          0 0 0 0 0 0
          0 0 0 0 0 0
          0 0 0 0 0 0
          0 0 0 0 0 0
          0 0 0 0 0 0
          <InformationKey name="L2_NORM_RANGE" location="vtkDataArray" length="2">
            <Value index="0">
              0
            </Value>
            <Value index="1">
              0
            </Value>
          </InformationKey>
        </DataArray>
        <DataArray type="Float64" Name="J2 Stresses" format="ascii" RangeMin="2007556.0119284012" RangeMax="1353862674.2071462">
          885568493.7202864 578217689.9260851 481249689.0440368 265128690.53909704 197547471.55614144 84104778.07521316
          55266425.40769626 15682004.879455313 10758683.392794069 5206690.395940684 2007556.0119284012 993709475.1345434
          1353862674.2071462
        </DataArray>
      </PointData>
      <CellData>
        <DataArray type="UInt8" Name="vtkGhostType" format="ascii" RangeMin="0" RangeMax="1">
          1 1 0 0 0 0
          0 0 0 0 0
        </DataArray>
        <DataArray type="Float64" Name="Gauss Stress" NumberOfComponents="6" format="ascii" RangeMin="1981.9358993985227" RangeMax="23998.036101223897">
          23953.96411887901 577.3857227274034 0 1334.1534523033301 0 0
          -18372.641484027918 -1219.9177446229667 0 2397.01115060554 0 0
          18836.987971442184 386.57947663482514 0 1916.032579281376 0 0
          13353.99321848548 199.6372343116479 0 2114.3235975530965 0 0
          -13107.436405942313 -910.0195437378063 0 2538.4926787641666 0 0
          8247.768648442438 46.277003560698375 0 2045.5510445897107 0 0
          -8215.74944316917 -694.7177539957684 0 2345.078712840729 0 0
          4471.696843358817 -7.474640296745207 0 1274.3886002566578 0 0
          -4171.2555192667605 -411.4957968494378 0 1872.302549373741 0 0
          1783.3839079086906 311.6510771829644 0 806.5267214591563 0 0
          -2282.865785564648 -334.95375671930304 0 725.7297084978502 0 0
          <InformationKey name="L2_NORM_RANGE" location="vtkDataArray" length="2">
            <Value index="0">
              1981.9358994
            </Value>
            <Value index="1">
              23998.036101
            </Value>
          </InformationKey>
        </DataArray>
        <DataArray type="Float64" Name="Gauss Strain" NumberOfComponents="6" format="ascii" RangeMin="0" RangeMax="0">
          0 0 0 0 0 0
          0 0 0 0 0 0
          0 0 0 0 0 0
          0 0 0 0 0 0
          0 0 0 0 0 0
          0 0 0 0 0 0
          0 0 0 0 0 0
          0 0 0 0 0 0
          0 0 0 0 0 0
          0 0 0 0 0 0
          0 0 0 0 0 0
          <InformationKey name="L2_NORM_RANGE" location="vtkDataArray" length="2">
            <Value index="0">
              0
            </Value>
            <Value index="1">
              0
            </Value>
          </InformationKey>
        </DataArray>
      </CellData>
      <Points>
        <DataArray type="Float32" Name="Points" NumberOfComponents="3" format="ascii" RangeMin="0.4000000059604645" RangeMax="1.0012492197622458">
          0.5 0 0 0.6000000238418579 0.05000000074505806 0
          0.6000000238418579 0 0 0.699999988079071 0.05000000074505806 0
          0.699999988079071 0 0 0.800000011920929 0.05000000074505806 0
          0.800000011920929 0 0 0.8999999761581421 0.05000000074505806 0
          0.8999999761581421 0 0 1 0.05000000074505806 0
          1 0 0 0.5 0.05000000074505806 0
          0.4000000059604645 0 0
          <InformationKey name="L2_NORM_RANGE" location="vtkDataArray" length="2">
            <Value index="0">
              0.40000000596
            </Value>
            <Value index="1">
              1.0012492198
            </Value>
          </InformationKey>
        </DataArray>
      </Points>
      <Cells>
        <DataArray type="Int64" Name="connectivity" format="ascii" RangeMin="0" RangeMax="12">
          0 11 12 1 11 0
          2 1 0 4 3 2
          3 1 2 6 5 4
          5 3 4 8 7 6
          7 5 6 10 9 8
          9 7 8
        </DataArray>
        <DataArray type="Int64" Name="offsets" format="ascii" RangeMin="3" RangeMax="33">
          3 6 9 12 15 18
          21 24 27 30 33
        </DataArray>
        <DataArray type="UInt8" Name="types" format="ascii" RangeMin="5" RangeMax="5">
          5 5 5 5 5 5
          5 5 5 5 5
        </DataArray>
      </Cells>
    </Piece>
  </UnstructuredGrid>
</VTKFile>
