<?xml version="1.0"?>
<VTKFile type="UnstructuredGrid" version="0.1" byte_order="LittleEndian" header_type="UInt32" compressor="vtkZLibDataCompressor">
  <UnstructuredGrid>
    <Piece NumberOfPoints="13" NumberOfCells="11">
      <PointData>
        <DataArray type="Float64" Name="Disp" NumberOfComponents="3" format="ascii" RangeMin="0.0036131962195195357" RangeMax="0.036422101712011705">
          0.000935347092358906 0.006940254531518735 0 -0.0014341632942743304 0.011458248746089856 0
          0.0011123088710327778 0.011526437812230814 0 -0.0018008998537941414 0.017023047071830506 0
          0.00117164339257296 0.017115403061806676 0 -0.0021212613579025714 0.02327561875789313 0
          0.0011015540013439786 0.0233834136857524 0 -0.002368495866819699 0.02983550336900319 0
          0.00089729748241002 0.029945176555275253 0 -0.002538720322947336 0.03631330269252841 0
          0.0006739888226957464 0.03641586511655335 0 -0.001056181410391077 0.006898512120500128 0
          0.000683343164585724 0.0035479894363095606 0
          <InformationKey name="L2_NORM_RANGE" location="vtkDataArray" length="2">
            <Value index="0">
              0.0036131962195
            </Value>
            <Value index="1">
              0.036422101712
            </Value>
          </InformationKey>
        </DataArray>
        <DataArray type="Float64" Name="Nodal Stress" NumberOfComponents="6" format="ascii" RangeMin="1435.521137707502" RangeMax="18005.446243155948">
          17028.514859933875 486.45164672030165 0 -164.19538476008918 0 0
          -12806.994533912113 -970.7572855125926 0 2041.9966803822097 0 0
          14226.213561067014 201.70897288521013 0 654.0312082265755 0 0
          -9047.57566563611 -888.7784887874562 0 2367.4369080896086 0 0
          10118.448069299682 -62.90171682955007 0 1151.7323526367122 0 0
          -5132.467515967001 -750.7755974592467 0 2215.7967159277487 0 0
          6023.884577176294 -149.1887208186231 0 1309.8068616804828 0 0
          -2197.933777637558 -459.402236748098 0 1383.0437075551083 0 0
          2769.76416975867 -84.96640995645352 0 697.5868665834994 0 0
          -1176.8326499706159 -202.84648418713488 0 796.6424258229642 0 0
          1959.068642713142 315.4761592508426 0 639.4812349685902 0 0
          -15419.399643601217 -911.898804368049 0 1381.5313751400097 0 0
          17958.562494761693 790.20839367699 0 -1030.3874181490137 0 0
          <InformationKey name="L2_NORM_RANGE" location="vtkDataArray" length="2">
            <Value index="0">
              1435.5211377
            </Value>
            <Value index="1">
              18005.446243
            </Value>
          </InformationKey>
        </DataArray>
        <DataArray type="Float64" Name="Nodal Strain" NumberOfComponents="6" format="ascii" RangeMin="0" RangeMax="0">
          0 0 0 0 0 0
          0 0 0 0 0 0
          0 0 0 0 0 0
          0 0 0 0 0 0
          0 0 0 0 0 0
          0 0 0 0 0 0
          0 0 0 0 0 0
          0 0 0 0 0 0
          0 0 0 0 0 0
          0 0 0 0 0 0
          0 0 0 0 0 0
          0 0 0 0 0 0
          0 0 0 0 0 0
          <InformationKey name="L2_NORM_RANGE" location="vtkDataArray" length="2">
            <Value index="0">
              0
            </Value>
            <Value index="1">
              0
            </Value>
          </InformationKey>
        </DataArray>
        <DataArray type="Float64" Name="Sld_traction" NumberOfComponents="3" format="ascii" RangeMin="108.61079393893583" RangeMax="6366.264856732576">
          3957.91475346951 -2009.7955178561454 0 5871.727512601073 -2460.1106161780353 0
          2943.314203761953 -1382.3334898039195 0 5543.278039131884 -2062.1107673343595 0
          1638.8392265069067 -725.1190958504116 0 4231.425664813206 -1551.143162853892 0
          328.34817633725385 -266.94597281292147 0 2380.71263887814 -902.1655190244146 0
          26.617404546402156 -179.04603585678132 0 342.1032588000351 -139.36104895017834 0
          -55.61255120137726 -93.292811667996 0 5267.529683086786 -2586.651107916757 0
          4460.357764368147 -2463.0891610351396 0
          <InformationKey name="L2_NORM_RANGE" location="vtkDataArray" length="2">
            <Value index="0">
              108.61079394
            </Value>
            <Value index="1">
              6366.2648567
            </Value>
          </InformationKey>
        </DataArray>
        <DataArray type="Float64" Name="Velocity" NumberOfComponents="3" format="ascii" RangeMin="3.5701677544905204" RangeMax="17.350846084486577">
          0.38499422217370294 5.396149427579285 0 -0.7684309440962385 7.462177533893521 0
          0.3440377701226165 7.520709595916237 0 -0.9522886682387199 9.780974681798645 0
          0.2480110436229778 9.85643861333863 0 -1.143867070601419 12.238933772333377 0
          0.10542531866196093 12.325114683178972 0 -1.3294185652366401 14.75785003175638 0
          -0.07198101975735012 14.846068650263438 0 -1.496703199055518 17.26307361710542 0
          -0.24957080242797192 17.34905110552501 0 -0.6039172117935494 5.357168400828217 0
          0.37321039281956886 3.550607243542342 0
          <InformationKey name="L2_NORM_RANGE" location="vtkDataArray" length="2">
            <Value index="0">
              3.5701677545
            </Value>
            <Value index="1">
              17.350846084
            </Value>
          </InformationKey>
        </DataArray>
        <DataArray type="Float64" Name="Acceleration" NumberOfComponents="3" format="ascii" RangeMin="241.18194948524737" RangeMax="1597.1220116676436">
          -97.31326702400463 905.6330234082407 0 -24.63386308149336 661.7676888065816 0
          -187.47873237762315 681.5644148984102 0 -19.769119924880442 240.3703697523888 0
          -268.54106966091933 259.41316059357814 0 -29.707353444544765 -322.5553796599852 0
          -331.4823557795079 -304.5665745457027 0 -57.78179300528882 -951.5804602742064 0
          -369.57365778250016 -933.8363184569789 0 -102.35113820144556 -1564.0137365691917 0
          -403.32742365331524 -1545.356175605637 0 -39.138429818046006 886.7585097678993 0
          -12.989908142207412 913.0602076711984 0
          <InformationKey name="L2_NORM_RANGE" location="vtkDataArray" length="2">
            <Value index="0">
              241.18194949
            </Value>
            <Value index="1">
              1597.1220117
            </Value>
          </InformationKey>
        </DataArray>
        <DataArray type="Float64" Name="Sigma" NumberOfComponents="6" format="ascii" RangeMin="1549.4609898632439" RangeMax="35687.130238016405">
          23528.34472302093 -23528.344723020407 0 -2084.8296806568937 0 0
          -19832.881098024784 19832.88109802459 0 3870.149615543967 0 0
          19260.826556309614 -19260.826556309556 0 -915.5392846006333 0 0
          -14331.389092678095 14331.389092678544 0 3884.1070984892754 0 0
          13272.05776765845 -13272.057767658476 0 -66.23178971270582 0 0
          -8277.153743071356 8277.153743070641 0 3208.200534476029 0 0
          7360.9886834515255 -7360.988683449711 0 956.5693241173857 0 0
          -3590.4851673219696 3590.485167318544 0 1679.3142692717217 0 0
          3323.1340272720795 -3323.1340272695475 0 270.37772592203714 0 0
          -1980.7717447723517 1980.7717447709883 0 859.7352905113278 0 0
          972.4113422115676 -972.4113422138865 0 713.905961720498 0 0
          -23409.113719497363 23409.11371949777 0 3417.1817518211615 0 0
          25139.304045784083 -25139.30404578449 0 -3098.7172850023594 0 0
          <InformationKey name="L2_NORM_RANGE" location="vtkDataArray" length="2">
            <Value index="0">
              1549.4609899
            </Value>
            <Value index="1">
              35687.130238
            </Value>
          </InformationKey>
        </DataArray>
        <DataArray type="Float64" Name="Press" format="ascii" RangeMin="-25924.122733215758" RangeMax="27587.41998450978">
          25476.668822615968 -22150.402929912696 20608.78793381591 -16166.278593351444 13950.656001965202 -9676.194791555048
          7649.410756786285 -4307.4369742996 3354.7890473655893 -2433.3133617547883 1813.8069591594508 -25924.122733215758
          27587.41998450978
        </DataArray>
        <DataArray type="Float64" Name="Dev strain" NumberOfComponents="6" format="ascii" RangeMin="0" RangeMax="0">
          0 0 0 0 0 0
          0 0 0 0 0 0
          0 0 0 0 0 0
          0 0 0 0 0 0
          0 0 0 0 0 0
          0 0 0 0 0 0
          0 0 0 0 0 0
          0 0 0 0 0 0
          0 0 0 0 0 0
          0 0 0 0 0 0
          0 0 0 0 0 0
          0 0 0 0 0 0
          0 0 0 0 0 0
          <InformationKey name="L2_NORM_RANGE" location="vtkDataArray" length="2">
            <Value index="0">
              0
            </Value>
            <Value index="1">
              0
            </Value>
          </InformationKey>
        </DataArray>
        <DataArray type="Float64" Name="J2 Stresses" format="ascii" RangeMin="1072999.2490089745" RangeMax="634385120.1094794">
          554669634.1046314 397087687.1600586 371188992.67765224 209160285.31387284 176148614.0505555 71084411.75378731
          54412910.61584866 13596607.840491675 11061495.791873828 4108242.8973234547 1072999.2490089745 550905887.9136142
          634385120.1094794
        </DataArray>
      </PointData>
      <CellData>
        <DataArray type="UInt8" Name="vtkGhostType" format="ascii" RangeMin="0" RangeMax="1">
          1 1 0 0 0 0
          0 0 0 0 0
        </DataArray>
        <DataArray type="Float64" Name="Gauss Stress" NumberOfComponents="6" format="ascii" RangeMin="1797.5385068560186" RangeMax="17487.337478329344">
          17466.167041072556 627.1436748676218 0 -588.7884046126976 0 0
          -14103.835645004574 -961.4022486701775 0 1734.167228902745 0 0
          15630.448002608317 326.2545484046028 0 289.9268834288131 0 0
          12198.22019123988 63.89003704672757 0 967.4453413919787 0 0
          -10870.445741280504 -934.8166516848839 0 2279.572476477536 0 0
          8093.2548917450185 -144.00691361370247 0 1366.1793562935695 0 0
          -7076.100817010767 -851.7774382835278 0 2342.0252810842 0 0
          4596.80012441797 -132.2915711828133 0 968.7537731037148 0 0
          -3613.623745336723 -609.1902607096301 0 1948.0280426217118 0 0
          1683.3520898271827 140.16967335260202 0 614.6729927179543 0 0
          -1878.0280578370134 -379.2794679562712 0 936.4757619016955 0 0
          <InformationKey name="L2_NORM_RANGE" location="vtkDataArray" length="2">
            <Value index="0">
              1797.5385069
            </Value>
            <Value index="1">
              17487.337478
            </Value>
          </InformationKey>
        </DataArray>
        <DataArray type="Float64" Name="Gauss Strain" NumberOfComponents="6" format="ascii" RangeMin="0" RangeMax="0">
          0 0 0 0 0 0
          0 0 0 0 0 0
          0 0 0 0 0 0
          0 0 0 0 0 0
          0 0 0 0 0 0
          0 0 0 0 0 0
          0 0 0 0 0 0
          0 0 0 0 0 0
          0 0 0 0 0 0
          0 0 0 0 0 0
          0 0 0 0 0 0
          <InformationKey name="L2_NORM_RANGE" location="vtkDataArray" length="2">
            <Value index="0">
              0
            </Value>
            <Value index="1">
              0
            </Value>
          </InformationKey>
        </DataArray>
      </CellData>
      <Points>
        <DataArray type="Float32" Name="Points" NumberOfComponents="3" format="ascii" RangeMin="0.4000000059604645" RangeMax="1.0012492197622458">
          0.5 0 0 0.6000000238418579 0.05000000074505806 0
          0.6000000238418579 0 0 0.699999988079071 0.05000000074505806 0
          0.699999988079071 0 0 0.800000011920929 0.05000000074505806 0
          0.800000011920929 0 0 0.8999999761581421 0.05000000074505806 0
          0.8999999761581421 0 0 1 0.05000000074505806 0
          1 0 0 0.5 0.05000000074505806 0
          0.4000000059604645 0 0
          <InformationKey name="L2_NORM_RANGE" location="vtkDataArray" length="2">
            <Value index="0">
              0.40000000596
            </Value>
            <Value index="1">
              1.0012492198
            </Value>
          </InformationKey>
        </DataArray>
      </Points>
      <Cells>
        <DataArray type="Int64" Name="connectivity" format="ascii" RangeMin="0" RangeMax="12">
          0 11 12 1 11 0
          2 1 0 4 3 2
          3 1 2 6 5 4
          5 3 4 8 7 6
          7 5 6 10 9 8
          9 7 8
        </DataArray>
        <DataArray type="Int64" Name="offsets" format="ascii" RangeMin="3" RangeMax="33">
          3 6 9 12 15 18
          21 24 27 30 33
        </DataArray>
        <DataArray type="UInt8" Name="types" format="ascii" RangeMin="5" RangeMax="5">
          5 5 5 5 5 5
          5 5 5 5 5
        </DataArray>
      </Cells>
    </Piece>
  </UnstructuredGrid>
</VTKFile>
