<?xml version="1.0"?>
<VTKFile type="UnstructuredGrid" version="0.1" byte_order="LittleEndian" header_type="UInt32" compressor="vtkZLibDataCompressor">
  <UnstructuredGrid>
    <Piece NumberOfPoints="13" NumberOfCells="11">
      <PointData>
        <DataArray type="Float64" Name="Disp" NumberOfComponents="3" format="ascii" RangeMin="0.042638429526983004" RangeMax="0.1769303064819213">
          -0.01005601270492665 -0.06162698706991631 0 -0.0017078637888348627 -0.08429693388647061 0
          -0.012746704323342356 -0.08306671933086311 0 -0.004091892867362325 -0.10693351727655093 0
          -0.015530973354746219 -0.10560925636086832 0 -0.006715793218599156 -0.13008974850510813 0
          -0.01832907175559594 -0.12872412347866186 0 -0.009462672545458378 -0.15337585358784175 0
          -0.021066846619773382 -0.15201252391061873 0 -0.01222118957725107 -0.17650772186253919 0
          -0.023768411439121007 -0.17515377204074806 0 0.00028402302712616167 -0.06270372439152161 0
          -0.007553227020998352 -0.04196408505015636 0
          <InformationKey name="L2_NORM_RANGE" location="vtkDataArray" length="2">
            <Value index="0">
              0.042638429527
            </Value>
            <Value index="1">
              0.17693030648
            </Value>
          </InformationKey>
        </DataArray>
        <DataArray type="Float64" Name="Nodal Stress" NumberOfComponents="6" format="ascii" RangeMin="613.431976910763" RangeMax="56178.59739713847">
          -40063.202291869304 -1747.4380208580562 0 6958.132386293474 0 0
          23459.11878297757 7331.0073393243 0 -12243.808267548566 0 0
          -26802.41245371968 -755.7754123458093 0 4459.650366614683 0 0
          13087.0784375558 5412.974130605821 0 -8299.79386798148 0 0
          -15767.312418725525 67.19071607486357 0 2271.2373089341963 0 0
          5660.981060606404 3513.979699833643 0 -4891.663655507178 0 0
          -7671.390099921669 432.97644362750316 0 711.34941695051 0 0
          1588.6261408267028 1729.496125626697 0 -2237.2782882499896 0 0
          -3128.0201469866665 202.96328493718747 0 103.01729820630023 0 0
          91.48789220301241 802.09139381615 0 -1079.1660351891755 0 0
          489.8300032004718 58.9151426019644 0 364.54679292713956 0 0
          36641.89244478449 8957.309154048831 0 -16280.567667514326 0 0
          -55366.51000100424 -2907.95687901253 0 9062.458971398119 0 0
          <InformationKey name="L2_NORM_RANGE" location="vtkDataArray" length="2">
            <Value index="0">
              613.43197691
            </Value>
            <Value index="1">
              56178.597397
            </Value>
          </InformationKey>
        </DataArray>
        <DataArray type="Float64" Name="Nodal Strain" NumberOfComponents="6" format="ascii" RangeMin="0" RangeMax="0">
          0 0 0 0 0 0
          0 0 0 0 0 0
          0 0 0 0 0 0
          0 0 0 0 0 0
          0 0 0 0 0 0
          0 0 0 0 0 0
          0 0 0 0 0 0
          0 0 0 0 0 0
          0 0 0 0 0 0
          0 0 0 0 0 0
          0 0 0 0 0 0
          0 0 0 0 0 0
          0 0 0 0 0 0
          <InformationKey name="L2_NORM_RANGE" location="vtkDataArray" length="2">
            <Value index="0">
              0
            </Value>
            <Value index="1">
              0
            </Value>
          </InformationKey>
        </DataArray>
        <DataArray type="Float64" Name="Sld_traction" NumberOfComponents="3" format="ascii" RangeMin="122.6409075198639" RangeMax="18768.779947265775">
          -4923.872962867846 5695.325881553674 0 -11773.891963677248 8850.247664434703 0
          -2963.111823294306 3489.226541949426 0 -8629.725803228199 6295.100613839236 0
          -1517.132556243482 1707.7569036849834 0 -5580.278041152664 3930.9455679377143 0
          -405.38524771232505 592.2073454468358 0 -2842.402629065746 1977.6102480815744 0
          -230.4339171906045 294.0685961001367 0 -688.7922404001579 352.5164872333717 0
          119.43249695848266 27.868815323903558 0 -14930.171751889522 11373.525054615478 0
          -7316.2344893527725 8255.92181579864 0
          <InformationKey name="L2_NORM_RANGE" location="vtkDataArray" length="2">
            <Value index="0">
              122.64090752
            </Value>
            <Value index="1">
              18768.779947
            </Value>
          </InformationKey>
        </DataArray>
        <DataArray type="Float64" Name="Velocity" NumberOfComponents="3" format="ascii" RangeMin="0.055093402352475396" RangeMax="3.3968824365924655">
          0.13037566635748732 -0.011832218525196225 0 0.007762652621211452 0.4868659130854951 0
          0.2748322314128204 0.4267171553372364 0 0.1171607984106462 1.1059753099196712 0
          0.4510163907968652 1.0274580715846184 0 0.26915809019549153 1.8287321294988885 0
          0.641769406471564 1.7395939068590138 0 0.4493656502558876 2.592536379472051 0
          0.8263704720274134 2.5024002739224045 0 0.6351080674063541 3.3339650250990474 0
          1.0026620592124385 3.245532172548323 0 -0.048875459512894126 0.02542582231069801 0
          0.028177022898828064 -0.2598706668532067 0
          <InformationKey name="L2_NORM_RANGE" location="vtkDataArray" length="2">
            <Value index="0">
              0.055093402352
            </Value>
            <Value index="1">
              3.3968824366
            </Value>
          </InformationKey>
        </DataArray>
        <DataArray type="Float64" Name="Acceleration" NumberOfComponents="3" format="ascii" RangeMin="519.2029712616361" RangeMax="1459.5863267656812">
          144.28815294554806 685.7110693108334 0 96.7394857470124 870.1798397731909 0
          176.30725332764996 852.9832212306501 0 131.82590741864487 1022.586344285417 0
          205.56679625318793 1007.1338523962913 0 162.68325006568102 1165.0360876572086 0
          232.74371394189438 1150.9474448562542 0 190.30736427120064 1303.2463451601507 0
          259.7904442854924 1289.4410486356064 0 217.3920376430815 1443.3062555295473 0
          287.66921107163216 1429.3515783309704 0 58.25970058199334 704.0124428207055 0
          110.84035756332923 507.2338124594462 0
          <InformationKey name="L2_NORM_RANGE" location="vtkDataArray" length="2">
            <Value index="0">
              519.20297126
            </Value>
            <Value index="1">
              1459.5863268
            </Value>
          </InformationKey>
        </DataArray>
        <DataArray type="Float64" Name="Sigma" NumberOfComponents="6" format="ascii" RangeMin="2098.6355388380734" RangeMax="104632.00759499686">
          -48746.64290497929 48746.64290497717 0 28293.02531050878 0 0
          31570.108179742336 -31570.108179743653 0 -30154.893849070213 0 0
          -31380.587817270916 31380.587817276766 0 19043.67334998684 0 0
          17490.39123407538 -17490.39123407548 0 -19704.60522204346 0 0
          -17571.54263130921 17571.54263131655 0 10830.041385039307 0 0
          7326.396464929155 -7326.39646493696 0 -10872.07532033337 0 0
          -7889.407668406276 7889.407668406991 0 4430.5465054104725 0 0
          2332.4277918887547 -2332.4277918912585 0 -4262.488589483578 0 0
          -3044.62525992606 3044.625259929329 0 1397.0492568742761 0 0
          -296.7890484130075 296.789048410002 0 -2056.2353090928473 0 0
          2101.622014770218 -2101.622014765996 0 1058.6866119635645 0 0
          49787.096925102225 -49787.09692510151 0 -40726.877200544375 0 0
          -69257.03402306649 69257.03402306604 0 36807.38363447157 0 0
          <InformationKey name="L2_NORM_RANGE" location="vtkDataArray" length="2">
            <Value index="0">
              2098.6355388
            </Value>
            <Value index="1">
              104632.00759
            </Value>
          </InformationKey>
        </DataArray>
        <DataArray type="Float64" Name="Press" format="ascii" RangeMin="-84820.77298381722" RangeMax="70254.4391651733">
          -60493.109428574186 47491.963781388105 -39249.77906539329 28582.252699461777 -21778.738136093307 13917.597521794301
          -9359.423500506271 5204.3005069313385 -3749.5738908757226 984.6977349145485 1931.1832237808462 70254.4391651733
          -84820.77298381722
        </DataArray>
        <DataArray type="Float64" Name="Dev strain" NumberOfComponents="6" format="ascii" RangeMin="0" RangeMax="0">
          0 0 0 0 0 0
          0 0 0 0 0 0
          0 0 0 0 0 0
          0 0 0 0 0 0
          0 0 0 0 0 0
          0 0 0 0 0 0
          0 0 0 0 0 0
          0 0 0 0 0 0
          0 0 0 0 0 0
          0 0 0 0 0 0
          0 0 0 0 0 0
          0 0 0 0 0 0
          0 0 0 0 0 0
          <InformationKey name="L2_NORM_RANGE" location="vtkDataArray" length="2">
            <Value index="0">
              0
            </Value>
            <Value index="1">
              0
            </Value>
          </InformationKey>
        </DataArray>
        <DataArray type="Float64" Name="J2 Stresses" format="ascii" RangeMin="1145109.6508470457" RangeMax="5135232634.175948">
          2576359014.8107367 1224001136.2428486 1075406665.422885 402981652.26016825 338081559.5444621 83226590.60413408
          67150188.94246462 9982421.648250317 9757679.629923023 1145109.6508470457 4697019.42854568 2893424651.856543
          5135232634.175948
        </DataArray>
      </PointData>
      <CellData>
        <DataArray type="UInt8" Name="vtkGhostType" format="ascii" RangeMin="0" RangeMax="1">
          1 1 0 0 0 0
          0 0 0 0 0
        </DataArray>
        <DataArray type="Float64" Name="Gauss Stress" NumberOfComponents="6" format="ascii" RangeMin="716.7719589288628" RangeMax="48498.46809202415">
          -47758.674416720554 -2280.954414758807 0 8124.51058147866 0 0
          29954.618572617503 8214.24377270641 0 -14196.248579701942 0 0
          -33602.68241836242 -1231.267390023031 0 5727.268270475135 0 0
          -21302.667905509858 -328.1750958356615 0 3389.7031709942285 0 0
          18168.116337334475 6381.508606304746 0 -10271.941907042281 0 0
          -11785.039316530536 304.66323999376823 0 1462.8375233721367 0 0
          9322.119050952704 4491.955672488963 0 -6582.213052445843 0 0
          -5502.100673631412 232.30275066480164 0 521.7023909337236 0 0
          3843.963705543668 2664.35264659938 0 -3568.0058014688257 0 0
          -691.1617419163913 135.36645379766907 0 133.16685324833128 0 0
          476.8126115066175 1149.4702891394124 0 -1640.5582139007163 0 0
          <InformationKey name="L2_NORM_RANGE" location="vtkDataArray" length="2">
            <Value index="0">
              716.77195893
            </Value>
            <Value index="1">
              48498.468092
            </Value>
          </InformationKey>
        </DataArray>
        <DataArray type="Float64" Name="Gauss Strain" NumberOfComponents="6" format="ascii" RangeMin="0" RangeMax="0">
          0 0 0 0 0 0
          0 0 0 0 0 0
          0 0 0 0 0 0
          0 0 0 0 0 0
          0 0 0 0 0 0
          0 0 0 0 0 0
          0 0 0 0 0 0
          0 0 0 0 0 0
          0 0 0 0 0 0
          0 0 0 0 0 0
          0 0 0 0 0 0
          <InformationKey name="L2_NORM_RANGE" location="vtkDataArray" length="2">
            <Value index="0">
              0
            </Value>
            <Value index="1">
              0
            </Value>
          </InformationKey>
        </DataArray>
      </CellData>
      <Points>
        <DataArray type="Float32" Name="Points" NumberOfComponents="3" format="ascii" RangeMin="0.4000000059604645" RangeMax="1.0012492197622458">
          0.5 0 0 0.6000000238418579 0.05000000074505806 0
          0.6000000238418579 0 0 0.699999988079071 0.05000000074505806 0
          0.699999988079071 0 0 0.800000011920929 0.05000000074505806 0
          0.800000011920929 0 0 0.8999999761581421 0.05000000074505806 0
          0.8999999761581421 0 0 1 0.05000000074505806 0
          1 0 0 0.5 0.05000000074505806 0
          0.4000000059604645 0 0
          <InformationKey name="L2_NORM_RANGE" location="vtkDataArray" length="2">
            <Value index="0">
              0.40000000596
            </Value>
            <Value index="1">
              1.0012492198
            </Value>
          </InformationKey>
        </DataArray>
      </Points>
      <Cells>
        <DataArray type="Int64" Name="connectivity" format="ascii" RangeMin="0" RangeMax="12">
          0 11 12 1 11 0
          2 1 0 4 3 2
          3 1 2 6 5 4
          5 3 4 8 7 6
          7 5 6 10 9 8
          9 7 8
        </DataArray>
        <DataArray type="Int64" Name="offsets" format="ascii" RangeMin="3" RangeMax="33">
          3 6 9 12 15 18
          21 24 27 30 33
        </DataArray>
        <DataArray type="UInt8" Name="types" format="ascii" RangeMin="5" RangeMax="5">
          5 5 5 5 5 5
          5 5 5 5 5
        </DataArray>
      </Cells>
    </Piece>
  </UnstructuredGrid>
</VTKFile>
