<?xml version="1.0"?>
<VTKFile type="UnstructuredGrid" version="0.1" byte_order="LittleEndian" header_type="UInt32" compressor="vtkZLibDataCompressor">
  <UnstructuredGrid>
    <Piece NumberOfPoints="13" NumberOfCells="11">
      <PointData>
        <DataArray type="Float64" Name="Disp" NumberOfComponents="3" format="ascii" RangeMin="0" RangeMax="0.06416435754524619">
          0 0 0 0 0 0
          0.0010144425963936454 -0.001954346072467423 0 -0.001151213948847574 -0.0019160026323494853 0
          0.0018533593884578674 -0.008697717556759231 0 -0.0024302146451510836 -0.00853174331488139 0
          0.002121306843400213 -0.019045086660394096 0 -0.0037394725697282847 -0.018704503392112107 0
          0.0018754858415665472 -0.032205692583059733 0 -0.005209929510623665 -0.03170728385542827 0
          0.001164486319685253 -0.04745178040342307 0 -0.00680990286800051 -0.04681450588886024 0
          0.0000713233364661793 -0.0641643179047036 0
          <InformationKey name="L2_NORM_RANGE" location="vtkDataArray" length="2">
            <Value index="0">
              0
            </Value>
            <Value index="1">
              0.064164357545
            </Value>
          </InformationKey>
        </DataArray>
        <DataArray type="Float64" Name="Nodal Stress" NumberOfComponents="6" format="ascii" RangeMin="22245.15161375106" RangeMax="117603.58789691757">
          113435.26016215999 -1077.2689738356203 0 -31014.273000170517 0 0
          -59910.37287240511 -8325.011060554016 0 -173.84589473055254 0 0
          81470.84411279576 5447.063722514198 0 -12074.095964220833 0 0
          -74688.75112396505 -2249.2636400586207 0 5555.155386748091 0 0
          63545.19211023729 5923.874700145407 0 -15937.940708277463 0 0
          -65650.9227714653 -3276.2145629914453 0 5661.172577319169 0 0
          53535.26820081889 6412.375064213549 0 -14801.922234369364 0 0
          -53614.89436870758 -2275.222393487973 0 6248.768920484071 0 0
          40884.94429055788 6287.032872657082 0 -13619.758339760214 0 0
          -42331.40158250315 -1769.5211321574511 0 5351.409181466508 0 0
          29892.27938846438 5750.803587900677 0 -11407.229981163371 0 0
          -31280.409389097887 -978.3245032380762 0 4076.2717722345506 0 0
          19799.26644759767 4822.988595588852 0 -8920.45959929332 0 0
          <InformationKey name="L2_NORM_RANGE" location="vtkDataArray" length="2">
            <Value index="0">
              22245.151614
            </Value>
            <Value index="1">
              117603.5879
            </Value>
          </InformationKey>
        </DataArray>
        <DataArray type="Float64" Name="Nodal Strain" NumberOfComponents="6" format="ascii" RangeMin="0" RangeMax="0">
          0 0 0 0 0 0
          0 0 0 0 0 0
          0 0 0 0 0 0
          0 0 0 0 0 0
          0 0 0 0 0 0
          0 0 0 0 0 0
          0 0 0 0 0 0
          0 0 0 0 0 0
          0 0 0 0 0 0
          0 0 0 0 0 0
          0 0 0 0 0 0
          0 0 0 0 0 0
          0 0 0 0 0 0
          <InformationKey name="L2_NORM_RANGE" location="vtkDataArray" length="2">
            <Value index="0">
              0
            </Value>
            <Value index="1">
              0
            </Value>
          </InformationKey>
        </DataArray>
        <DataArray type="Float64" Name="Sld_traction" NumberOfComponents="3" format="ascii" RangeMin="6045.649310320933" RangeMax="53906.971526488844">
          -51746.28665486285 15109.050155136882 0 18631.52458812872 14879.075394721685 0
          -21229.40712924568 14162.427749792878 0 -14337.93510126655 11407.585773149189 0
          -19049.036598287854 11701.866606404845 0 -11165.708254785004 9717.858234763886 0
          -16539.846577124496 11123.93023264526 0 -8549.868416308198 7982.626490158519 0
          -14316.092450997634 9818.931142194391 0 -6203.374228755897 6160.497502320862 0
          -11925.735919082455 8286.789831094791 0 -4240.15985347695 4309.399030067453 0
          -9553.36233613523 6508.267111121421 0
          <InformationKey name="L2_NORM_RANGE" location="vtkDataArray" length="2">
            <Value index="0">
              6045.6493103
            </Value>
            <Value index="1">
              53906.971526
            </Value>
          </InformationKey>
        </DataArray>
        <DataArray type="Float64" Name="Velocity" NumberOfComponents="3" format="ascii" RangeMin="0" RangeMax="5.874099824037393">
          0 0 0 0 0 0
          -0.12247445663625733 0.25436490305913395 0 0.14747613802310655 0.24582706378189312 0
          -0.1761162102772318 1.0691357085924835 0 0.309415426949333 1.0300879742881799 0
          -0.11475147766624882 2.1823593913433967 0 0.47157848601485464 2.1129697969579624 0
          0.03190680841111471 3.4211943225840464 0 0.6515168994128695 3.3323674795466474 0
          0.22964306973760706 4.667416567423697 0 0.8371980573141391 4.568545091707936 0
          0.4488975429495981 5.856922377724494 0
          <InformationKey name="L2_NORM_RANGE" location="vtkDataArray" length="2">
            <Value index="0">
              0
            </Value>
            <Value index="1">
              5.874099824
            </Value>
          </InformationKey>
        </DataArray>
        <DataArray type="Float64" Name="Acceleration" NumberOfComponents="3" format="ascii" RangeMin="0" RangeMax="552.4148680809434">
          0 0 0 0 0 0
          -6.707523434628911 11.179578899178523 0 7.280220779661477 12.042864287797329 0
          -20.053322354543525 56.8086445193876 0 10.948027918473144 59.46960757067427 0
          -32.81119466393557 134.82186099881073 0 14.489458178175482 136.83534633518502 0
          -42.0277236590091 247.0756683364816 0 21.009667584355157 246.15457077229075 0
          -42.50433655800185 388.56013311109564 0 32.97873056293065 383.7432722868907 0
          -33.3220981306406 551.4089446618163 0
          <InformationKey name="L2_NORM_RANGE" location="vtkDataArray" length="2">
            <Value index="0">
              0
            </Value>
            <Value index="1">
              552.41486808
            </Value>
          </InformationKey>
        </DataArray>
        <DataArray type="Float64" Name="Sigma" NumberOfComponents="6" format="ascii" RangeMin="44169.605249863285" RangeMax="170457.06011276296">
          112489.18418818033 -112489.18418817871 0 -61220.71727480597 0 0
          -110489.39878833153 110489.39878833202 0 20188.22723163395 0 0
          114536.08868396416 -114536.08868396384 0 -21803.884682704087 0 0
          -108329.91861726835 108329.91861726814 0 23600.828962108673 0 0
          91022.55123260485 -91022.55123260457 0 -39383.0624023455 0 0
          -88186.7361115638 88186.73611156298 0 28033.105825845847 0 0
          75526.79842189174 -75526.79842189055 0 -35714.35298735213 0 0
          -71936.69092090595 71936.69092090521 0 27050.639209642566 0 0
          57235.65348921281 -57235.65348921334 0 -33474.39436690482 0 0
          -54983.834708391514 54983.83470839536 0 23559.349492732774 0 0
          41541.739421077604 -41541.739421078215 0 -27657.065324206156 0 0
          -39794.031662656525 39794.03166265189 0 18426.904870578568 0 0
          27411.546527151033 -27411.54652715086 0 -21169.984929338712 0 0
          <InformationKey name="L2_NORM_RANGE" location="vtkDataArray" length="2">
            <Value index="0">
              44169.60525
            </Value>
            <Value index="1">
              170457.06011
            </Value>
          </InformationKey>
        </DataArray>
        <DataArray type="Float64" Name="Press" format="ascii" RangeMin="-134747.66286190954" RangeMax="134376.3699860948">
          112543.63762623073 -134747.66286190954 134376.3699860948 -117734.11420483205 104270.67855525341 -101178.69545538253
          91684.29253389491 -82997.70724738347 71839.92160492387 -64688.80114225795 54542.740790599106 -47101.364086666974
          37718.18420928683
        </DataArray>
        <DataArray type="Float64" Name="Dev strain" NumberOfComponents="6" format="ascii" RangeMin="0" RangeMax="0">
          0 0 0 0 0 0
          0 0 0 0 0 0
          0 0 0 0 0 0
          0 0 0 0 0 0
          0 0 0 0 0 0
          0 0 0 0 0 0
          0 0 0 0 0 0
          0 0 0 0 0 0
          0 0 0 0 0 0
          0 0 0 0 0 0
          0 0 0 0 0 0
          0 0 0 0 0 0
          0 0 0 0 0 0
          <InformationKey name="L2_NORM_RANGE" location="vtkDataArray" length="2">
            <Value index="0">
              0
            </Value>
            <Value index="1">
              0
            </Value>
          </InformationKey>
        </DataArray>
        <DataArray type="Float64" Name="J2 Stresses" format="ascii" RangeMin="863434948.4872681" RangeMax="13590810615.232609">
          13590810615.232609 12309798374.296032 13237367957.83503 11874621049.548637 8672861233.938911 7973364181.571289
          6023176032.187276 5357821771.062463 3556053799.8950367 3161982816.3701124 1916944429.7155902 1668452661.7456632
          863434948.4872681
        </DataArray>
      </PointData>
      <CellData>
        <DataArray type="UInt8" Name="vtkGhostType" format="ascii" RangeMin="0" RangeMax="0">
          0 0 0 0 0 0
          0 0 0 0 0
        </DataArray>
        <DataArray type="Float64" Name="Gauss Stress" NumberOfComponents="6" format="ascii" RangeMin="27291.563499115146" RangeMax="79074.43732139686">
          -74129.5452674275 -4607.3927863368235 0 7328.390503679514 0 0
          76236.072944743 -1454.5097777981719 0 -20945.458241958702 0 0
          -73378.74486706284 -3049.3425362448806 0 4083.6241285363403 0 0
          72713.88521193895 7894.737679071965 0 -12528.706040980314 0 0
          -59029.57959314973 -2631.8271860978234 0 6456.464016045427 0 0
          57712.96305889955 5471.220696944552 0 -15688.1031879506 0 0
          -48510.48630826741 -2053.9048815434344 0 5711.864778490176 0 0
          47117.422627211316 6566.915300412213 0 -14046.036048204798 0 0
          -36827.850462765426 -1337.0991627855951 0 4776.396346368397 0 0
          35162.473151721315 5966.767683789612 0 -12524.036732792736 0 0
          24772.93839959703 5333.43554254726 0 -10133.381794322102 0 0
          <InformationKey name="L2_NORM_RANGE" location="vtkDataArray" length="2">
            <Value index="0">
              27291.563499
            </Value>
            <Value index="1">
              79074.437321
            </Value>
          </InformationKey>
        </DataArray>
        <DataArray type="Float64" Name="Gauss Strain" NumberOfComponents="6" format="ascii" RangeMin="0" RangeMax="0">
          0 0 0 0 0 0
          0 0 0 0 0 0
          0 0 0 0 0 0
          0 0 0 0 0 0
          0 0 0 0 0 0
          0 0 0 0 0 0
          0 0 0 0 0 0
          0 0 0 0 0 0
          0 0 0 0 0 0
          0 0 0 0 0 0
          0 0 0 0 0 0
          <InformationKey name="L2_NORM_RANGE" location="vtkDataArray" length="2">
            <Value index="0">
              0
            </Value>
            <Value index="1">
              0
            </Value>
          </InformationKey>
        </DataArray>
      </CellData>
      <Points>
        <DataArray type="Float32" Name="Points" NumberOfComponents="3" format="ascii" RangeMin="0" RangeMax="0.6020797527609908">
          0 0.05000000074505806 0 0 0 0
          0.10000000149011612 0.05000000074505806 0 0.10000000149011612 0 0
          0.20000000298023224 0.05000000074505806 0 0.20000000298023224 0 0
          0.30000001192092896 0.05000000074505806 0 0.30000001192092896 0 0
          0.4000000059604645 0.05000000074505806 0 0.4000000059604645 0 0
          0.5 0.05000000074505806 0 0.5 0 0
          0.6000000238418579 0.05000000074505806 0
          <InformationKey name="L2_NORM_RANGE" location="vtkDataArray" length="2">
            <Value index="0">
              0
            </Value>
            <Value index="1">
              0.60207975276
            </Value>
          </InformationKey>
        </DataArray>
      </Points>
      <Cells>
        <DataArray type="Int64" Name="connectivity" format="ascii" RangeMin="0" RangeMax="12">
          3 2 1 2 0 1
          5 4 3 4 2 3
          7 6 5 6 4 5
          9 8 7 8 6 7
          11 10 9 10 8 9
          12 10 11
        </DataArray>
        <DataArray type="Int64" Name="offsets" format="ascii" RangeMin="3" RangeMax="33">
          3 6 9 12 15 18
          21 24 27 30 33
        </DataArray>
        <DataArray type="UInt8" Name="types" format="ascii" RangeMin="5" RangeMax="5">
          5 5 5 5 5 5
          5 5 5 5 5
        </DataArray>
      </Cells>
    </Piece>
  </UnstructuredGrid>
</VTKFile>
