<?xml version="1.0"?>
<VTKFile type="UnstructuredGrid" version="0.1" byte_order="LittleEndian" header_type="UInt32" compressor="vtkZLibDataCompressor">
  <UnstructuredGrid>
    <Piece NumberOfPoints="13" NumberOfCells="11">
      <PointData>
        <DataArray type="Float64" Name="Disp" NumberOfComponents="3" format="ascii" RangeMin="0.014959057745815577" RangeMax="0.06756800725950528">
          -0.0026004029699264147 -0.02219712500812687 0 0.001180539005074233 -0.030666658024852533 0
          -0.0031304201938129796 -0.030480649957806017 0 0.0009066711623453794 -0.03959235373807895 0
          -0.003645141764283059 -0.03938482757759697 0 0.0005394738680510328 -0.04886355941278382 0
          -0.0041309253798428 -0.0486452421572756 0 0.00010818142631602167 -0.05825180119638583 0
          -0.0045688141866720815 -0.0580332604648223 0 -0.0003507158463749453 -0.06756709704742138 0
          -0.004995408165354727 -0.06734991694365675 0 0.001332547872531728 -0.02235211042984895 0
          -0.0020708884705557973 -0.01481502040448018 0
          <InformationKey name="L2_NORM_RANGE" location="vtkDataArray" length="2">
            <Value index="0">
              0.014959057746
            </Value>
            <Value index="1">
              0.06756800726
            </Value>
          </InformationKey>
        </DataArray>
        <DataArray type="Float64" Name="Nodal Stress" NumberOfComponents="6" format="ascii" RangeMin="388.2937706883711" RangeMax="20620.22057104472">
          -15841.185264062759 -339.19415618056763 0 994.526678811345 0 0
          11937.773841109867 1801.4107760616487 0 -3930.19181732747 0 0
          -11241.814168715766 -49.77076971113027 0 461.4625190592297 0 0
          7450.24383555744 1459.9469377422135 0 -3062.497223889583 0 0
          -6972.7661173697825 180.71124584124465 0 17.765344936767676 0 0
          3789.865847418346 1063.593023581668 0 -2099.1702826065407 0 0
          -3587.608228484495 256.33976254536196 0 -259.7338797543668 0 0
          1427.5814472763952 572.5392376112451 0 -1092.4756779251832 0 0
          -1515.4709030852084 108.9244441953405 0 -187.09046008827525 0 0
          474.52359148196496 259.56919220738814 0 -589.6805770136363 0 0
          -386.935245788577 3.2889666826922337 0 32.285455240511055 0 0
          16863.42307420601 2055.245586161775 0 -4611.070077195791 0 0
          -20557.311645707705 -680.6262748720868 0 1458.4862610734153 0 0
          <InformationKey name="L2_NORM_RANGE" location="vtkDataArray" length="2">
            <Value index="0">
              388.29377069
            </Value>
            <Value index="1">
              20620.220571
            </Value>
          </InformationKey>
        </DataArray>
        <DataArray type="Float64" Name="Nodal Strain" NumberOfComponents="6" format="ascii" RangeMin="0" RangeMax="0">
          0 0 0 0 0 0
          0 0 0 0 0 0
          0 0 0 0 0 0
          0 0 0 0 0 0
          0 0 0 0 0 0
          0 0 0 0 0 0
          0 0 0 0 0 0
          0 0 0 0 0 0
          0 0 0 0 0 0
          0 0 0 0 0 0
          0 0 0 0 0 0
          0 0 0 0 0 0
          0 0 0 0 0 0
          <InformationKey name="L2_NORM_RANGE" location="vtkDataArray" length="2">
            <Value index="0">
              0
            </Value>
            <Value index="1">
              0
            </Value>
          </InformationKey>
        </DataArray>
        <DataArray type="Float64" Name="Sld_traction" NumberOfComponents="3" format="ascii" RangeMin="63.96433343188444" RangeMax="7401.72172934173">
          -2652.246274090159 2127.175749729417 0 -5325.275620069224 3036.7147872356495 0
          -1674.4490103934402 1352.7957834340662 0 -4147.454874262122 2255.6408195228664 0
          -847.4826382016644 676.5109818363007 0 -2815.742123950222 1491.6731081601254 0
          -181.298195796177 228.65451522572678 0 -1489.1992735981617 785.0570331494063 0
          -70.45442739061833 121.30353734932805 0 -287.1135436843737 113.67761053697205 0
          50.777234909694215 38.89869363244761 0 -6370.477336287841 3768.6208440824207 0
          -3706.858978038964 2939.6289103221125 0
          <InformationKey name="L2_NORM_RANGE" location="vtkDataArray" length="2">
            <Value index="0">
              63.964333432
            </Value>
            <Value index="1">
              7401.7217293
            </Value>
          </InformationKey>
        </DataArray>
        <DataArray type="Float64" Name="Velocity" NumberOfComponents="3" format="ascii" RangeMin="4.799823755187757" RangeMax="14.385877519639116">
          -0.792587613174762 -6.525128970305503 0 -0.08581838087515403 -8.309440349915294 0
          -0.9154511192319572 -8.236244015264718 0 -0.25896067994734806 -9.918574087423044 0
          -1.0380448466069843 -9.845298663744844 0 -0.4235815810735209 -11.433505956798118 0
          -1.1655700299305856 -11.361517219776402 0 -0.5732490601787046 -12.89734206043296 0
          -1.305607118261063 -12.826076893480078 0 -0.710537785386376 -14.368319597837331 0
          -1.449079484788386 -14.297508082614552 0 0.0807340034216964 -6.594576716870887 0
          -0.6656781332936448 -4.753438829281322 0
          <InformationKey name="L2_NORM_RANGE" location="vtkDataArray" length="2">
            <Value index="0">
              4.7998237552
            </Value>
            <Value index="1">
              14.38587752
            </Value>
          </InformationKey>
        </DataArray>
        <DataArray type="Float64" Name="Acceleration" NumberOfComponents="3" format="ascii" RangeMin="78.86352583603842" RangeMax="862.2705341604565">
          -78.25440644212802 9.782820640374212 0 -154.85827469021388 117.03518603313933 0
          -85.73409973441778 124.2218434880997 0 -171.93993685946225 276.49253921613854 0
          -86.22728724585863 279.15898961830135 0 -177.91580910329935 461.37625393543567 0
          -82.88347319550326 461.1629360080278 0 -176.43642046148761 655.9485560279136 0
          -80.50162417307774 655.2031742769723 0 -173.2818122974146 844.6797544680958 0
          -79.78793572744326 844.2497683815272 0 -124.95275935145662 -2.305509681201329 0
          -63.550460412406665 -56.19704701026831 0
          <InformationKey name="L2_NORM_RANGE" location="vtkDataArray" length="2">
            <Value index="0">
              78.863525836
            </Value>
            <Value index="1">
              862.27053416
            </Value>
          </InformationKey>
        </DataArray>
        <DataArray type="Float64" Name="Sigma" NumberOfComponents="6" format="ascii" RangeMin="503.8739930652097" RangeMax="41031.88562978908">
          -21710.103321600698 21710.103321601204 0 6317.442633241828 0 0
          16723.023848732828 -16723.02384873401 0 -8628.100131435946 0 0
          -15109.83809888931 15109.838098890956 0 4436.354983627898 0 0
          10404.23051940937 -10404.230519409484 0 -6361.722900463532 0 0
          -9093.162644730173 9093.162644728636 0 2604.1455135158985 0 0
          5165.260389476803 -5165.26038947476 0 -4017.832503632614 0 0
          -4410.205889966245 4410.205889966192 0 919.2711452175076 0 0
          1959.6298013530538 -1959.6298013552116 0 -1763.8083167430893 0 0
          -1762.473834831121 1762.4738348303542 0 327.75504516708014 0 0
          552.6787496853572 -552.6787496811794 0 -1002.9010422724612 0 0
          214.67333010243334 -214.67333010249737 0 402.14390903371253 0 0
          23632.11863922883 -23632.118639227505 0 -10507.103056275855 0 0
          -28470.0096712655 28470.00967126547 0 7907.764347284976 0 0
          <InformationKey name="L2_NORM_RANGE" location="vtkDataArray" length="2">
            <Value index="0">
              503.87399307
            </Value>
            <Value index="1">
              41031.88563
            </Value>
          </InformationKey>
        </DataArray>
        <DataArray type="Float64" Name="Press" format="ascii" RangeMin="-31978.321240467973" RangeMax="28284.90146421108">
          -24337.2785848546 20527.06524783648 -16841.703110313672 13248.292416390199 -9977.880411077873 7043.20908314634
          -4649.018681207533 2856.2142245973773 -1918.249953026757 954.736513841521 98.11044048591243 28284.90146421108
          -31978.321240467973
        </DataArray>
        <DataArray type="Float64" Name="Dev strain" NumberOfComponents="6" format="ascii" RangeMin="0" RangeMax="0">
          0 0 0 0 0 0
          0 0 0 0 0 0
          0 0 0 0 0 0
          0 0 0 0 0 0
          0 0 0 0 0 0
          0 0 0 0 0 0
          0 0 0 0 0 0
          0 0 0 0 0 0
          0 0 0 0 0 0
          0 0 0 0 0 0
          0 0 0 0 0 0
          0 0 0 0 0 0
          0 0 0 0 0 0
          <InformationKey name="L2_NORM_RANGE" location="vtkDataArray" length="2">
            <Value index="0">
              0
            </Value>
            <Value index="1">
              0
            </Value>
          </InformationKey>
        </DataArray>
        <DataArray type="Float64" Name="J2 Stresses" format="ascii" RangeMin="86514.56955051076" RangeMax="826174634.924998">
          481306106.59066415 298270554.61482793 233227518.75986183 118365892.26658109 84381000.34739351 30715659.39789918
          19661180.85150011 4617903.902908261 3133169.860871085 556906.4254992579 86514.56955051076 586076835.0373558
          826174634.924998
        </DataArray>
      </PointData>
      <CellData>
        <DataArray type="UInt8" Name="vtkGhostType" format="ascii" RangeMin="0" RangeMax="1">
          1 1 0 0 0 0
          0 0 0 0 0
        </DataArray>
        <DataArray type="Float64" Name="Gauss Stress" NumberOfComponents="6" format="ascii" RangeMin="628.3054330789689" RangeMax="18241.76041217357">
          -18192.89757158296 -494.23466915743916 0 1239.367974750316 0 0
          14373.242431184639 1943.21632027755 0 -4272.586851489992 0 0
          -13582.94467302966 -184.99962519121516 0 708.5658284779265 0 0
          -9123.35377640382 75.82637306958725 0 226.25919889342185 0 0
          9650.3569410553 1638.746094886822 0 -3517.822682757194 0 0
          -5307.266051452894 251.47271202700114 0 -164.80528163306928 0 0
          5596.64978420489 1279.09760810102 0 -2591.803296860083 0 0
          -2641.368111027075 167.33183793480748 0 -172.26070878616719 0 0
          2655.0296424666 845.2401085574688 0 -1620.7898917193988 0 0
          -620.1749179142178 43.23958544911797 0 -91.00069602388939 0 0
          880.8451672064775 380.95535640203474 0 -812.9847712828235 0 0
          <InformationKey name="L2_NORM_RANGE" location="vtkDataArray" length="2">
            <Value index="0">
              628.30543308
            </Value>
            <Value index="1">
              18241.760412
            </Value>
          </InformationKey>
        </DataArray>
        <DataArray type="Float64" Name="Gauss Strain" NumberOfComponents="6" format="ascii" RangeMin="0" RangeMax="0">
          0 0 0 0 0 0
          0 0 0 0 0 0
          0 0 0 0 0 0
          0 0 0 0 0 0
          0 0 0 0 0 0
          0 0 0 0 0 0
          0 0 0 0 0 0
          0 0 0 0 0 0
          0 0 0 0 0 0
          0 0 0 0 0 0
          0 0 0 0 0 0
          <InformationKey name="L2_NORM_RANGE" location="vtkDataArray" length="2">
            <Value index="0">
              0
            </Value>
            <Value index="1">
              0
            </Value>
          </InformationKey>
        </DataArray>
      </CellData>
      <Points>
        <DataArray type="Float32" Name="Points" NumberOfComponents="3" format="ascii" RangeMin="0.4000000059604645" RangeMax="1.0012492197622458">
          0.5 0 0 0.6000000238418579 0.05000000074505806 0
          0.6000000238418579 0 0 0.699999988079071 0.05000000074505806 0
          0.699999988079071 0 0 0.800000011920929 0.05000000074505806 0
          0.800000011920929 0 0 0.8999999761581421 0.05000000074505806 0
          0.8999999761581421 0 0 1 0.05000000074505806 0
          1 0 0 0.5 0.05000000074505806 0
          0.4000000059604645 0 0
          <InformationKey name="L2_NORM_RANGE" location="vtkDataArray" length="2">
            <Value index="0">
              0.40000000596
            </Value>
            <Value index="1">
              1.0012492198
            </Value>
          </InformationKey>
        </DataArray>
      </Points>
      <Cells>
        <DataArray type="Int64" Name="connectivity" format="ascii" RangeMin="0" RangeMax="12">
          0 11 12 1 11 0
          2 1 0 4 3 2
          3 1 2 6 5 4
          5 3 4 8 7 6
          7 5 6 10 9 8
          9 7 8
        </DataArray>
        <DataArray type="Int64" Name="offsets" format="ascii" RangeMin="3" RangeMax="33">
          3 6 9 12 15 18
          21 24 27 30 33
        </DataArray>
        <DataArray type="UInt8" Name="types" format="ascii" RangeMin="5" RangeMax="5">
          5 5 5 5 5 5
          5 5 5 5 5
        </DataArray>
      </Cells>
    </Piece>
  </UnstructuredGrid>
</VTKFile>
