<?xml version="1.0"?>
<VTKFile type="UnstructuredGrid" version="0.1" byte_order="LittleEndian" header_type="UInt32" compressor="vtkZLibDataCompressor">
  <UnstructuredGrid>
    <Piece NumberOfPoints="13" NumberOfCells="11">
      <PointData>
        <DataArray type="Float64" Name="Disp" NumberOfComponents="3" format="ascii" RangeMin="0.0424073003841196" RangeMax="0.16755461074714006">
          -0.009563249797176864 -0.06065557548068345 0 -0.0015497013581947505 -0.08200573962986148 0
          -0.011902812929010432 -0.08092321252090505 0 -0.0036593683049886594 -0.10309303216205695 0
          -0.014271295776084958 -0.10195371049929734 0 -0.005922642804631316 -0.12447822944166409 0
          -0.016625275386783024 -0.12331914312432998 0 -0.008250722742855548 -0.14590307541644995 0
          -0.018934223819970394 -0.14474864183933656 0 -0.010578178096981049 -0.16722036278747326 0
          -0.02122513828848034 -0.166072278620985 0 0.00027397234233567905 -0.061631413556798666 0
          -0.007323438647598975 -0.04177016126667222 0
          <InformationKey name="L2_NORM_RANGE" location="vtkDataArray" length="2">
            <Value index="0">
              0.042407300384
            </Value>
            <Value index="1">
              0.16755461075
            </Value>
          </InformationKey>
        </DataArray>
        <DataArray type="Float64" Name="Nodal Stress" NumberOfComponents="6" format="ascii" RangeMin="393.45283575712995" RangeMax="48026.78591464173">
          -32052.915603111334 -825.2666313372274 0 4757.1192435182475 0 0
          18279.18430578773 5957.582019038011 0 -9947.2995144902 0 0
          -19736.0314511808 -166.0641319997497 0 2667.660128294715 0 0
          9728.330288634448 4020.38508505989 0 -6277.523065135028 0 0
          -10526.362783762972 260.44072784555493 0 1127.9888108983635 0 0
          4178.218772272907 2364.07472057956 0 -3445.1546788093533 0 0
          -4546.482940527654 347.633559374513 0 221.44315823984013 0 0
          1293.3610584925768 1053.800740412471 0 -1471.6529056346217 0 0
          -1628.7908502401424 127.83465614148338 0 -28.621847981578895 0 0
          186.9875470851251 434.3117739212003 0 -648.3586709788628 0 0
          337.7592262555744 28.58373908116743 0 199.76688640688806 0 0
          30293.343714186954 7889.170732417962 0 -14144.225271486617 0 0
          -47501.589762046664 -1823.313272908868 0 6844.462292823827 0 0
          <InformationKey name="L2_NORM_RANGE" location="vtkDataArray" length="2">
            <Value index="0">
              393.45283576
            </Value>
            <Value index="1">
              48026.785915
            </Value>
          </InformationKey>
        </DataArray>
        <DataArray type="Float64" Name="Nodal Strain" NumberOfComponents="6" format="ascii" RangeMin="0" RangeMax="0">
          0 0 0 0 0 0
          0 0 0 0 0 0
          0 0 0 0 0 0
          0 0 0 0 0 0
          0 0 0 0 0 0
          0 0 0 0 0 0
          0 0 0 0 0 0
          0 0 0 0 0 0
          0 0 0 0 0 0
          0 0 0 0 0 0
          0 0 0 0 0 0
          0 0 0 0 0 0
          0 0 0 0 0 0
          <InformationKey name="L2_NORM_RANGE" location="vtkDataArray" length="2">
            <Value index="0">
              0
            </Value>
            <Value index="1">
              0
            </Value>
          </InformationKey>
        </DataArray>
        <DataArray type="Float64" Name="Sld_traction" NumberOfComponents="3" format="ascii" RangeMin="78.54971578902088" RangeMax="17132.77407505563">
          -3831.839307822888 4281.114360058576 0 -10208.571652123346 7254.513659920795 0
          -2138.280454259381 2433.3433470146188 0 -6836.80560524408 4745.396233588307 0
          -999.2677463603105 1111.342632086643 0 -3994.7637802116733 2695.4594590083675 0
          -247.99439563243214 373.42685730716056 0 -1834.8448771573576 1225.7239131037293 0
          -132.34924266814704 182.6845415288406 0 -414.8483613791605 211.06544875937655 0
          73.43796487762238 27.8733414783563 0 -13900.966057563097 10014.743639922941 0
          -6063.2076063649865 6681.060819686357 0
          <InformationKey name="L2_NORM_RANGE" location="vtkDataArray" length="2">
            <Value index="0">
              78.549715789
            </Value>
            <Value index="1">
              17132.774075
            </Value>
          </InformationKey>
        </DataArray>
        <DataArray type="Float64" Name="Velocity" NumberOfComponents="3" format="ascii" RangeMin="0.4987771307436924" RangeMax="8.670352864916246">
          0.24772444930917104 -0.5470128204241718 0 -0.08191936820663259 0.7268952075218635 0
          0.6213253822984672 0.5782840485020628 0 0.17219319393751098 2.3874253217277754 0
          1.078652766453093 2.190045564155774 0 0.5438765231822678 4.3681703184972775 0
          1.5710598070647315 4.142454595755055 0 0.9971959072018226 6.4815672457412745 0
          2.0401601740474753 6.252886388150259 0 1.471988510212162 8.53066703855471 0
          2.486340628281841 8.306210271978216 0 -0.19474765947644657 -0.45918620981183267 0
          -0.01096664502682998 -1.1139692068856029 0
          <InformationKey name="L2_NORM_RANGE" location="vtkDataArray" length="2">
            <Value index="0">
              0.49877713074
            </Value>
            <Value index="1">
              8.6703528649
            </Value>
          </InformationKey>
        </DataArray>
        <DataArray type="Float64" Name="Acceleration" NumberOfComponents="3" format="ascii" RangeMin="816.5103784958968" RangeMax="1229.0264554565663">
          155.4278094843594 1123.2027515332156 0 111.27592021377268 1214.824769164843 0
          125.41754758982643 1222.6105131924414 0 90.44372527009227 1182.7935941999604 0
          56.329609051783336 1212.1158621197246 0 25.045853308518417 1070.0715431589342 0
          -39.76780870591756 1114.3124313558656 0 -71.14713360154201 924.6851422147593 0
          -139.59200177649473 971.202491387201 0 -168.35680894513462 798.9650699957565 0
          -229.39306847484113 843.2920238611114 0 85.75390784904118 1135.699561770598 0
          149.9890387306923 917.9303804343654 0
          <InformationKey name="L2_NORM_RANGE" location="vtkDataArray" length="2">
            <Value index="0">
              816.5103785
            </Value>
            <Value index="1">
              1229.0264555
            </Value>
          </InformationKey>
        </DataArray>
        <DataArray type="Float64" Name="Sigma" NumberOfComponents="6" format="ascii" RangeMin="1154.0100697379548" RangeMax="89318.55627873613">
          -39177.34956055422 39177.34956055294 0 21444.03360528874 0 0
          24223.0626894947 -24223.06268949464 0 -23379.78984358444 0 0
          -23332.763423195764 23332.763423195203 0 13137.160031435806 0 0
          12589.75980950222 -12589.759809504565 0 -14082.486988057835 0 0
          -11978.548212628513 11978.54821263552 0 6745.388699175126 0 0
          5057.2930604795 -5057.2930604797375 0 -7178.890006592238 0 0
          -4836.243040352132 4836.2430403422 0 2467.3802976157845 0 0
          1573.1223770193303 -1573.1223770010015 0 -2603.9580367247254 0 0
          -1632.122497895749 1632.1224978992902 0 674.2820055103654 0 0
          -120.95582698238857 120.9558269773043 0 -1141.2618529048634 0 0
          1185.714649620816 -1185.7146496053638 0 633.023696511025 0 0
          40835.73888396935 -40835.738883968705 0 -34034.26640669519 0 0
          -59406.35467150435 59406.35467150354 0 30324.48754727301 0 0
          <InformationKey name="L2_NORM_RANGE" location="vtkDataArray" length="2">
            <Value index="0">
              1154.0100697
            </Value>
            <Value index="1">
              89318.556279
            </Value>
          </InformationKey>
        </DataArray>
        <DataArray type="Float64" Name="Press" format="ascii" RangeMin="-71891.18491845198" RangeMax="58065.69507394894">
          -47743.6334729443 36541.20093940739 -28548.443731698255 20442.318710342137 -14487.848206146778 9297.984259713141
          -5634.493161607309 3256.3972885636927 -2009.7826983449481 536.4273938450737 1103.0206175793387 58065.69507394894
          -71891.18491845198
        </DataArray>
        <DataArray type="Float64" Name="Dev strain" NumberOfComponents="6" format="ascii" RangeMin="0" RangeMax="0">
          0 0 0 0 0 0
          0 0 0 0 0 0
          0 0 0 0 0 0
          0 0 0 0 0 0
          0 0 0 0 0 0
          0 0 0 0 0 0
          0 0 0 0 0 0
          0 0 0 0 0 0
          0 0 0 0 0 0
          0 0 0 0 0 0
          0 0 0 0 0 0
          0 0 0 0 0 0
          0 0 0 0 0 0
          <InformationKey name="L2_NORM_RANGE" location="vtkDataArray" length="2">
            <Value index="0">
              0
            </Value>
            <Value index="1">
              0
            </Value>
          </InformationKey>
        </DataArray>
        <DataArray type="Float64" Name="J2 Stresses" format="ascii" RangeMin="340249.9663043391" RangeMax="3759008611.6076975">
          1649826362.905996 723410409.3417321 587564092.3856976 208081162.0031915 154860684.45808956 38460328.531262785
          24911238.12857204 4169863.3773059365 2777487.903882009 340249.9663043391 1506098.980393213 1957140392.6601748
          3759008611.6076975
        </DataArray>
      </PointData>
      <CellData>
        <DataArray type="UInt8" Name="vtkGhostType" format="ascii" RangeMin="0" RangeMax="1">
          1 1 0 0 0 0
          0 0 0 0 0
        </DataArray>
        <DataArray type="Float64" Name="Gauss Stress" NumberOfComponents="6" format="ascii" RangeMin="324.15174781624927" RangeMax="40229.4429039197">
          -39772.3628885122 -1273.7193231198544 0 5911.418248622189 0 0
          24248.238184440623 6993.9368425005405 0 -11990.007548330299 0 0
          -26012.642186496814 -487.9419903272192 0 3733.8012643800357 0 0
          -15105.175017941649 42.52619960775337 0 1933.3539141843657 0 0
          13971.711664617484 4985.0056140824245 0 -8108.372266735491 0 0
          -7527.285100180698 311.04702815234486 0 677.9596633995579 0 0
          6973.653140420569 3194.650035519906 0 -4838.662765158317 0 0
          -3094.3739108723717 169.12152995064127 0 179.23475546714155 0 0
          2904.6869279387406 1708.571996510328 0 -2438.48924856706 0 0
          -312.5661207259519 65.67632945023158 0 55.34794970550908 0 0
          534.362012068337 654.3326439798037 0 -1023.6459613730747 0 0
          <InformationKey name="L2_NORM_RANGE" location="vtkDataArray" length="2">
            <Value index="0">
              324.15174782
            </Value>
            <Value index="1">
              40229.442904
            </Value>
          </InformationKey>
        </DataArray>
        <DataArray type="Float64" Name="Gauss Strain" NumberOfComponents="6" format="ascii" RangeMin="0" RangeMax="0">
          0 0 0 0 0 0
          0 0 0 0 0 0
          0 0 0 0 0 0
          0 0 0 0 0 0
          0 0 0 0 0 0
          0 0 0 0 0 0
          0 0 0 0 0 0
          0 0 0 0 0 0
          0 0 0 0 0 0
          0 0 0 0 0 0
          0 0 0 0 0 0
          <InformationKey name="L2_NORM_RANGE" location="vtkDataArray" length="2">
            <Value index="0">
              0
            </Value>
            <Value index="1">
              0
            </Value>
          </InformationKey>
        </DataArray>
      </CellData>
      <Points>
        <DataArray type="Float32" Name="Points" NumberOfComponents="3" format="ascii" RangeMin="0.4000000059604645" RangeMax="1.0012492197622458">
          0.5 0 0 0.6000000238418579 0.05000000074505806 0
          0.6000000238418579 0 0 0.699999988079071 0.05000000074505806 0
          0.699999988079071 0 0 0.800000011920929 0.05000000074505806 0
          0.800000011920929 0 0 0.8999999761581421 0.05000000074505806 0
          0.8999999761581421 0 0 1 0.05000000074505806 0
          1 0 0 0.5 0.05000000074505806 0
          0.4000000059604645 0 0
          <InformationKey name="L2_NORM_RANGE" location="vtkDataArray" length="2">
            <Value index="0">
              0.40000000596
            </Value>
            <Value index="1">
              1.0012492198
            </Value>
          </InformationKey>
        </DataArray>
      </Points>
      <Cells>
        <DataArray type="Int64" Name="connectivity" format="ascii" RangeMin="0" RangeMax="12">
          0 11 12 1 11 0
          2 1 0 4 3 2
          3 1 2 6 5 4
          5 3 4 8 7 6
          7 5 6 10 9 8
          9 7 8
        </DataArray>
        <DataArray type="Int64" Name="offsets" format="ascii" RangeMin="3" RangeMax="33">
          3 6 9 12 15 18
          21 24 27 30 33
        </DataArray>
        <DataArray type="UInt8" Name="types" format="ascii" RangeMin="5" RangeMax="5">
          5 5 5 5 5 5
          5 5 5 5 5
        </DataArray>
      </Cells>
    </Piece>
  </UnstructuredGrid>
</VTKFile>
