<?xml version="1.0"?>
<VTKFile type="UnstructuredGrid" version="0.1" byte_order="LittleEndian" header_type="UInt32" compressor="vtkZLibDataCompressor">
  <UnstructuredGrid>
    <Piece NumberOfPoints="13" NumberOfCells="11">
      <PointData>
        <DataArray type="Float64" Name="Disp" NumberOfComponents="3" format="ascii" RangeMin="0" RangeMax="0.07997712589727302">
          0 0 0 0 0 0
          -0.0011611300698914566 0.002236072671980884 0 0.001451252727248912 0.0022949661380884164 0
          -0.002920100248809159 0.010377670042665278 0 0.0023131658081990292 0.010643808959402753 0
          -0.004638682642840349 0.022754069382277874 0 0.0025349714662174423 0.023272637255277562 0
          -0.006799912672186779 0.03880805386552276 0 0.002052498381819616 0.03960039411999038 0
          -0.0092879755719786 0.05782473749350444 0 0.0008519054030000516 0.058868934267433025 0
          -0.012048410504091051 0.07906438181073173 0
          <InformationKey name="L2_NORM_RANGE" location="vtkDataArray" length="2">
            <Value index="0">
              0
            </Value>
            <Value index="1">
              0.079977125897
            </Value>
          </InformationKey>
        </DataArray>
        <DataArray type="Float64" Name="Nodal Stress" NumberOfComponents="6" format="ascii" RangeMin="20732.578807299808" RangeMax="124048.24072582903">
          -119154.39255652168 -16354.67047023264 0 30376.331501181343 0 0
          58638.17817827557 -10883.47149449335 0 2932.0016363482773 0 0
          -78888.62940289499 -8131.094072506209 0 4940.645855320455 0 0
          79457.00364893599 2464.6348101231533 0 -1266.5585182825273 0 0
          -64370.9561355333 -4283.62655614567 0 6675.176095870046 0 0
          65012.51256520287 924.8434853518959 0 4287.074484791209 0 0
          -52877.43790546247 -3991.358795936975 0 3482.496420430397 0 0
          51732.93337199965 1481.525512621377 0 5598.300451371124 0 0
          -40479.31447162328 -2430.4745346017994 0 2978.6054132348927 0 0
          39167.660033480744 1329.8865686652234 0 6311.854542911312 0 0
          -29905.45001257533 -1598.6958689826379 0 2539.4031871520006 0 0
          28100.558111586102 1290.4761777881233 0 5969.416040909252 0 0
          -20568.802200873357 -858.0368918606545 0 2455.1930096125952 0 0
          <InformationKey name="L2_NORM_RANGE" location="vtkDataArray" length="2">
            <Value index="0">
              20732.578807
            </Value>
            <Value index="1">
              124048.24073
            </Value>
          </InformationKey>
        </DataArray>
        <DataArray type="Float64" Name="Nodal Strain" NumberOfComponents="6" format="ascii" RangeMin="0" RangeMax="0">
          0 0 0 0 0 0
          0 0 0 0 0 0
          0 0 0 0 0 0
          0 0 0 0 0 0
          0 0 0 0 0 0
          0 0 0 0 0 0
          0 0 0 0 0 0
          0 0 0 0 0 0
          0 0 0 0 0 0
          0 0 0 0 0 0
          0 0 0 0 0 0
          0 0 0 0 0 0
          0 0 0 0 0 0
          <InformationKey name="L2_NORM_RANGE" location="vtkDataArray" length="2">
            <Value index="0">
              0
            </Value>
            <Value index="1">
              0
            </Value>
          </InformationKey>
        </DataArray>
        <DataArray type="Float64" Name="Sld_traction" NumberOfComponents="3" format="ascii" RangeMin="7363.70810437153" RangeMax="63766.50298800473">
          58608.37748335125 -25124.191371827717 0 -17041.61505595115 -1518.2788417760776 0
          26898.271878320225 -12892.348282681105 0 17375.77652022183 -7936.6773957287905 0
          30623.022987139368 -12083.41841635965 0 16750.605788858604 -6573.951101638338 0
          25970.937994948195 -9189.046561460515 0 13207.000087828244 -4630.115931010616 0
          21954.91605671129 -6262.689733868828 0 10242.226668806265 -2913.665911725005 0
          17784.120836372473 -4197.549872278352 0 7146.459699338845 -1775.4748131451188 0
          13528.000316375745 -2718.515137217739 0
          <InformationKey name="L2_NORM_RANGE" location="vtkDataArray" length="2">
            <Value index="0">
              7363.7081044
            </Value>
            <Value index="1">
              63766.502988
            </Value>
          </InformationKey>
        </DataArray>
        <DataArray type="Float64" Name="Velocity" NumberOfComponents="3" format="ascii" RangeMin="0" RangeMax="1.9554626392209966">
          0 0 0 0 0 0
          0.025996152900595426 -0.07825660867069129 0 -0.05214882339859972 -0.08553671890857517 0
          0.04803808403005072 -0.2758271286056617 0 -0.01770323111663097 -0.28469169635916725 0
          -0.02009443630446439 -0.30246232314893184 0 0.04554138941379837 -0.2962289072590192 0
          -0.16191190339862338 -0.022997503662480767 0 0.08729681352893759 0.019709385356758702 0
          -0.41335652425713487 0.6639304194938127 0 0.05494060596851502 0.7599069498654316 0
          -0.7769894940596602 1.7944696875428292 0
          <InformationKey name="L2_NORM_RANGE" location="vtkDataArray" length="2">
            <Value index="0">
              0
            </Value>
            <Value index="1">
              1.9554626392
            </Value>
          </InformationKey>
        </DataArray>
        <DataArray type="Float64" Name="Acceleration" NumberOfComponents="3" format="ascii" RangeMin="0" RangeMax="582.9787931041958">
          0 0 0 0 0 0
          5.207764529183123 -9.917145184490892 0 -7.612085365982466 -10.993153868768786 0
          16.171943086467763 -50.76723023389059 0 -12.60385827200571 -54.434437603753395 0
          34.535611487686765 -123.50925060262307 0 -12.2466731449681 -131.57831048967273 0
          62.483076492550936 -235.09994897038996 0 -3.7434757346557035 -247.1368774355651 0
          94.82441760448364 -385.8232851847424 0 11.053158601187647 -399.1243683902285 0
          123.61478495161464 -569.7224395708763 0
          <InformationKey name="L2_NORM_RANGE" location="vtkDataArray" length="2">
            <Value index="0">
              0
            </Value>
            <Value index="1">
              582.9787931
            </Value>
          </InformationKey>
        </DataArray>
        <DataArray type="Float64" Name="Sigma" NumberOfComponents="6" format="ascii" RangeMin="43074.46860953929" RangeMax="178900.1547398584">
          -107649.73075831127 107649.73075831088 0 64253.29296418623 0 0
          126325.20820056439 -126325.20820056388 0 -9441.8701597476 0 0
          -116625.19085651972 116625.19085652025 0 2440.6102361005464 0 0
          110835.73213923567 -110835.73213923634 0 -6981.757380208952 0 0
          -95533.37381954989 95533.3738195488 0 14042.793402915504 0 0
          90957.87868369675 -90957.87868369595 0 3405.1321793943875 0 0
          -77510.08423380576 77510.08423380702 0 589.4328475880358 0 0
          71597.64376416054 -71597.64376416132 0 8820.557522193352 0 0
          -59862.89889927027 59862.89889927125 0 -227.4253676766322 0 0
          54019.944653343526 -54019.94465334169 0 10054.150423950747 0 0
          -44179.79834677621 44179.79834677432 0 -1335.2623561347461 0 0
          38379.44149175607 -38379.44149175289 0 9628.490024254406 0 0
          -30453.794894389473 30453.79489439173 0 -736.6132329543806 0 0
          <InformationKey name="L2_NORM_RANGE" location="vtkDataArray" length="2">
            <Value index="0">
              43074.46861
            </Value>
            <Value index="1">
              178900.15474
            </Value>
          </InformationKey>
        </DataArray>
        <DataArray type="Float64" Name="Press" format="ascii" RangeMin="-127473.85879605408" RangeMax="124875.20142771">
          -127473.85879605408 111233.20182892056 -127303.61029032108 124875.20142771 -107335.08800702963 96256.34386822312
          -86395.25380707787 77955.80332794959 -66151.44017729117 58551.4010399972 -48640.62153532348 42191.602519567154
          -33345.66549464872
        </DataArray>
        <DataArray type="Float64" Name="Dev strain" NumberOfComponents="6" format="ascii" RangeMin="0" RangeMax="0">
          0 0 0 0 0 0
          0 0 0 0 0 0
          0 0 0 0 0 0
          0 0 0 0 0 0
          0 0 0 0 0 0
          0 0 0 0 0 0
          0 0 0 0 0 0
          0 0 0 0 0 0
          0 0 0 0 0 0
          0 0 0 0 0 0
          0 0 0 0 0 0
          0 0 0 0 0 0
          0 0 0 0 0 0
          <InformationKey name="L2_NORM_RANGE" location="vtkDataArray" length="2">
            <Value index="0">
              0
            </Value>
            <Value index="1">
              0
            </Value>
          </InformationKey>
        </DataArray>
        <DataArray type="Float64" Name="J2 Stresses" format="ascii" RangeMin="927569273.233352" RangeMax="15980345454.94426">
          12620585946.522253 15980345454.94426 13602924286.900852 12296745752.8695 9175925524.984997 8276234425.92781
          6007900015.702215 5145673151.330273 3583579595.198778 2943425905.537056 1952300313.3516536 1496158484.255797
          927569273.233352
        </DataArray>
      </PointData>
      <CellData>
        <DataArray type="UInt8" Name="vtkGhostType" format="ascii" RangeMin="0" RangeMax="0">
          0 0 0 0 0 0
          0 0 0 0 0
        </DataArray>
        <DataArray type="Float64" Name="Gauss Stress" NumberOfComponents="6" format="ascii" RangeMin="25501.77181301006" RangeMax="84113.6805678997">
          76446.84748319662 -3910.318838990159 0 -4661.005767952001 0 0
          -80497.99355724045 -15198.184614395785 0 19084.011013513053 0 0
          73352.23143076204 2512.07342850667 0 3488.7227340336462 0 0
          -70362.10980215821 -2813.554777602664 0 3167.215419602367 0 0
          57620.77720104882 923.818391681531 0 4271.707516391926 0 0
          -59853.19243851446 -5129.472858741499 0 6012.452809965975 0 0
          45370.15123629647 1533.6915574746145 0 6215.760859489155 0 0
          -46788.74334177834 -2938.517095834167 0 3060.8550007015847 0 0
          33440.65660752142 1294.26474197354 0 6115.792697356803 0 0
          -35421.13775510681 -2072.636026637855 0 2830.487566713122 0 0
          -25349.612086604895 -1180.1775869972987 0 2518.8714783884257 0 0
          <InformationKey name="L2_NORM_RANGE" location="vtkDataArray" length="2">
            <Value index="0">
              25501.771813
            </Value>
            <Value index="1">
              84113.680568
            </Value>
          </InformationKey>
        </DataArray>
        <DataArray type="Float64" Name="Gauss Strain" NumberOfComponents="6" format="ascii" RangeMin="0" RangeMax="0">
          0 0 0 0 0 0
          0 0 0 0 0 0
          0 0 0 0 0 0
          0 0 0 0 0 0
          0 0 0 0 0 0
          0 0 0 0 0 0
          0 0 0 0 0 0
          0 0 0 0 0 0
          0 0 0 0 0 0
          0 0 0 0 0 0
          0 0 0 0 0 0
          <InformationKey name="L2_NORM_RANGE" location="vtkDataArray" length="2">
            <Value index="0">
              0
            </Value>
            <Value index="1">
              0
            </Value>
          </InformationKey>
        </DataArray>
      </CellData>
      <Points>
        <DataArray type="Float32" Name="Points" NumberOfComponents="3" format="ascii" RangeMin="0" RangeMax="0.6020797527609908">
          0 0.05000000074505806 0 0 0 0
          0.10000000149011612 0.05000000074505806 0 0.10000000149011612 0 0
          0.20000000298023224 0.05000000074505806 0 0.20000000298023224 0 0
          0.30000001192092896 0.05000000074505806 0 0.30000001192092896 0 0
          0.4000000059604645 0.05000000074505806 0 0.4000000059604645 0 0
          0.5 0.05000000074505806 0 0.5 0 0
          0.6000000238418579 0.05000000074505806 0
          <InformationKey name="L2_NORM_RANGE" location="vtkDataArray" length="2">
            <Value index="0">
              0
            </Value>
            <Value index="1">
              0.60207975276
            </Value>
          </InformationKey>
        </DataArray>
      </Points>
      <Cells>
        <DataArray type="Int64" Name="connectivity" format="ascii" RangeMin="0" RangeMax="12">
          3 2 1 2 0 1
          5 4 3 4 2 3
          7 6 5 6 4 5
          9 8 7 8 6 7
          11 10 9 10 8 9
          12 10 11
        </DataArray>
        <DataArray type="Int64" Name="offsets" format="ascii" RangeMin="3" RangeMax="33">
          3 6 9 12 15 18
          21 24 27 30 33
        </DataArray>
        <DataArray type="UInt8" Name="types" format="ascii" RangeMin="5" RangeMax="5">
          5 5 5 5 5 5
          5 5 5 5 5
        </DataArray>
      </Cells>
    </Piece>
  </UnstructuredGrid>
</VTKFile>
