<?xml version="1.0"?>
<VTKFile type="UnstructuredGrid" version="0.1" byte_order="LittleEndian" header_type="UInt32" compressor="vtkZLibDataCompressor">
  <UnstructuredGrid>
    <Piece NumberOfPoints="13" NumberOfCells="11">
      <PointData>
        <DataArray type="Float64" Name="Disp" NumberOfComponents="3" format="ascii" RangeMin="0.019985663158188057" RangeMax="0.10019159200483073">
          0.0017107290640197303 0.030567644779493565 0 -0.005161177523562527 0.04249839564106138 0
          0.0013255342683247899 0.04292490310045029 0 -0.006345076587666414 0.05604257769404102 0
          0.0006573842769647218 0.05653964412430484 0 -0.007520170693432877 0.07038783111038206 0
          -0.00024080147562465437 0.07092444764619657 0 -0.008633825171790049 0.0850614836364544 0
          -0.0013164170820455234 0.08560239531488191 0 -0.009654755009821036 0.09963416258135055 0
          -0.002400647138212691 0.100162827445017 0 -0.004029811692593626 0.030234337464691487 0
          0.0018027146197085876 0.01990419432864451 0
          <InformationKey name="L2_NORM_RANGE" location="vtkDataArray" length="2">
            <Value index="0">
              0.019985663158
            </Value>
            <Value index="1">
              0.100191592
            </Value>
          </InformationKey>
        </DataArray>
        <DataArray type="Float64" Name="Nodal Stress" NumberOfComponents="6" format="ascii" RangeMin="1777.1295713832137" RangeMax="29536.46322994273">
          23545.925836771723 567.2522505529537 0 2291.3723286465756 0 0
          -17434.750674098188 -1099.1963157880261 0 2533.6497829475593 0 0
          17297.470374432673 382.95200392465114 0 2593.674406996013 0 0
          -11601.907696260872 -758.6700639160529 0 2542.6184098720582 0 0
          11164.906841261136 174.97765088493972 0 2447.1874789247568 0 0
          -6534.670531019845 -529.7511321430964 0 2228.033630065707 0 0
          6214.167944079856 118.41485025376082 0 2065.0623187329247 0 0
          -2939.3327730318424 -311.68574415819535 0 1294.6263567991377 0 0
          2726.537523383009 26.008999769811147 0 957.6090333521954 0 0
          -1647.639591708597 -111.33285104085378 0 656.5655226998501 0 0
          2551.336611117173 731.6820806373679 0 1163.2394888554556 0 0
          -23379.713188515485 -1480.3781356066327 0 2377.220112514057 0 0
          29480.1490019475 767.9481387975264 0 1653.3997135750733 0 0
          <InformationKey name="L2_NORM_RANGE" location="vtkDataArray" length="2">
            <Value index="0">
              1777.1295714
            </Value>
            <Value index="1">
              29536.46323
            </Value>
          </InformationKey>
        </DataArray>
        <DataArray type="Float64" Name="Nodal Strain" NumberOfComponents="6" format="ascii" RangeMin="0" RangeMax="0">
          0 0 0 0 0 0
          0 0 0 0 0 0
          0 0 0 0 0 0
          0 0 0 0 0 0
          0 0 0 0 0 0
          0 0 0 0 0 0
          0 0 0 0 0 0
          0 0 0 0 0 0
          0 0 0 0 0 0
          0 0 0 0 0 0
          0 0 0 0 0 0
          0 0 0 0 0 0
          0 0 0 0 0 0
          <InformationKey name="L2_NORM_RANGE" location="vtkDataArray" length="2">
            <Value index="0">
              0
            </Value>
            <Value index="1">
              0
            </Value>
          </InformationKey>
        </DataArray>
        <DataArray type="Float64" Name="Sld_traction" NumberOfComponents="3" format="ascii" RangeMin="145.1219078443499" RangeMax="11792.748036920251">
          5589.099924961208 -2163.512088275551 0 9679.767644744657 -2989.1942996638268 0
          3754.1437169811816 -1330.2686401998528 0 7700.905468165795 -2143.472708789 0
          1902.9389696546507 -662.4121062077975 0 5207.237042231131 -1482.216496011692 0
          302.4009911925268 -280.93667918576494 0 2665.8818481680155 -822.8804436165768 0
          -37.204398552998484 -223.23317232816754 0 283.5677095740121 -142.77815271364062 0
          -45.66362835776672 -137.75050338052398 0 11125.999899703254 -3909.0961223906497 0
          7188.554301938249 -3075.2703004781465 0
          <InformationKey name="L2_NORM_RANGE" location="vtkDataArray" length="2">
            <Value index="0">
              145.12190784
            </Value>
            <Value index="1">
              11792.748037
            </Value>
          </InformationKey>
        </DataArray>
        <DataArray type="Float64" Name="Velocity" NumberOfComponents="3" format="ascii" RangeMin="3.7148049137284826" RangeMax="14.297613164236841">
          -0.022381382011063655 -5.34493366338295 0 1.0533469648567784 -6.96469233189352 0
          0.17565089926634503 -7.081612650038593 0 1.3098834272969757 -8.737057752379101 0
          0.4159885878168813 -8.866098928403467 0 1.5774115573751972 -10.528619933144398 0
          0.6802730873851461 -10.663498895949594 0 1.8486581998604708 -12.32161351884556 0
          0.9532229120802032 -12.456884107785228 0 2.11682650202168 -14.111194321241562 0
          1.2231746761535125 -14.245195186650669 0 0.8165356090020977 -5.246666087487398 0
          -0.16144405327324618 -3.711295106121849 0
          <InformationKey name="L2_NORM_RANGE" location="vtkDataArray" length="2">
            <Value index="0">
              3.7148049137
            </Value>
            <Value index="1">
              14.297613164
            </Value>
          </InformationKey>
        </DataArray>
        <DataArray type="Float64" Name="Acceleration" NumberOfComponents="3" format="ascii" RangeMin="135.484118249544" RangeMax="1598.3107803247924">
          -118.03986934696036 341.0877122348902 0 -18.945545135637076 134.15294487028586 0
          -155.1264260248364 130.83078933316574 0 28.983184220855037 -196.7518334614433 0
          -165.04869779813248 -210.6100721082912 0 84.29025275252388 -625.7861400887195 0
          -146.31047775831257 -647.000023668108 0 136.23579200314452 -1103.8220946725778 0
          -102.66477856114216 -1126.7035277459072 0 175.7400528453163 -1575.9374066313321 0
          -56.77082802363293 -1597.3022330128879 0 -50.88946991701232 334.1076258529065 0
          -64.94639387684879 409.0261700268238 0
          <InformationKey name="L2_NORM_RANGE" location="vtkDataArray" length="2">
            <Value index="0">
              135.48411825
            </Value>
            <Value index="1">
              1598.3107803
            </Value>
          </InformationKey>
        </DataArray>
        <DataArray type="Float64" Name="Sigma" NumberOfComponents="6" format="ascii" RangeMin="2665.6534669744183" RangeMax="58053.05921897906">
          32581.31920844971 -32581.319208449117 0 2227.4216915233337 0 0
          -26341.821272844787 26341.82127284574 0 2550.1616860043455 0 0
          23637.367202237394 -23637.367202237434 0 2699.6032762449377 0 0
          -17680.271587364092 17680.271587361553 0 2582.434089040136 0 0
          14943.939460548001 -14943.939460544241 0 2434.9073337797704 0 0
          -9918.13983073409 9918.139830729333 0 2197.41389348644 0 0
          7763.717125745557 -7763.717125740432 0 2496.6860606835767 0 0
          -4292.80056881616 4292.800568814067 0 1106.1397730308026 0 0
          3454.8217369760355 -3454.821736979927 0 756.8543257456253 0 0
          -2529.3308526780074 2529.3308526790775 0 195.6691373457803 0 0
          1356.9090883302586 -1356.9090883299125 0 1850.2172461652083 0 0
          -34976.41210032439 34976.41210032414 0 2666.8710475696585 0 0
          41043.58372143665 -41043.583721436305 0 1003.0729211572249 0 0
          <InformationKey name="L2_NORM_RANGE" location="vtkDataArray" length="2">
            <Value index="0">
              2665.653467
            </Value>
            <Value index="1">
              58053.059219
            </Value>
          </InformationKey>
        </DataArray>
        <DataArray type="Float64" Name="Press" format="ascii" RangeMin="-38610.68951850398" RangeMax="44191.36873293015">
          35009.75085590766 -29014.948908742215 25310.958908680852 -19424.23163809163 15888.2068198096 -11131.43631196711
          8432.47858928088 -4855.584382676915 3469.9767458403767 -3047.4189255970923 3071.7397816334305 -38610.68951850398
          44191.36873293015
        </DataArray>
        <DataArray type="Float64" Name="Dev strain" NumberOfComponents="6" format="ascii" RangeMin="0" RangeMax="0">
          0 0 0 0 0 0
          0 0 0 0 0 0
          0 0 0 0 0 0
          0 0 0 0 0 0
          0 0 0 0 0 0
          0 0 0 0 0 0
          0 0 0 0 0 0
          0 0 0 0 0 0
          0 0 0 0 0 0
          0 0 0 0 0 0
          0 0 0 0 0 0
          0 0 0 0 0 0
          0 0 0 0 0 0
          <InformationKey name="L2_NORM_RANGE" location="vtkDataArray" length="2">
            <Value index="0">
              0
            </Value>
            <Value index="1">
              0
            </Value>
          </InformationKey>
        </DataArray>
        <DataArray type="Float64" Name="J2 Stresses" format="ascii" RangeMin="2697028.238494576" RangeMax="1684827303.519855">
          1062782713.2108419 695517379.1267143 560547092.7156872 314259244.85896826 224803520.0314911 99576654.65676865
          61833663.929957986 18734023.02298952 12079000.351895522 6407086.165138972 2697028.238494576 1225127453.707801
          1684827303.519855
        </DataArray>
      </PointData>
      <CellData>
        <DataArray type="UInt8" Name="vtkGhostType" format="ascii" RangeMin="0" RangeMax="1">
          1 1 0 0 0 0
          0 0 0 0 0
        </DataArray>
        <DataArray type="Float64" Name="Gauss Stress" NumberOfComponents="6" format="ascii" RangeMin="2178.028828867164" RangeMax="26493.933551172493">
          26412.973633298596 647.3130802575101 0 1965.7885534167385 0 0
          -20450.93391201934 -1292.9911355392621 0 2481.484808365779 0 0
          20394.208664562877 476.2985726684939 0 2492.3955512575394 0 0
          14225.323055273378 291.29967165956447 0 2572.314899688282 0 0
          -14504.315765374833 -914.4986600610465 0 2610.7330170964733 0 0
          8659.588617560947 133.2441138560096 0 2376.335762649929 0 0
          -9107.311029266444 -670.9963909008331 0 2404.918438768782 0 0
          4657.536415449925 40.37755284601636 0 1453.226719820001 0 0
          -4667.255126389282 -369.10627718672606 0 1933.413242400273 0 0
          1925.5658581683344 403.9658764153179 0 934.2469030855382 0 0
          -2600.1120823172555 -355.2389593068047 0 686.2210787074026 0 0
          <InformationKey name="L2_NORM_RANGE" location="vtkDataArray" length="2">
            <Value index="0">
              2178.0288289
            </Value>
            <Value index="1">
              26493.933551
            </Value>
          </InformationKey>
        </DataArray>
        <DataArray type="Float64" Name="Gauss Strain" NumberOfComponents="6" format="ascii" RangeMin="0" RangeMax="0">
          0 0 0 0 0 0
          0 0 0 0 0 0
          0 0 0 0 0 0
          0 0 0 0 0 0
          0 0 0 0 0 0
          0 0 0 0 0 0
          0 0 0 0 0 0
          0 0 0 0 0 0
          0 0 0 0 0 0
          0 0 0 0 0 0
          0 0 0 0 0 0
          <InformationKey name="L2_NORM_RANGE" location="vtkDataArray" length="2">
            <Value index="0">
              0
            </Value>
            <Value index="1">
              0
            </Value>
          </InformationKey>
        </DataArray>
      </CellData>
      <Points>
        <DataArray type="Float32" Name="Points" NumberOfComponents="3" format="ascii" RangeMin="0.4000000059604645" RangeMax="1.0012492197622458">
          0.5 0 0 0.6000000238418579 0.05000000074505806 0
          0.6000000238418579 0 0 0.699999988079071 0.05000000074505806 0
          0.699999988079071 0 0 0.800000011920929 0.05000000074505806 0
          0.800000011920929 0 0 0.8999999761581421 0.05000000074505806 0
          0.8999999761581421 0 0 1 0.05000000074505806 0
          1 0 0 0.5 0.05000000074505806 0
          0.4000000059604645 0 0
          <InformationKey name="L2_NORM_RANGE" location="vtkDataArray" length="2">
            <Value index="0">
              0.40000000596
            </Value>
            <Value index="1">
              1.0012492198
            </Value>
          </InformationKey>
        </DataArray>
      </Points>
      <Cells>
        <DataArray type="Int64" Name="connectivity" format="ascii" RangeMin="0" RangeMax="12">
          0 11 12 1 11 0
          2 1 0 4 3 2
          3 1 2 6 5 4
          5 3 4 8 7 6
          7 5 6 10 9 8
          9 7 8
        </DataArray>
        <DataArray type="Int64" Name="offsets" format="ascii" RangeMin="3" RangeMax="33">
          3 6 9 12 15 18
          21 24 27 30 33
        </DataArray>
        <DataArray type="UInt8" Name="types" format="ascii" RangeMin="5" RangeMax="5">
          5 5 5 5 5 5
          5 5 5 5 5
        </DataArray>
      </Cells>
    </Piece>
  </UnstructuredGrid>
</VTKFile>
