<?xml version="1.0"?>
<VTKFile type="UnstructuredGrid" version="0.1" byte_order="LittleEndian" header_type="UInt32" compressor="vtkZLibDataCompressor">
  <UnstructuredGrid>
    <Piece NumberOfPoints="13" NumberOfCells="11">
      <PointData>
        <DataArray type="Float64" Name="Disp" NumberOfComponents="3" format="ascii" RangeMin="0" RangeMax="0.08427974867453283">
          0 0 0 0 0 0
          -0.001122466747519409 0.002105214144775234 0 0.0013624840568114687 0.002149760504815358 0
          -0.002862729919161619 0.009940107338323092 0 0.0022920075918702316 0.010192792676346778 0
          -0.004735386152854487 0.022374890736492944 0 0.002626568578424445 0.022912879365401616 0
          -0.0072005143078763085 0.039098562951836745 0 0.0022030192642518453 0.03998645297030946 0
          -0.01021720119702849 0.05958177380625585 0 0.0009017218418940618 0.06083383587465304 0
          -0.013746052153319092 0.08315120015273773 0
          <InformationKey name="L2_NORM_RANGE" location="vtkDataArray" length="2">
            <Value index="0">
              0
            </Value>
            <Value index="1">
              0.084279748675
            </Value>
          </InformationKey>
        </DataArray>
        <DataArray type="Float64" Name="Nodal Stress" NumberOfComponents="6" format="ascii" RangeMin="28478.756378202783" RangeMax="123074.32364248316">
          -118884.2710610381 -15032.861059591743 0 28068.350908154847 0 0
          58091.75579801783 -9389.01264586366 0 602.9859007268293 0 0
          -82315.66933617572 -7856.684834243819 0 3374.5159625489387 0 0
          80040.6691765463 2823.4716724181826 0 -2605.9133969466398 0 0
          -69977.87588605989 -4358.36611159958 0 4733.586650937995 0 0
          69215.11166947588 1267.4258208032445 0 2959.9486825004265 0 0
          -60714.81796062704 -4410.848416517397 0 1645.4158957313246 0 0
          58112.056669725636 1681.276618122923 0 5062.666899092317 0 0
          -49442.01544185319 -3024.5701181892114 0 1262.8102178487118 0 0
          46451.73797302187 1615.142327450251 0 6659.966459190674 0 0
          -38770.762079619664 -2122.401079593525 0 1257.977830748285 0 0
          34902.32614916783 1670.7306230044878 0 7071.44353152581 0 0
          -28398.081901542086 -1170.6800444769133 0 1793.8833283681176 0 0
          <InformationKey name="L2_NORM_RANGE" location="vtkDataArray" length="2">
            <Value index="0">
              28478.756378
            </Value>
            <Value index="1">
              123074.32364
            </Value>
          </InformationKey>
        </DataArray>
        <DataArray type="Float64" Name="Nodal Strain" NumberOfComponents="6" format="ascii" RangeMin="0" RangeMax="0">
          0 0 0 0 0 0
          0 0 0 0 0 0
          0 0 0 0 0 0
          0 0 0 0 0 0
          0 0 0 0 0 0
          0 0 0 0 0 0
          0 0 0 0 0 0
          0 0 0 0 0 0
          0 0 0 0 0 0
          0 0 0 0 0 0
          0 0 0 0 0 0
          0 0 0 0 0 0
          0 0 0 0 0 0
          <InformationKey name="L2_NORM_RANGE" location="vtkDataArray" length="2">
            <Value index="0">
              0
            </Value>
            <Value index="1">
              0
            </Value>
          </InformationKey>
        </DataArray>
        <DataArray type="Float64" Name="Sld_traction" NumberOfComponents="3" format="ascii" RangeMin="10700.318302924772" RangeMax="60942.80273346568">
          56192.7462924751 -23588.142553402493 0 -16036.386576422181 -1902.9437853812667 0
          25332.972975712575 -13090.015788069855 0 18477.679951748207 -8897.20528911716 0
          29423.006126761567 -12330.792988000028 0 18672.9960836025 -7472.576188773094 0
          26985.668957060516 -9840.625250319861 0 16206.483090520722 -5428.220646827002 0
          24771.333683706147 -7005.094097105542 0 13713.514264714262 -3484.6888551803204 0
          21869.96018774508 -4763.813333477422 0 10505.289481609972 -2033.643206533968 0
          18107.975850216728 -3045.0893042922203 0
          <InformationKey name="L2_NORM_RANGE" location="vtkDataArray" length="2">
            <Value index="0">
              10700.318303
            </Value>
            <Value index="1">
              60942.802733
            </Value>
          </InformationKey>
        </DataArray>
        <DataArray type="Float64" Name="Velocity" NumberOfComponents="3" format="ascii" RangeMin="0" RangeMax="1.104672177801725">
          0 0 0 0 0 0
          -0.00574093583870261 0.004815394920885785 0 0.002794389903245653 0.0038511403574232883 0
          -0.022761883352497847 0.041116332960325686 0 0.01310004127172859 0.04369632311954774 0
          -0.05945241651506539 0.14862243735936254 0 0.018734671280429716 0.15896224704132145 0
          -0.12050984985982982 0.3461968519993448 0 0.007306713067507298 0.3696233808506655 0
          -0.2140031121337005 0.6462350920918176 0 -0.03324857239077411 0.6870502889590568 0
          -0.34278550700437016 1.0501422363646569 0
          <InformationKey name="L2_NORM_RANGE" location="vtkDataArray" length="2">
            <Value index="0">
              0
            </Value>
            <Value index="1">
              1.1046721778
            </Value>
          </InformationKey>
        </DataArray>
        <DataArray type="Float64" Name="Acceleration" NumberOfComponents="3" format="ascii" RangeMin="0" RangeMax="377.5519955948076">
          0 0 0 0 0 0
          -21.69997607583855 54.73521090622444 0 37.17292802363272 59.21328761584937 0
          -50.472671788528714 217.611920387797 0 27.795056121364723 226.54481083015526 0
          -44.25649464775597 345.2781745495704 0 -4.230315142378004 353.1310769750962 0
          -16.915451957003825 377.17287397519976 0 -39.40807411334845 374.57264945546194 0
          51.193408146973525 263.3908720552063 0 -53.41966556384796 241.11084998086153 0
          166.49459192406357 -20.109549686443643 0
          <InformationKey name="L2_NORM_RANGE" location="vtkDataArray" length="2">
            <Value index="0">
              0
            </Value>
            <Value index="1">
              377.55199559
            </Value>
          </InformationKey>
        </DataArray>
        <DataArray type="Float64" Name="Sigma" NumberOfComponents="6" format="ascii" RangeMin="58068.40509396784" RangeMax="177206.89505195178">
          -106442.44958348785 106442.44958348743 0 61790.533797253316 0 0
          124973.01094066493 -124973.01094066555 0 -12875.43113073047 0 0
          -119790.93177658285 119790.9317765824 0 1567.7671688432279 0 0
          113310.32281727319 -113310.3228172732 0 -7732.022176173862 0 0
          -102121.08478645289 102121.08478645224 0 11273.670089160114 0 0
          98219.03251530313 -98219.03251530373 0 2541.8131632206637 0 0
          -87811.510793778 87811.51079377784 0 -1998.1676686524409 0 0
          82007.7657662339 -82007.76576623447 0 9508.529404201241 0 0
          -71893.01119436232 71893.01119436312 0 -3671.672559682767 0 0
          65436.02144829723 -65436.021448299914 0 12357.878181975775 0 0
          -56172.93603186187 56172.93603186296 0 -4741.182222192955 0 0
          48941.20594624082 -48941.20594623889 0 12904.12853929723 0 0
          -40986.34405829589 40986.34405829223 0 -3489.824010954874 0 0
          <InformationKey name="L2_NORM_RANGE" location="vtkDataArray" length="2">
            <Value index="0">
              58068.405094
            </Value>
            <Value index="1">
              177206.89505
            </Value>
          </InformationKey>
        </DataArray>
        <DataArray type="Float64" Name="Press" format="ascii" RangeMin="-131240.24696198606" RangeMax="127774.44342322717">
          -124677.08836132052 112760.15944336836 -131240.24696198606 127774.44342322717 -114211.18013694533 104458.68691095532
          -97872.35334055797 89282.21729809597 -79642.29699654353 71136.15603017274 -62054.83157662973 53952.329180993176
          -44964.16502533179
        </DataArray>
        <DataArray type="Float64" Name="Dev strain" NumberOfComponents="6" format="ascii" RangeMin="0" RangeMax="0">
          0 0 0 0 0 0
          0 0 0 0 0 0
          0 0 0 0 0 0
          0 0 0 0 0 0
          0 0 0 0 0 0
          0 0 0 0 0 0
          0 0 0 0 0 0
          0 0 0 0 0 0
          0 0 0 0 0 0
          0 0 0 0 0 0
          0 0 0 0 0 0
          0 0 0 0 0 0
          0 0 0 0 0 0
          <InformationKey name="L2_NORM_RANGE" location="vtkDataArray" length="2">
            <Value index="0">
              0
            </Value>
            <Value index="1">
              0
            </Value>
          </InformationKey>
        </DataArray>
        <DataArray type="Float64" Name="J2 Stresses" format="ascii" RangeMin="1682925117.1717153" RangeMax="15659697645.276176">
          12284512590.070683 15659697645.276176 14350481809.375797 12854175298.687874 10460489867.281637 9648593551.781414
          7711859596.393785 6747876678.827173 5171975353.439144 4320052191.272329 3161018444.6557164 2436870772.81194
          1682925117.1717153
        </DataArray>
      </PointData>
      <CellData>
        <DataArray type="UInt8" Name="vtkGhostType" format="ascii" RangeMin="0" RangeMax="0">
          0 0 0 0 0 0
          0 0 0 0 0
        </DataArray>
        <DataArray type="Float64" Name="Gauss Stress" NumberOfComponents="6" format="ascii" RangeMin="33836.11778808115" RangeMax="84356.25472008863">
          75928.91929532161 -3066.015358915622 0 -6346.562046020368 0 0
          -81472.51543311465 -13965.601820177966 0 16827.623278455358 0 0
          75810.07358112023 2871.2265503708354 0 2027.8203587356393 0 0
          -75426.22580715561 -3025.096643314254 0 1703.1383606098289 0 0
          62761.279452084134 1151.0877935776516 0 3350.724966256488 0 0
          -66446.13654382525 -5303.761167207218 0 3939.105194576111 0 0
          52108.950783964676 1741.7667705179751 0 6064.911675498083 0 0
          -55309.72975363732 -3511.8922723663513 0 1279.5630586220104 0 0
          40412.648332404126 1609.7874239534492 0 6840.274833026683 0 0
          -44396.966106975844 -2643.6822550247844 0 1315.0078000333497 0 0
          -33761.58052162844 -1616.1977590173542 0 1557.7074353831313 0 0
          <InformationKey name="L2_NORM_RANGE" location="vtkDataArray" length="2">
            <Value index="0">
              33836.117788
            </Value>
            <Value index="1">
              84356.25472
            </Value>
          </InformationKey>
        </DataArray>
        <DataArray type="Float64" Name="Gauss Strain" NumberOfComponents="6" format="ascii" RangeMin="0" RangeMax="0">
          0 0 0 0 0 0
          0 0 0 0 0 0
          0 0 0 0 0 0
          0 0 0 0 0 0
          0 0 0 0 0 0
          0 0 0 0 0 0
          0 0 0 0 0 0
          0 0 0 0 0 0
          0 0 0 0 0 0
          0 0 0 0 0 0
          0 0 0 0 0 0
          <InformationKey name="L2_NORM_RANGE" location="vtkDataArray" length="2">
            <Value index="0">
              0
            </Value>
            <Value index="1">
              0
            </Value>
          </InformationKey>
        </DataArray>
      </CellData>
      <Points>
        <DataArray type="Float32" Name="Points" NumberOfComponents="3" format="ascii" RangeMin="0" RangeMax="0.6020797527609908">
          0 0.05000000074505806 0 0 0 0
          0.10000000149011612 0.05000000074505806 0 0.10000000149011612 0 0
          0.20000000298023224 0.05000000074505806 0 0.20000000298023224 0 0
          0.30000001192092896 0.05000000074505806 0 0.30000001192092896 0 0
          0.4000000059604645 0.05000000074505806 0 0.4000000059604645 0 0
          0.5 0.05000000074505806 0 0.5 0 0
          0.6000000238418579 0.05000000074505806 0
          <InformationKey name="L2_NORM_RANGE" location="vtkDataArray" length="2">
            <Value index="0">
              0
            </Value>
            <Value index="1">
              0.60207975276
            </Value>
          </InformationKey>
        </DataArray>
      </Points>
      <Cells>
        <DataArray type="Int64" Name="connectivity" format="ascii" RangeMin="0" RangeMax="12">
          3 2 1 2 0 1
          5 4 3 4 2 3
          7 6 5 6 4 5
          9 8 7 8 6 7
          11 10 9 10 8 9
          12 10 11
        </DataArray>
        <DataArray type="Int64" Name="offsets" format="ascii" RangeMin="3" RangeMax="33">
          3 6 9 12 15 18
          21 24 27 30 33
        </DataArray>
        <DataArray type="UInt8" Name="types" format="ascii" RangeMin="5" RangeMax="5">
          5 5 5 5 5 5
          5 5 5 5 5
        </DataArray>
      </Cells>
    </Piece>
  </UnstructuredGrid>
</VTKFile>
