<?xml version="1.0"?>
<VTKFile type="UnstructuredGrid" version="0.1" byte_order="LittleEndian" header_type="UInt32" compressor="vtkZLibDataCompressor">
  <UnstructuredGrid>
    <Piece NumberOfPoints="13" NumberOfCells="11">
      <PointData>
        <DataArray type="Float64" Name="Disp" NumberOfComponents="3" format="ascii" RangeMin="0" RangeMax="0.08706303813740578">
          0 0 0 0 0 0
          -0.00125880945568921 0.0024214489529637766 0 0.0015760701032240356 0.002489574503520113 0
          -0.0032115445891846383 0.011260134438986656 0 0.0024769636316632135 0.011572687588978609 0
          -0.005156366009769182 0.02470170363599461 0 0.002644666827364415 0.02531411189254898 0
          -0.007641397144619564 0.042152868341218216 0 0.001992770258788597 0.04309095167251943 0
          -0.01053706580855213 0.06284136921523333 0 0.0005050631316740852 0.06408050640479493 0
          -0.013778931333904466 0.08596577028684683 0
          <InformationKey name="L2_NORM_RANGE" location="vtkDataArray" length="2">
            <Value index="0">
              0
            </Value>
            <Value index="1">
              0.087063038137
            </Value>
          </InformationKey>
        </DataArray>
        <DataArray type="Float64" Name="Nodal Stress" NumberOfComponents="6" format="ascii" RangeMin="22415.388161073904" RangeMax="134367.2614048439">
          -128967.14804948265 -18873.20537633267 0 32647.171090972763 0 0
          62667.75758115176 -12960.047677909974 0 3297.7319729560522 0 0
          -85048.41628771336 -8958.052349776248 0 4959.151086742104 0 0
          85339.03050956661 2723.8018402054436 0 -1201.0900994300287 0 0
          -69528.48773092426 -4609.742230715239 0 6728.866201991203 0 0
          69391.44452546953 919.9609710541328 0 5070.339220022435 0 0
          -57010.22233931324 -4319.159503203956 0 3192.063087154547 0 0
          54976.26599522782 1672.8278944668766 0 6516.144662382645 0 0
          -43628.07621075726 -2575.144848333055 0 2669.418554527823 0 0
          41323.113869504705 1551.3923319207322 0 7233.8569902433255 0 0
          -32261.516808655073 -1654.6617952856298 0 2258.9067073922947 0 0
          29406.881397302608 1544.9269385490968 0 6753.720085117229 0 0
          -22285.76697850379 -840.925240630197 0 2255.451469465322 0 0
          <InformationKey name="L2_NORM_RANGE" location="vtkDataArray" length="2">
            <Value index="0">
              22415.388161
            </Value>
            <Value index="1">
              134367.2614
            </Value>
          </InformationKey>
        </DataArray>
        <DataArray type="Float64" Name="Nodal Strain" NumberOfComponents="6" format="ascii" RangeMin="0" RangeMax="0">
          0 0 0 0 0 0
          0 0 0 0 0 0
          0 0 0 0 0 0
          0 0 0 0 0 0
          0 0 0 0 0 0
          0 0 0 0 0 0
          0 0 0 0 0 0
          0 0 0 0 0 0
          0 0 0 0 0 0
          0 0 0 0 0 0
          0 0 0 0 0 0
          0 0 0 0 0 0
          0 0 0 0 0 0
          <InformationKey name="L2_NORM_RANGE" location="vtkDataArray" length="2">
            <Value index="0">
              0
            </Value>
            <Value index="1">
              0
            </Value>
          </InformationKey>
        </DataArray>
        <DataArray type="Float64" Name="Sld_traction" NumberOfComponents="3" format="ascii" RangeMin="8071.1617450163785" RangeMax="69379.61957523365">
          63586.76756971512 -27753.461089369892 0 -18119.56247517777 -749.3781814796765 0
          29273.189033900224 -13787.397052124432 0 18955.365058855125 -8371.486513982427 0
          33674.112544985204 -12976.780971714084 0 18365.1801705842 -6853.989015197518 0
          28517.24014874933 -9694.636748179086 0 14503.955934747344 -4729.864415966898 0
          24099.27705521988 -6444.294230265817 0 11279.411927226787 -2880.8156984047673 0
          19495.06552463901 -4194.834912244547 0 7890.224727895219 -1699.413327453522 0
          14797.596019203298 -2640.1580034032404 0
          <InformationKey name="L2_NORM_RANGE" location="vtkDataArray" length="2">
            <Value index="0">
              8071.161745
            </Value>
            <Value index="1">
              69379.619575
            </Value>
          </InformationKey>
        </DataArray>
        <DataArray type="Float64" Name="Velocity" NumberOfComponents="3" format="ascii" RangeMin="0" RangeMax="0.8064726139599216">
          0 0 0 0 0 0
          -0.04590981501958136 0.11370366092024198 0 0.07667528188600992 0.12339819118923079 0
          -0.11156490151273912 0.45455706348776825 0 0.05377538566689055 0.47483222585880114 0
          -0.10388959169668066 0.7272430892808295 0 -0.016185974108940737 0.7446534213639779 0
          -0.05100234251481517 0.8048582720736306 0 -0.0913858084801975 0.7996173240958129 0
          0.08698318314642961 0.5827846004041568 0 -0.12179151326160736 0.5373013825683479 0
          0.3183440136731628 0.01240886911880068 0
          <InformationKey name="L2_NORM_RANGE" location="vtkDataArray" length="2">
            <Value index="0">
              0
            </Value>
            <Value index="1">
              0.80647261396
            </Value>
          </InformationKey>
        </DataArray>
        <DataArray type="Float64" Name="Acceleration" NumberOfComponents="3" format="ascii" RangeMin="0" RangeMax="629.9066945810229">
          0 0 0 0 0 0
          6.859396536049417 -13.169018233933002 0 -9.369767674086233 -13.721320172870492 0
          19.349200530345115 -64.39487175124304 0 -15.363066823260397 -67.45401082429453 0
          38.093871393673 -148.8497573438617 0 -14.207995697780461 -156.90161583878216 0
          68.54222588423181 -269.07762838289636 0 -1.7481632223798442 -283.22911754710367 0
          109.73972067829709 -424.2911536971733 0 23.31113810764066 -443.77640727360995 0
          157.5813938296178 -609.8774862189166 0
          <InformationKey name="L2_NORM_RANGE" location="vtkDataArray" length="2">
            <Value index="0">
              0
            </Value>
            <Value index="1">
              629.90669458
            </Value>
          </InformationKey>
        </DataArray>
        <DataArray type="Float64" Name="Sigma" NumberOfComponents="6" format="ascii" RangeMin="46031.171833716086" RangeMax="193740.28292389988">
          -115637.96700466947 115637.96700467002 0 69245.29242517102 0 0
          136827.4453677486 -136827.44536774958 0 -9581.107227458682 0 0
          -125739.39670470975 125739.39670470927 0 1679.2067410077013 0 0
          118994.51270982713 -118994.51270982763 0 -6819.919174118126 0 0
          -102884.92665812143 102884.92665812196 0 13905.171230309461 0 0
          97473.03957907988 -97473.03957907834 0 5156.716438814909 0 0
          -83175.07448274066 83175.07448274 0 -1043.2112062631616 0 0
          76278.57694238868 -76278.57694238915 0 11066.513041274788 0 0
          -64087.04949557874 64087.04949557696 0 -1812.7618954606273 0 0
          57222.12784527229 -57222.12784526568 0 12224.048433212089 0 0
          -47186.95979164123 47186.959791642854 0 -2786.576489661182 0 0
          40381.856623374515 -40381.856623379455 0 11454.839295206455 0 0
          -32522.93830272021 32522.93830272144 0 -1840.0404071449727 0 0
          <InformationKey name="L2_NORM_RANGE" location="vtkDataArray" length="2">
            <Value index="0">
              46031.171834
            </Value>
            <Value index="1">
              193740.28292
            </Value>
          </InformationKey>
        </DataArray>
        <DataArray type="Float64" Name="Press" format="ascii" RangeMin="-138536.12445450315" RangeMax="134580.83820799613">
          -138536.12445450315 118067.10119399201 -136675.55913661612 134580.83820799613 -115773.28905594666 102974.55047258559
          -92740.42678683827 83292.13753672724 -70893.07522473467 62283.163406549174 -51994.53294173683 44727.80118160846
          -35630.690648575764
        </DataArray>
        <DataArray type="Float64" Name="Dev strain" NumberOfComponents="6" format="ascii" RangeMin="0" RangeMax="0">
          0 0 0 0 0 0
          0 0 0 0 0 0
          0 0 0 0 0 0
          0 0 0 0 0 0
          0 0 0 0 0 0
          0 0 0 0 0 0
          0 0 0 0 0 0
          0 0 0 0 0 0
          0 0 0 0 0 0
          0 0 0 0 0 0
          0 0 0 0 0 0
          0 0 0 0 0 0
          0 0 0 0 0 0
          <InformationKey name="L2_NORM_RANGE" location="vtkDataArray" length="2">
            <Value index="0">
              0
            </Value>
            <Value index="1">
              0
            </Value>
          </InformationKey>
        </DataArray>
        <DataArray type="Float64" Name="J2 Stresses" format="ascii" RangeMin="1058587953.0175669" RangeMax="18744699209.79037">
          14570867043.734947 18744699209.79037 15811100817.484074 14171321879.434647 10633646580.183138 9507641375.892307
          6918365087.614622 5849038228.079123 4107971439.471055 3311728755.1646876 2228550426.511226 1663497680.1707273
          1058587953.0175669
        </DataArray>
      </PointData>
      <CellData>
        <DataArray type="UInt8" Name="vtkGhostType" format="ascii" RangeMin="0" RangeMax="0">
          0 0 0 0 0 0
          0 0 0 0 0
        </DataArray>
        <DataArray type="Float64" Name="Gauss Stress" NumberOfComponents="6" format="ascii" RangeMin="27528.554895338424" RangeMax="91295.13930018758">
          82018.31387941267 -4703.393702498635 0 -4907.2732201897015 0 0
          -87231.50024625268 -17531.55468516585 0 20447.797312906678 0 0
          78454.90841847357 2733.157997950349 0 4080.6561650020813 0 0
          -75832.60687919024 -2746.0664438543545 0 2921.486265733013 0 0
          61367.60108706747 983.2397279156883 0 5060.0060912755125 0 0
          -64708.70897732722 -5650.734602805249 0 6006.2254876204015 0 0
          48031.960336874676 1756.1901421546308 0 7159.266526342084 0 0
          -50441.63717025882 -3119.2724796392945 0 2736.846646516999 0 0
          35144.48544114214 1533.135656472846 0 6964.103746252455 0 0
          -38218.775400623344 -2184.1877726560574 0 2541.570016030092 0 0
          -27408.487959897022 -1189.7936459064344 0 2276.0741328000995 0 0
          <InformationKey name="L2_NORM_RANGE" location="vtkDataArray" length="2">
            <Value index="0">
              27528.554895
            </Value>
            <Value index="1">
              91295.1393
            </Value>
          </InformationKey>
        </DataArray>
        <DataArray type="Float64" Name="Gauss Strain" NumberOfComponents="6" format="ascii" RangeMin="0" RangeMax="0">
          0 0 0 0 0 0
          0 0 0 0 0 0
          0 0 0 0 0 0
          0 0 0 0 0 0
          0 0 0 0 0 0
          0 0 0 0 0 0
          0 0 0 0 0 0
          0 0 0 0 0 0
          0 0 0 0 0 0
          0 0 0 0 0 0
          0 0 0 0 0 0
          <InformationKey name="L2_NORM_RANGE" location="vtkDataArray" length="2">
            <Value index="0">
              0
            </Value>
            <Value index="1">
              0
            </Value>
          </InformationKey>
        </DataArray>
      </CellData>
      <Points>
        <DataArray type="Float32" Name="Points" NumberOfComponents="3" format="ascii" RangeMin="0" RangeMax="0.6020797527609908">
          0 0.05000000074505806 0 0 0 0
          0.10000000149011612 0.05000000074505806 0 0.10000000149011612 0 0
          0.20000000298023224 0.05000000074505806 0 0.20000000298023224 0 0
          0.30000001192092896 0.05000000074505806 0 0.30000001192092896 0 0
          0.4000000059604645 0.05000000074505806 0 0.4000000059604645 0 0
          0.5 0.05000000074505806 0 0.5 0 0
          0.6000000238418579 0.05000000074505806 0
          <InformationKey name="L2_NORM_RANGE" location="vtkDataArray" length="2">
            <Value index="0">
              0
            </Value>
            <Value index="1">
              0.60207975276
            </Value>
          </InformationKey>
        </DataArray>
      </Points>
      <Cells>
        <DataArray type="Int64" Name="connectivity" format="ascii" RangeMin="0" RangeMax="12">
          3 2 1 2 0 1
          5 4 3 4 2 3
          7 6 5 6 4 5
          9 8 7 8 6 7
          11 10 9 10 8 9
          12 10 11
        </DataArray>
        <DataArray type="Int64" Name="offsets" format="ascii" RangeMin="3" RangeMax="33">
          3 6 9 12 15 18
          21 24 27 30 33
        </DataArray>
        <DataArray type="UInt8" Name="types" format="ascii" RangeMin="5" RangeMax="5">
          5 5 5 5 5 5
          5 5 5 5 5
        </DataArray>
      </Cells>
    </Piece>
  </UnstructuredGrid>
</VTKFile>
