<?xml version="1.0"?>
<VTKFile type="UnstructuredGrid" version="0.1" byte_order="LittleEndian" header_type="UInt32" compressor="vtkZLibDataCompressor">
  <UnstructuredGrid>
    <Piece NumberOfPoints="13" NumberOfCells="11">
      <PointData>
        <DataArray type="Float64" Name="Disp" NumberOfComponents="3" format="ascii" RangeMin="0.00007280490196237441" RangeMax="0.0027228451068771866">
          0.00001019967282329374 0.00013112267710661813 0 0.000010468429989801127 0.00014788738551251506 0
          -0.000005598588574883318 0.00014850583603221972 0 0.00005522340786131173 0.00004921429552987869 0
          -0.00005311067722640166 0.00004979768784094226 0 0.00014980808677349345 -0.0003364505715119651 0
          -0.0001774648737605149 -0.0003324650074107797 0 0.0002993149368114919 -0.0012954889396835374 0
          -0.0003186032971789917 -0.0012984532036576023 0 0.0003355212461594893 -0.0027020938121058305 0
          -0.0003570286833568856 -0.0026872675544701878 0 -0.000006707572307311261 0.00013088630872970853 0
          0.000011586669088906278 0.00008488629575945551 0
          <InformationKey name="L2_NORM_RANGE" location="vtkDataArray" length="2">
            <Value index="0">
              7.2804901962e-05
            </Value>
            <Value index="1">
              0.0027228451069
            </Value>
          </InformationKey>
        </DataArray>
        <DataArray type="Float64" Name="Nodal Stress" NumberOfComponents="6" format="ascii" RangeMin="806.3880520603315" RangeMax="6227.8425100555705">
          -1715.3989566786818 -240.40502771773706 0 479.0980912778948 0 0
          3116.145152971268 -64.09935760038444 0 538.0679830785808 0 0
          -3267.75365286697 -433.23290319623237 0 780.0503681102216 0 0
          4943.448010934713 -94.11710345795993 0 531.8571299964999 0 0
          -4915.635593221908 -631.1062648338816 0 1061.7436116916965 0 0
          6169.881460170546 -55.227447173288176 0 -23.901302981731998 0 0
          -5716.6921241578775 -287.07940775854865 0 796.3385533220754 0 0
          5168.295335686665 829.2718842381644 0 -1086.2189731305966 0 0
          -6140.38849510261 -104.24083480190954 0 -1034.7875664244198 0 0
          3319.852670760508 -971.99388158235 0 -3769.5157525520676 0 0
          -5344.137870564112 -1534.9331615738154 0 -2219.1389201071042 0 0
          1579.108622705268 -35.62692192340733 0 375.8188854873611 0 0
          -763.4215776346596 -113.05231305519585 0 233.81265966652305 0 0
          <InformationKey name="L2_NORM_RANGE" location="vtkDataArray" length="2">
            <Value index="0">
              806.38805206
            </Value>
            <Value index="1">
              6227.8425101
            </Value>
          </InformationKey>
        </DataArray>
        <DataArray type="Float64" Name="Nodal Strain" NumberOfComponents="6" format="ascii" RangeMin="0" RangeMax="0">
          0 0 0 0 0 0
          0 0 0 0 0 0
          0 0 0 0 0 0
          0 0 0 0 0 0
          0 0 0 0 0 0
          0 0 0 0 0 0
          0 0 0 0 0 0
          0 0 0 0 0 0
          0 0 0 0 0 0
          0 0 0 0 0 0
          0 0 0 0 0 0
          0 0 0 0 0 0
          0 0 0 0 0 0
          <InformationKey name="L2_NORM_RANGE" location="vtkDataArray" length="2">
            <Value index="0">
              0
            </Value>
            <Value index="1">
              0
            </Value>
          </InformationKey>
        </DataArray>
        <DataArray type="Float64" Name="Sld_traction" NumberOfComponents="3" format="ascii" RangeMin="216.37566361453176" RangeMax="2633.0527244415894">
          -495.8332316315523 440.10196397063834 0 448.3118954013556 210.9335663554803 0
          -1006.075021517277 790.8529745887826 0 78.60428842168268 326.7916293315881 0
          -1748.788163578285 1092.201281630246 0 -893.4801906556891 602.5877194736827 0
          -1732.8234750899535 981.7606824856463 0 -2351.057531875336 1185.5357993335886 0
          -460.78078679123524 360.2607305657201 0 -1332.7855264368552 -2208.877874371303 0
          139.32847117445903 -165.54759111753015 0 402.5864168133662 98.4043777206898 0
          -190.08000973818335 203.42875252976037 0
          <InformationKey name="L2_NORM_RANGE" location="vtkDataArray" length="2">
            <Value index="0">
              216.37566361
            </Value>
            <Value index="1">
              2633.0527244
            </Value>
          </InformationKey>
        </DataArray>
        <DataArray type="Float64" Name="Velocity" NumberOfComponents="3" format="ascii" RangeMin="0.10920735294356161" RangeMax="4.0842676603157795">
          0.01529950923494061 0.19668401565992719 0 0.01570264498470169 0.2218310782687726 0
          -0.008397882862324976 0.22275875404832957 0 0.08283511179196759 0.07382144329481805 0
          -0.07966601583960249 0.07469653176141339 0 0.22471213016024016 -0.5046758572679476 0
          -0.26619731064077234 -0.49869751111616956 0 0.44897240521723786 -1.943233409525306 0
          -0.4779049457684875 -1.9476798054864033 0 0.5032818692392339 -4.053140718158746 0
          -0.5355430250353284 -4.030901331705282 0 -0.010061358460966893 0.19632946309456278 0
          0.01738000363335942 0.12732944363918328 0
          <InformationKey name="L2_NORM_RANGE" location="vtkDataArray" length="2">
            <Value index="0">
              0.10920735294
            </Value>
            <Value index="1">
              4.0842676603
            </Value>
          </InformationKey>
        </DataArray>
        <DataArray type="Float64" Name="Acceleration" NumberOfComponents="3" format="ascii" RangeMin="145.6098039247488" RangeMax="5445.690213754373">
          20.399345646587477 262.2453542132362 0 20.936859979602254 295.77477102503013 0
          -11.197177149766635 297.01167206443944 0 110.44681572262346 98.42859105975738 0
          -106.22135445280331 99.59537568188452 0 299.6161735469869 -672.9011430239302 0
          -354.9297475210298 -664.9300148215594 0 598.6298736229838 -2590.977879367075 0
          -637.2065943579834 -2596.9064073152044 0 671.0424923189786 -5404.187624211661 0
          -714.0573667137711 -5374.535108940376 0 -13.415144614622523 261.77261745941706 0
          23.173338177812557 169.77259151891104 0
          <InformationKey name="L2_NORM_RANGE" location="vtkDataArray" length="2">
            <Value index="0">
              145.60980392
            </Value>
            <Value index="1">
              5445.6902138
            </Value>
          </InformationKey>
        </DataArray>
        <DataArray type="Float64" Name="Sigma" NumberOfComponents="6" format="ascii" RangeMin="1550.3878686523026" RangeMax="13229.058689325759">
          -2536.182929239292 2536.1829292392904 0 472.19208459949124 0 0
          4156.917660669913 -4156.91766066995 0 507.1516559744297 0 0
          -4871.658917429449 4871.6589174293895 0 917.7970115600583 0 0
          6945.565242438309 -6945.565242438065 0 221.30149509035223 0 0
          -7451.652545422347 7451.652545422258 0 1925.3319196699292 0 0
          9031.14551869139 -9031.145518690513 0 -1137.4130332032173 0 0
          -8097.1866003341265 8097.186600334555 0 2105.69736255408 0 0
          7291.078348505006 -7291.07834850504 0 -1740.581619282798 0 0
          -9217.418229313573 9217.418229313662 0 757.681003393249 0 0
          7858.855605441111 -7858.855605441041 0 -7175.288910648834 0 0
          -3129.9233970534947 3129.923397054554 0 -1229.4738865864163 0 0
          2007.158247616159 -2007.1582476160213 0 412.7109118787296 0 0
          -1090.539918200095 1090.5399181999712 0 158.5809474330395 0 0
          <InformationKey name="L2_NORM_RANGE" location="vtkDataArray" length="2">
            <Value index="0">
              1550.3878687
            </Value>
            <Value index="1">
              13229.058689
            </Value>
          </InformationKey>
        </DataArray>
        <DataArray type="Float64" Name="Press" format="ascii" RangeMin="-9384.951905629794" RangeMax="9590.142930240983">
          -2948.2011515752383 4355.451249873228 -5675.1888686569655 7325.125900167535 -8574.0584622635 9276.856357082932
          -9384.951905629794 9590.142930240983 -8906.108159508503 5723.27595851061 -5287.6549316395485 2098.0488550309065
          -1278.7596146408139
        </DataArray>
        <DataArray type="Float64" Name="Dev strain" NumberOfComponents="6" format="ascii" RangeMin="0" RangeMax="0">
          0 0 0 0 0 0
          0 0 0 0 0 0
          0 0 0 0 0 0
          0 0 0 0 0 0
          0 0 0 0 0 0
          0 0 0 0 0 0
          0 0 0 0 0 0
          0 0 0 0 0 0
          0 0 0 0 0 0
          0 0 0 0 0 0
          0 0 0 0 0 0
          0 0 0 0 0 0
          0 0 0 0 0 0
          <InformationKey name="L2_NORM_RANGE" location="vtkDataArray" length="2">
            <Value index="0">
              0
            </Value>
            <Value index="1">
              0
            </Value>
          </InformationKey>
        </DataArray>
        <DataArray type="Float64" Name="J2 Stresses" format="ascii" RangeMin="1195564.292409925" RangeMax="85104318.93980874">
          6487965.191754394 17344265.13812898 23943648.44637671 48253120.12489773 56453851.40792365 81885016.4817968
          66672921.18630079 53917229.57738502 85104318.93980874 74632804.16499268 10174321.98087568 4071266.805169237
          1195564.292409925
        </DataArray>
      </PointData>
      <CellData>
        <DataArray type="UInt8" Name="vtkGhostType" format="ascii" RangeMin="0" RangeMax="1">
          1 1 0 0 0 0
          0 0 0 0 0
        </DataArray>
        <DataArray type="Float64" Name="Gauss Stress" NumberOfComponents="6" format="ascii" RangeMin="1308.06768336495" RangeMax="6268.215737152346">
          -1249.4921703361251 -169.78243712063517 0 347.82798130375346 0 0
          2377.7306441252254 -40.86467523926184 0 464.01821748421685 0 0
          -2506.2876521192693 -339.00486145341563 0 632.3802507113264 0 0
          -4100.622550388807 -515.4584034464492 0 1021.4768087734467 0 0
          4078.7374223541915 -75.14523476494276 0 548.75005420828 0 0
          -5066.615879291817 -721.4867945813546 0 964.5387496735973 0 0
          5517.66067023144 -165.71147357311744 0 336.4067938523544 0 0
          -6241.48120534667 440.86978208195535 0 374.26558222151033 0 0
          5902.361549518799 419.00337161104164 0 -257.4324299773119 0 0
          -4319.657717854467 -1327.3337039034222 0 -2549.027264614 0 0
          4113.275484625212 158.2650015368902 0 -2719.3965088461277 0 0
          <InformationKey name="L2_NORM_RANGE" location="vtkDataArray" length="2">
            <Value index="0">
              1308.0676834
            </Value>
            <Value index="1">
              6268.2157372
            </Value>
          </InformationKey>
        </DataArray>
        <DataArray type="Float64" Name="Gauss Strain" NumberOfComponents="6" format="ascii" RangeMin="0" RangeMax="0">
          0 0 0 0 0 0
          0 0 0 0 0 0
          0 0 0 0 0 0
          0 0 0 0 0 0
          0 0 0 0 0 0
          0 0 0 0 0 0
          0 0 0 0 0 0
          0 0 0 0 0 0
          0 0 0 0 0 0
          0 0 0 0 0 0
          0 0 0 0 0 0
          <InformationKey name="L2_NORM_RANGE" location="vtkDataArray" length="2">
            <Value index="0">
              0
            </Value>
            <Value index="1">
              0
            </Value>
          </InformationKey>
        </DataArray>
      </CellData>
      <Points>
        <DataArray type="Float32" Name="Points" NumberOfComponents="3" format="ascii" RangeMin="0.4000000059604645" RangeMax="1.0012492197622458">
          0.5 0 0 0.6000000238418579 0.05000000074505806 0
          0.6000000238418579 0 0 0.699999988079071 0.05000000074505806 0
          0.699999988079071 0 0 0.800000011920929 0.05000000074505806 0
          0.800000011920929 0 0 0.8999999761581421 0.05000000074505806 0
          0.8999999761581421 0 0 1 0.05000000074505806 0
          1 0 0 0.5 0.05000000074505806 0
          0.4000000059604645 0 0
          <InformationKey name="L2_NORM_RANGE" location="vtkDataArray" length="2">
            <Value index="0">
              0.40000000596
            </Value>
            <Value index="1">
              1.0012492198
            </Value>
          </InformationKey>
        </DataArray>
      </Points>
      <Cells>
        <DataArray type="Int64" Name="connectivity" format="ascii" RangeMin="0" RangeMax="12">
          0 11 12 1 11 0
          2 1 0 4 3 2
          3 1 2 6 5 4
          5 3 4 8 7 6
          7 5 6 10 9 8
          9 7 8
        </DataArray>
        <DataArray type="Int64" Name="offsets" format="ascii" RangeMin="3" RangeMax="33">
          3 6 9 12 15 18
          21 24 27 30 33
        </DataArray>
        <DataArray type="UInt8" Name="types" format="ascii" RangeMin="5" RangeMax="5">
          5 5 5 5 5 5
          5 5 5 5 5
        </DataArray>
      </Cells>
    </Piece>
  </UnstructuredGrid>
</VTKFile>
