<?xml version="1.0"?>
<VTKFile type="UnstructuredGrid" version="0.1" byte_order="LittleEndian" header_type="UInt32" compressor="vtkZLibDataCompressor">
  <UnstructuredGrid>
    <Piece NumberOfPoints="13" NumberOfCells="11">
      <PointData>
        <DataArray type="Float64" Name="Disp" NumberOfComponents="3" format="ascii" RangeMin="0" RangeMax="0.08202038104361759">
          0 0 0 0 0 0
          0.0013872592843629603 -0.002725793008468749 0 -0.0015897271383431605 -0.0026547100194955313 0
          0.0023610317346605884 -0.01192110407223206 0 -0.003386852813409229 -0.011616180149127962 0
          0.0024014080433214726 -0.025644692875235357 0 -0.00523867887124845 -0.02506151429178742 0
          0.001650087395700732 -0.04257526343134764 0 -0.007323438647598975 -0.04177016126667222 0
          0.00027397234233567905 -0.061631413556798666 0 -0.009563249797176864 -0.06065557548068345 0
          -0.0015497013581947505 -0.08200573962986148 0
          <InformationKey name="L2_NORM_RANGE" location="vtkDataArray" length="2">
            <Value index="0">
              0
            </Value>
            <Value index="1">
              0.082020381044
            </Value>
          </InformationKey>
        </DataArray>
        <DataArray type="Float64" Name="Nodal Stress" NumberOfComponents="6" format="ascii" RangeMin="21646.48077701081" RangeMax="160884.98850800464">
          154447.84254693319 -4478.419637082572 0 -44830.65042326193 0 0
          -81361.13223954312 -14607.591989909568 0 -1704.3686124965104 0 0
          109314.19310133417 7521.103508576083 0 -19381.24335900935 0 0
          -99111.54978731669 -2223.6649182011392 0 7352.981453210854 0 0
          80733.42453597496 9452.735471629496 0 -24391.765813888946 0 0
          -84223.70669111706 -4026.819956387192 0 7993.363541806269 0 0
          64149.56474552914 9976.502264776458 0 -21762.119712861808 0 0
          -64765.846718020315 -2483.0307608276785 0 8615.165521636032 0 0
          45121.446151960554 9373.075765971227 0 -18538.691766455435 0 0
          -47501.589762046664 -1823.313272908868 0 6844.462292823827 0 0
          30293.343714186954 7889.170732417962 0 -14144.225271486617 0 0
          -32052.915603111334 -825.2666313372274 0 4757.1192435182475 0 0
          18279.18430578773 5957.582019038011 0 -9947.2995144902 0 0
          <InformationKey name="L2_NORM_RANGE" location="vtkDataArray" length="2">
            <Value index="0">
              21646.480777
            </Value>
            <Value index="1">
              160884.98851
            </Value>
          </InformationKey>
        </DataArray>
        <DataArray type="Float64" Name="Nodal Strain" NumberOfComponents="6" format="ascii" RangeMin="0" RangeMax="0">
          0 0 0 0 0 0
          0 0 0 0 0 0
          0 0 0 0 0 0
          0 0 0 0 0 0
          0 0 0 0 0 0
          0 0 0 0 0 0
          0 0 0 0 0 0
          0 0 0 0 0 0
          0 0 0 0 0 0
          0 0 0 0 0 0
          0 0 0 0 0 0
          0 0 0 0 0 0
          0 0 0 0 0 0
          <InformationKey name="L2_NORM_RANGE" location="vtkDataArray" length="2">
            <Value index="0">
              0
            </Value>
            <Value index="1">
              0
            </Value>
          </InformationKey>
        </DataArray>
        <DataArray type="Float64" Name="Sld_traction" NumberOfComponents="3" format="ascii" RangeMin="5745.514132336316" RangeMax="74165.26076460065">
          -71518.66564527422 19635.843974748976 0 26517.33910217783 23255.86308506443 0
          -29130.957850076033 19581.05592700677 0 -17780.36326343264 15096.239764522166 0
          -25258.37382204684 15744.756362893551 0 -12586.470834352282 12023.64930408423 0
          -21422.502466643757 14738.547165298254 0 -9053.731112719875 9295.124407082856 0
          -17835.406120167896 12574.011170950678 0 -6063.2076063649865 6681.060819686357 0
          -13900.966057563097 10014.743639922941 0 -3831.839307822888 4281.114360058576 0
          -10208.571652123346 7254.513659920795 0
          <InformationKey name="L2_NORM_RANGE" location="vtkDataArray" length="2">
            <Value index="0">
              5745.5141323
            </Value>
            <Value index="1">
              74165.260765
            </Value>
          </InformationKey>
        </DataArray>
        <DataArray type="Float64" Name="Velocity" NumberOfComponents="3" format="ascii" RangeMin="0" RangeMax="1.1557630822545053">
          0 0 0 0 0 0
          0.07726644483388834 -0.21171984135875466 0 -0.13269834653554224 -0.20196665041427675 0
          0.06625461364163354 -0.7757369341066269 0 -0.18678582322960735 -0.7458858371966093 0
          -0.06270491352767515 -1.1540608286056333 0 -0.14754520385928505 -1.1385277685172497 0
          -0.17466468364889132 -1.0856522418898926 0 -0.01096664502682998 -1.1139692068856029 0
          -0.19474765947644657 -0.45918620981183267 0 0.24772444930917104 -0.5470128204241718 0
          -0.08191936820663259 0.7268952075218635 0
          <InformationKey name="L2_NORM_RANGE" location="vtkDataArray" length="2">
            <Value index="0">
              0
            </Value>
            <Value index="1">
              1.1557630823
            </Value>
          </InformationKey>
        </DataArray>
        <DataArray type="Float64" Name="Acceleration" NumberOfComponents="3" format="ascii" RangeMin="0" RangeMax="1219.9104681065066">
          0 0 0 0 0 0
          -40.91694020378554 87.44035988507994 0 48.093304465412984 82.86138729350523 0
          -58.35164867386766 350.7130064164503 0 87.96107810271133 335.42862954340853 0
          -25.612862258327368 661.7224981228246 0 121.8521354980594 637.01172586342 0
          30.898857649720412 942.2659311045427 0 149.9890387306923 917.9303804343654 0
          85.75390784904118 1135.699561770598 0 155.4278094843594 1123.2027515332156 0
          111.27592021377268 1214.824769164843 0
          <InformationKey name="L2_NORM_RANGE" location="vtkDataArray" length="2">
            <Value index="0">
              0
            </Value>
            <Value index="1">
              1219.9104681
            </Value>
          </InformationKey>
        </DataArray>
        <DataArray type="Float64" Name="Sigma" NumberOfComponents="6" format="ascii" RangeMin="41474.42712381392" RangeMax="236968.34770419716">
          156196.59699279498 -156196.59699279378 0 -85786.03609794805 0 0
          -147286.3257631326 147286.32576313353 0 27210.431629148905 0 0
          152745.65614557613 -152745.65614557537 0 -34960.961126300506 0 0
          -144002.05011911233 144002.05011911225 0 35020.157434859044 0 0
          115144.77726434107 -115144.77726434097 0 -59447.89282878098 0 0
          -110825.17085829347 110825.1708582935 0 41286.607522950544 0 0
          89444.15556036086 -89444.15556036119 0 -52296.52056541205 0 0
          -84613.16778862521 84613.16778862583 0 37985.01286565337 0 0
          61850.14153990243 -61850.141539902084 0 -45351.315535391484 0 0
          -59406.35467150435 59406.35467150354 0 30324.48754727301 0 0
          40835.73888396935 -40835.738883968705 0 -34034.26640669519 0 0
          -39177.34956055422 39177.34956055294 0 21444.03360528874 0 0
          24223.0626894947 -24223.06268949464 0 -23379.78984358444 0 0
          <InformationKey name="L2_NORM_RANGE" location="vtkDataArray" length="2">
            <Value index="0">
              41474.427124
            </Value>
            <Value index="1">
              236968.3477
            </Value>
          </InformationKey>
        </DataArray>
        <DataArray type="Float64" Name="Press" format="ascii" RangeMin="-187539.02561646802" RangeMax="182131.2669237714">
          152673.30225619784 -187539.02561646802 182131.2669237714 -155213.76202347796 134875.2483419226 -129259.10088990089
          113669.33969440848 -99540.00104389647 82776.50977599999 -71891.18491845198 58065.69507394894 -47743.6334729443
          36541.20093940739
        </DataArray>
        <DataArray type="Float64" Name="Dev strain" NumberOfComponents="6" format="ascii" RangeMin="0" RangeMax="0">
          0 0 0 0 0 0
          0 0 0 0 0 0
          0 0 0 0 0 0
          0 0 0 0 0 0
          0 0 0 0 0 0
          0 0 0 0 0 0
          0 0 0 0 0 0
          0 0 0 0 0 0
          0 0 0 0 0 0
          0 0 0 0 0 0
          0 0 0 0 0 0
          0 0 0 0 0 0
          0 0 0 0 0 0
          <InformationKey name="L2_NORM_RANGE" location="vtkDataArray" length="2">
            <Value index="0">
              0
            </Value>
            <Value index="1">
              0
            </Value>
          </InformationKey>
        </DataArray>
        <DataArray type="Float64" Name="J2 Stresses" format="ascii" RangeMin="723410409.3417321" RangeMax="26237187909.47903">
          26237187909.47903 21878363654.164898 23636802672.061134 21043193295.197914 14141832721.70026 12708364485.958485
          8683988479.7182 7520103463.827057 4339625463.703604 3759008611.6076975 1957140392.6601748 1649826362.905996
          723410409.3417321
        </DataArray>
      </PointData>
      <CellData>
        <DataArray type="UInt8" Name="vtkGhostType" format="ascii" RangeMin="0" RangeMax="0">
          0 0 0 0 0 0
          0 0 0 0 0
        </DataArray>
        <DataArray type="Float64" Name="Gauss Stress" NumberOfComponents="6" format="ascii" RangeMin="27940.15906567585" RangeMax="107697.44011015829">
          -99721.41348428116 -7359.60032650139 0 9089.875979235818 0 0
          102973.82364624666 -4796.794603911454 0 -31178.855198366546 0 0
          -96426.68609484035 -3305.056952797167 0 5619.624043009546 0 0
          95227.04551100699 12634.789983803985 0 -19796.232173407487 0 0
          -73707.9817753156 -3045.193050943589 0 8991.69994106396 0 0
          71016.4163709462 8507.241726673845 0 -23485.935290414167 0 0
          -56941.35236885854 -2161.7650887070577 0 7652.728292511634 0 0
          54528.992579383375 10074.906371624857 0 -19887.607745050056 0 0
          -39772.3628885122 -1273.7193231198544 0 5911.418248622189 0 0
          37410.18189462146 8557.16472637657 0 -16353.698131604555 0 0
          24248.238184440623 6993.9368425005405 0 -11990.007548330299 0 0
          <InformationKey name="L2_NORM_RANGE" location="vtkDataArray" length="2">
            <Value index="0">
              27940.159066
            </Value>
            <Value index="1">
              107697.44011
            </Value>
          </InformationKey>
        </DataArray>
        <DataArray type="Float64" Name="Gauss Strain" NumberOfComponents="6" format="ascii" RangeMin="0" RangeMax="0">
          0 0 0 0 0 0
          0 0 0 0 0 0
          0 0 0 0 0 0
          0 0 0 0 0 0
          0 0 0 0 0 0
          0 0 0 0 0 0
          0 0 0 0 0 0
          0 0 0 0 0 0
          0 0 0 0 0 0
          0 0 0 0 0 0
          0 0 0 0 0 0
          <InformationKey name="L2_NORM_RANGE" location="vtkDataArray" length="2">
            <Value index="0">
              0
            </Value>
            <Value index="1">
              0
            </Value>
          </InformationKey>
        </DataArray>
      </CellData>
      <Points>
        <DataArray type="Float32" Name="Points" NumberOfComponents="3" format="ascii" RangeMin="0" RangeMax="0.6020797527609908">
          0 0.05000000074505806 0 0 0 0
          0.10000000149011612 0.05000000074505806 0 0.10000000149011612 0 0
          0.20000000298023224 0.05000000074505806 0 0.20000000298023224 0 0
          0.30000001192092896 0.05000000074505806 0 0.30000001192092896 0 0
          0.4000000059604645 0.05000000074505806 0 0.4000000059604645 0 0
          0.5 0.05000000074505806 0 0.5 0 0
          0.6000000238418579 0.05000000074505806 0
          <InformationKey name="L2_NORM_RANGE" location="vtkDataArray" length="2">
            <Value index="0">
              0
            </Value>
            <Value index="1">
              0.60207975276
            </Value>
          </InformationKey>
        </DataArray>
      </Points>
      <Cells>
        <DataArray type="Int64" Name="connectivity" format="ascii" RangeMin="0" RangeMax="12">
          3 2 1 2 0 1
          5 4 3 4 2 3
          7 6 5 6 4 5
          9 8 7 8 6 7
          11 10 9 10 8 9
          12 10 11
        </DataArray>
        <DataArray type="Int64" Name="offsets" format="ascii" RangeMin="3" RangeMax="33">
          3 6 9 12 15 18
          21 24 27 30 33
        </DataArray>
        <DataArray type="UInt8" Name="types" format="ascii" RangeMin="5" RangeMax="5">
          5 5 5 5 5 5
          5 5 5 5 5
        </DataArray>
      </Cells>
    </Piece>
  </UnstructuredGrid>
</VTKFile>
