<?xml version="1.0"?>
<VTKFile type="UnstructuredGrid" version="0.1" byte_order="LittleEndian" header_type="UInt32" compressor="vtkZLibDataCompressor">
  <UnstructuredGrid>
    <Piece NumberOfPoints="13" NumberOfCells="11">
      <PointData>
        <DataArray type="Float64" Name="Disp" NumberOfComponents="3" format="ascii" RangeMin="0" RangeMax="0.02877436622650931">
          0 0 0 0 0 0
          0.0002980591823253335 -0.0004801713300836973 0 -0.00027653716997026983 -0.0004710567597691662 0
          0.0006722320050790554 -0.002407840643889167 0 -0.000727435684558815 -0.0023906329370257844 0
          0.0010787723558641834 -0.006154991148468295 0 -0.001272303101919565 -0.0060997754803808375 0
          0.0013974788180902773 -0.011850494975894492 0 -0.0019169925880176014 -0.011742464458757056 0
          0.001560779402059933 -0.01944788807772449 0 -0.0026548088503905486 -0.019271827290649437 0
          0.0015118852718668065 -0.02873461944522655 0
          <InformationKey name="L2_NORM_RANGE" location="vtkDataArray" length="2">
            <Value index="0">
              0
            </Value>
            <Value index="1">
              0.028774366227
            </Value>
          </InformationKey>
        </DataArray>
        <DataArray type="Float64" Name="Nodal Stress" NumberOfComponents="6" format="ascii" RangeMin="20887.66802301513" RangeMax="38059.15561480775">
          37490.38963042016 157.73275873991892 0 -6553.253531510654 0 0
          -20508.250610050112 -2338.4493034081843 0 3199.685486177939 0 0
          31538.786950867856 1405.197149665335 0 -825.9302202227101 0 0
          -28019.98232486067 -1993.1267241752607 0 3494.5680860914 0 0
          30891.824205932753 1007.2233994143975 0 -2413.587632831288 0 0
          -30397.13417727222 -2323.701124817211 0 3523.0300940742404 0 0
          32651.459357298318 1550.626841955519 0 -3513.5445393231103 0 0
          -31383.36822515504 -2083.5248368897924 0 3705.5310024957635 0 0
          31476.27508056515 2035.3497233360495 0 -5027.443392397439 0 0
          -30690.55267338931 -1788.8907562946983 0 3411.177459970305 0 0
          27946.49524808652 2562.7154085529332 0 -6089.034011228943 0 0
          -27548.821879307015 -1183.1480414722093 0 2752.022169334513 0 0
          22037.951568652978 2890.01010780079 0 -6452.1371661041885 0 0
          <InformationKey name="L2_NORM_RANGE" location="vtkDataArray" length="2">
            <Value index="0">
              20887.668023
            </Value>
            <Value index="1">
              38059.155615
            </Value>
          </InformationKey>
        </DataArray>
        <DataArray type="Float64" Name="Nodal Strain" NumberOfComponents="6" format="ascii" RangeMin="0" RangeMax="0">
          0 0 0 0 0 0
          0 0 0 0 0 0
          0 0 0 0 0 0
          0 0 0 0 0 0
          0 0 0 0 0 0
          0 0 0 0 0 0
          0 0 0 0 0 0
          0 0 0 0 0 0
          0 0 0 0 0 0
          0 0 0 0 0 0
          0 0 0 0 0 0
          0 0 0 0 0 0
          0 0 0 0 0 0
          <InformationKey name="L2_NORM_RANGE" location="vtkDataArray" length="2">
            <Value index="0">
              0
            </Value>
            <Value index="1">
              0
            </Value>
          </InformationKey>
        </DataArray>
        <DataArray type="Float64" Name="Sld_traction" NumberOfComponents="3" format="ascii" RangeMin="5918.787862555813" RangeMax="14745.300364041348">
          -14170.892701901625 4075.4978661495047 0 4739.635342119885 3545.124339944389 0
          -5367.516383166655 4646.437382671735 0 -7369.450979761905 5419.791548658184 0
          -5317.70808356546 4186.317587589881 0 -7369.200249792976 5480.7936299274315 0
          -6264.363824384647 4723.924888506987 0 -7180.800975020489 5428.439208878055 0
          -7339.139815521904 5125.18619420745 0 -6375.093979784293 5015.5283075006555 0
          -8067.723128227241 5294.401184933371 0 -5078.520589590204 4108.472846512911 0
          -8202.097218988689 5049.643025085374 0
          <InformationKey name="L2_NORM_RANGE" location="vtkDataArray" length="2">
            <Value index="0">
              5918.7878626
            </Value>
            <Value index="1">
              14745.300364
            </Value>
          </InformationKey>
        </DataArray>
        <DataArray type="Float64" Name="Velocity" NumberOfComponents="3" format="ascii" RangeMin="0" RangeMax="7.240835351775178">
          0 0 0 0 0 0
          -0.1049785243887037 0.19572644453438837 0 0.11638100021403569 0.1944549636806865 0
          -0.21037036818562138 0.8937395765269134 0 0.24336930817946656 0.8847776068577624 0
          -0.2670362356818293 2.0097109374593876 0 0.3786222466144824 1.9820607471909417 0
          -0.2658085405934254 3.4866384902912735 0 0.5419839351985343 3.4347372679860406 0
          -0.19390837362791413 5.254107121551018 0 0.7406303408864106 5.174628212132154 0
          -0.050798505067975785 7.240657159636825 0
          <InformationKey name="L2_NORM_RANGE" location="vtkDataArray" length="2">
            <Value index="0">
              0
            </Value>
            <Value index="1">
              7.2408353518
            </Value>
          </InformationKey>
        </DataArray>
        <DataArray type="Float64" Name="Acceleration" NumberOfComponents="3" format="ascii" RangeMin="0" RangeMax="1040.5174879458032">
          0 0 0 0 0 0
          54.19364722713658 -128.01949598138845 0 -77.48911896387358 -125.99550600503017 0
          81.87926841818489 -501.2296841905072 0 -106.83001163278072 -490.955009151593 0
          30.80893697855072 -849.7784261034722 0 -104.79640562702434 -832.6408832199104 0
          -50.13706878643893 -1039.3088650899444 0 -85.906585296098 -1021.2993162102321 0
          -138.50236965715317 -987.5690066394454 0 -46.665740572955656 -976.4581486260504 0
          -205.84147595876482 -669.4038017170242 0
          <InformationKey name="L2_NORM_RANGE" location="vtkDataArray" length="2">
            <Value index="0">
              0
            </Value>
            <Value index="1">
              1040.5174879
            </Value>
          </InformationKey>
        </DataArray>
        <DataArray type="Float64" Name="Sigma" NumberOfComponents="6" format="ascii" RangeMin="47176.6042023765" RangeMax="65784.25033676699">
          34675.88609767793 -34675.88609767821 0 -16586.735241947088 0 0
          -38397.27519288259 38397.2751928829 0 10413.337603887532 0 0
          43710.81674088722 -43710.81674088698 0 -3452.881246035981 0 0
          -41411.067074686056 41411.06707468651 0 7507.387939633082 0 0
          43146.05315260553 -43146.05315260623 0 -8361.185773880723 0 0
          -43430.83826454529 43430.83826454518 0 10181.488389075834 0 0
          45905.43693425179 -45905.43693425289 0 -10627.761388043573 0 0
          -45094.32747408442 45094.327474084814 0 11777.598377163182 0 0
          44515.73476833791 -44515.73476833919 0 -13812.473300212827 0 0
          -43211.29123955084 43211.29123955177 0 12651.03325112397 0 0
          39707.37557460424 -39707.37557460365 0 -15524.814841761352 0 0
          -38008.139469196714 38008.13946919662 0 12088.459147247857 0 0
          31524.019695685576 -31524.019695685805 0 -15430.630204879168 0 0
          <InformationKey name="L2_NORM_RANGE" location="vtkDataArray" length="2">
            <Value index="0">
              47176.604202
            </Value>
            <Value index="1">
              65784.250337
            </Value>
          </InformationKey>
        </DataArray>
        <DataArray type="Float64" Name="Press" format="ascii" RangeMin="-51118.962319390055" RangeMax="51318.49196237314">
          35262.152934871934 -44917.156420245796 49689.095328822084 -46598.917340275206 46932.55020939393 -49286.57074755237
          51318.49196237314 -51118.962319390055 50550.087391846464 -49179.325700440466 46421.76878346552 -43213.33307807804
          38233.659204907555
        </DataArray>
        <DataArray type="Float64" Name="Dev strain" NumberOfComponents="6" format="ascii" RangeMin="0" RangeMax="0">
          0 0 0 0 0 0
          0 0 0 0 0 0
          0 0 0 0 0 0
          0 0 0 0 0 0
          0 0 0 0 0 0
          0 0 0 0 0 0
          0 0 0 0 0 0
          0 0 0 0 0 0
          0 0 0 0 0 0
          0 0 0 0 0 0
          0 0 0 0 0 0
          0 0 0 0 0 0
          0 0 0 0 0 0
          <InformationKey name="L2_NORM_RANGE" location="vtkDataArray" length="2">
            <Value index="0">
              0
            </Value>
            <Value index="1">
              0
            </Value>
          </InformationKey>
        </DataArray>
        <DataArray type="Float64" Name="J2 Stresses" format="ascii" RangeMin="1053289904.9039114" RangeMax="2135546468.1549163">
          1271197023.1557555 1501460142.2511032 1913616097.3802223 1728966694.6832032 1879059259.5338278 1912153388.8153083
          2135546468.1549163 2068176326.223422 2029346746.632339 1907227851.1695838 1636930643.990397 1481151377.0485759
          1053289904.9039114
        </DataArray>
      </PointData>
      <CellData>
        <DataArray type="UInt8" Name="vtkGhostType" format="ascii" RangeMin="0" RangeMax="0">
          0 0 0 0 0 0
          0 0 0 0 0
        </DataArray>
        <DataArray type="Float64" Name="Gauss Stress" NumberOfComponents="6" format="ascii" RangeMin="25816.504346564016" RangeMax="32352.975532297714">
          -25974.83465279346 -1909.8176350054962 0 4822.614765828212 0 0
          26674.506496376936 14.888065921982161 0 -3208.7596280318458 0 0
          -30216.263355019833 -2419.0285639360663 0 3109.230184942732 0 0
          31822.843672249175 1525.6417930447028 0 -1435.5596934278756 0 0
          -30568.923302982417 -2155.770766730728 0 3777.108459398481 0 0
          31528.37441550892 1114.6065339669183 0 -2935.819590949488 0 0
          -31179.361524427142 -1986.1055608955558 0 3538.719442691444 0 0
          32025.48708777829 1807.5909354407625 0 -4220.878770364407 0 0
          -29160.98170973211 -1486.2782869694122 0 3071.5591855368266 0 0
          29601.449859420958 2260.2371238268192 0 -5562.084963616737 0 0
          24888.450237129393 2739.6130364007377 0 -6288.995299797556 0 0
          <InformationKey name="L2_NORM_RANGE" location="vtkDataArray" length="2">
            <Value index="0">
              25816.504347
            </Value>
            <Value index="1">
              32352.975532
            </Value>
          </InformationKey>
        </DataArray>
        <DataArray type="Float64" Name="Gauss Strain" NumberOfComponents="6" format="ascii" RangeMin="0" RangeMax="0">
          0 0 0 0 0 0
          0 0 0 0 0 0
          0 0 0 0 0 0
          0 0 0 0 0 0
          0 0 0 0 0 0
          0 0 0 0 0 0
          0 0 0 0 0 0
          0 0 0 0 0 0
          0 0 0 0 0 0
          0 0 0 0 0 0
          0 0 0 0 0 0
          <InformationKey name="L2_NORM_RANGE" location="vtkDataArray" length="2">
            <Value index="0">
              0
            </Value>
            <Value index="1">
              0
            </Value>
          </InformationKey>
        </DataArray>
      </CellData>
      <Points>
        <DataArray type="Float32" Name="Points" NumberOfComponents="3" format="ascii" RangeMin="0" RangeMax="0.6020797527609908">
          0 0.05000000074505806 0 0 0 0
          0.10000000149011612 0.05000000074505806 0 0.10000000149011612 0 0
          0.20000000298023224 0.05000000074505806 0 0.20000000298023224 0 0
          0.30000001192092896 0.05000000074505806 0 0.30000001192092896 0 0
          0.4000000059604645 0.05000000074505806 0 0.4000000059604645 0 0
          0.5 0.05000000074505806 0 0.5 0 0
          0.6000000238418579 0.05000000074505806 0
          <InformationKey name="L2_NORM_RANGE" location="vtkDataArray" length="2">
            <Value index="0">
              0
            </Value>
            <Value index="1">
              0.60207975276
            </Value>
          </InformationKey>
        </DataArray>
      </Points>
      <Cells>
        <DataArray type="Int64" Name="connectivity" format="ascii" RangeMin="0" RangeMax="12">
          3 2 1 2 0 1
          5 4 3 4 2 3
          7 6 5 6 4 5
          9 8 7 8 6 7
          11 10 9 10 8 9
          12 10 11
        </DataArray>
        <DataArray type="Int64" Name="offsets" format="ascii" RangeMin="3" RangeMax="33">
          3 6 9 12 15 18
          21 24 27 30 33
        </DataArray>
        <DataArray type="UInt8" Name="types" format="ascii" RangeMin="5" RangeMax="5">
          5 5 5 5 5 5
          5 5 5 5 5
        </DataArray>
      </Cells>
    </Piece>
  </UnstructuredGrid>
</VTKFile>
