<?xml version="1.0"?>
<VTKFile type="UnstructuredGrid" version="0.1" byte_order="LittleEndian" header_type="UInt32" compressor="vtkZLibDataCompressor">
  <UnstructuredGrid>
    <Piece NumberOfPoints="13" NumberOfCells="11">
      <PointData>
        <DataArray type="Float64" Name="Disp" NumberOfComponents="3" format="ascii" RangeMin="0" RangeMax="0.0005332040127358923">
          0 0 0 0 0 0
          -0.000013004931881288025 0.000028299055824332547 0 0.000018867869984350196 0.00002867628449110544 0
          -0.000027553544200056253 0.00012855245937617386 0 0.00003409065894514514 0.00012897870972274541 0
          -0.00003300807750986484 0.0002749371504937265 0 0.00004469135950999246 0.00027566570771796396 0
          -0.000025542010389329 0.00043807322932504396 0 0.000042055118511923565 0.00043925002974870304 0
          0.000013117492575052976 0.0005314561789525089 0 0.000006226481571207973 0.0005331676566755536 0
          0.00010624378336467859 0.0003771397204636151 0
          <InformationKey name="L2_NORM_RANGE" location="vtkDataArray" length="2">
            <Value index="0">
              0
            </Value>
            <Value index="1">
              0.00053320401274
            </Value>
          </InformationKey>
        </DataArray>
        <DataArray type="Float64" Name="Nodal Stress" NumberOfComponents="6" format="ascii" RangeMin="237.21552691656325" RangeMax="9564.254484179051">
          -1123.3766371754402 -56.5847884189067 0 423.12530202261144 0 0
          634.4311395166344 -10.412725911223857 0 112.31641369038641 0 0
          -552.5955119470656 -68.01713112001686 0 189.34173576458258 0 0
          670.675833719677 -20.384027780456396 0 52.98384529097667 0 0
          87.49904538077593 -60.05276327157748 0 323.46322591152347 0 0
          50.15773882855724 -84.83166628290316 0 215.77533649973793 0 0
          1245.6321550574535 -72.99353772567758 0 502.9023458341449 0 0
          -1108.501924462951 -236.35258840590058 0 499.205768489314 0 0
          3249.529654407028 -99.31975313914486 0 778.7128748839419 0 0
          -3067.9444453039164 -483.50018126600327 0 942.4548726371544 0 0
          6156.328224614265 -125.1144222169471 0 998.4840955842767 0 0
          -5870.769934997307 -787.4906932636022 0 1472.1242984250257 0 0
          9523.097781559445 -104.95462350880771 0 880.089204570074 0 0
          <InformationKey name="L2_NORM_RANGE" location="vtkDataArray" length="2">
            <Value index="0">
              237.21552692
            </Value>
            <Value index="1">
              9564.2544842
            </Value>
          </InformationKey>
        </DataArray>
        <DataArray type="Float64" Name="Nodal Strain" NumberOfComponents="6" format="ascii" RangeMin="0" RangeMax="0">
          0 0 0 0 0 0
          0 0 0 0 0 0
          0 0 0 0 0 0
          0 0 0 0 0 0
          0 0 0 0 0 0
          0 0 0 0 0 0
          0 0 0 0 0 0
          0 0 0 0 0 0
          0 0 0 0 0 0
          0 0 0 0 0 0
          0 0 0 0 0 0
          0 0 0 0 0 0
          0 0 0 0 0 0
          <InformationKey name="L2_NORM_RANGE" location="vtkDataArray" length="2">
            <Value index="0">
              0
            </Value>
            <Value index="1">
              0
            </Value>
          </InformationKey>
        </DataArray>
        <DataArray type="Float64" Name="Sld_traction" NumberOfComponents="3" format="ascii" RangeMin="105.95810822688962" RangeMax="2417.131368365429">
          657.6546095757943 -226.8747293604822 0 -222.46521170092203 -109.8582363773046 0
          366.7555416378824 -120.82509990339307 0 103.90979555731968 -20.733429196765332 0
          512.6493095225983 -78.116722355258 0 -30.86713141033013 112.44293444357604 0
          672.3929499505546 5.355814111235222 0 -381.3504314170494 396.92846752269685 0
          832.9140342942619 152.73534530324469 0 -1006.8424649578586 858.7301481443766 0
          769.1604608239038 387.75111213582295 0 -1929.033001585584 1456.4874632930564 0
          156.48603035353162 738.9785505884635 0
          <InformationKey name="L2_NORM_RANGE" location="vtkDataArray" length="2">
            <Value index="0">
              105.95810823
            </Value>
            <Value index="1">
              2417.1313684
            </Value>
          </InformationKey>
        </DataArray>
        <DataArray type="Float64" Name="Velocity" NumberOfComponents="3" format="ascii" RangeMin="0" RangeMax="0.5376198991062364">
          0 0 0 0 0 0
          -0.015540676571525188 0.03549083227013691 0 0.024289471369995302 0.036524243437999884 0
          -0.03123479692763645 0.15817215836943932 0 0.04164124363690198 0.1591422238234601 0
          -0.03336529369626104 0.3242046718103092 0 0.05037639773571571 0.3255505545180723 0
          -0.0183108965141344 0.4873262871818685 0 0.039909339590072784 0.4891024531041436 0
          0.03309138347720199 0.5354116509693463 0 -0.011059623289775519 0.5375061308000942 0
          0.1384288150674156 0.2699348096703925 0
          <InformationKey name="L2_NORM_RANGE" location="vtkDataArray" length="2">
            <Value index="0">
              0
            </Value>
            <Value index="1">
              0.53761989911
            </Value>
          </InformationKey>
        </DataArray>
        <DataArray type="Float64" Name="Acceleration" NumberOfComponents="3" format="ascii" RangeMin="0" RangeMax="454.8224990386737">
          0 0 0 0 0 0
          -16.09306063655893 39.20373298276033 0 27.704905952375412 41.12711073556518 0
          -29.868289968992677 170.46359201529404 0 44.44445593825095 172.1428175438458 0
          -25.649098598389145 329.3716661617516 0 47.73111519680246 331.46139778874397 0
          -1.078723104010237 451.6875666358444 0 26.176891579315743 454.06858070012845 0
          59.77284668666226 408.480814256475 0 -38.545400974052754 410.72192781801664 0
          160.14541678035155 14.842513364654906 0
          <InformationKey name="L2_NORM_RANGE" location="vtkDataArray" length="2">
            <Value index="0">
              0
            </Value>
            <Value index="1">
              454.82249904
            </Value>
          </InformationKey>
        </DataArray>
        <DataArray type="Float64" Name="Sigma" NumberOfComponents="6" format="ascii" RangeMin="124.04628143187595" RangeMax="18435.86987501404">
          -1190.3267638760997 1190.3267638764883 0 754.501388420789 0 0
          1196.3515070444323 -1196.3515070448968 0 -39.19150268181786 0 0
          -949.2816768052998 949.2816768049875 0 222.68993393068558 0 0
          882.5368508874722 -882.5368508874557 0 -144.44398963590473 0 0
          -179.59319096846465 179.59319096877275 0 548.8872271601455 0 0
          -87.70837463402817 87.70837463440247 0 -1.4007052239641846 0 0
          1322.400032131555 -1322.400032131811 0 657.2945755807169 0 0
          -1831.8689723142372 1831.8689723139707 0 329.865020401707 0 0
          3996.1291120946626 -3996.1291120957603 0 885.2377724184564 0 0
          -4791.310239075206 4791.310239074997 0 927.688771827004 0 0
          8038.322345550026 -8038.322345550532 0 860.5822175268434 0 0
          -9000.832574867114 9000.832574867658 0 1922.1898577611603 0 0
          13035.080099507197 -13035.080099507974 0 233.819689702891 0 0
          <InformationKey name="L2_NORM_RANGE" location="vtkDataArray" length="2">
            <Value index="0">
              124.04628143
            </Value>
            <Value index="1">
              18435.869875
            </Value>
          </InformationKey>
        </DataArray>
        <DataArray type="Float64" Name="Press" format="ascii" RangeMin="-10445.322289565014" RangeMax="13761.528764160174">
          -1261.3560456044409 1255.5015859498114 -1092.7123459296238 920.5083788814231 -258.45556355706196 -174.7318020577619
          1316.4665881406172 -2196.08219699942 4137.162470124647 -5625.494730892991 8402.893513810595 -10445.322289565014
          13761.528764160174
        </DataArray>
        <DataArray type="Float64" Name="Dev strain" NumberOfComponents="6" format="ascii" RangeMin="0" RangeMax="0">
          0 0 0 0 0 0
          0 0 0 0 0 0
          0 0 0 0 0 0
          0 0 0 0 0 0
          0 0 0 0 0 0
          0 0 0 0 0 0
          0 0 0 0 0 0
          0 0 0 0 0 0
          0 0 0 0 0 0
          0 0 0 0 0 0
          0 0 0 0 0 0
          0 0 0 0 0 0
          0 0 0 0 0 0
          <InformationKey name="L2_NORM_RANGE" location="vtkDataArray" length="2">
            <Value index="0">
              0
            </Value>
            <Value index="1">
              0
            </Value>
          </InformationKey>
        </DataArray>
        <DataArray type="Float64" Name="J2 Stresses" format="ascii" RangeMin="7693.249474756974" RangeMax="169926981.11240184">
          1559195.8910824354 1431640.9218786554 913533.4035864985 784087.309709846 107573.01127717902 7693.249474756974
          1856750.884753835 3382946.664648286 16164959.358963959 23171805.421409376 64799776.5692538 81938690.5031138
          169926981.11240184
        </DataArray>
      </PointData>
      <CellData>
        <DataArray type="UInt8" Name="vtkGhostType" format="ascii" RangeMin="0" RangeMax="0">
          0 0 0 0 0 0
          0 0 0 0 0
        </DataArray>
        <DataArray type="Float64" Name="Gauss Stress" NumberOfComponents="6" format="ascii" RangeMin="313.6870546807125" RangeMax="7994.917284641672">
          737.6347666760719 -15.436354075251415 0 13.01814720432096 0 0
          -680.6079130737405 -51.76995731589144 0 312.6666065565522 0 0
          367.5187661838594 -42.638090672560395 0 134.34751076675883 0 0
          -225.6658491638517 -61.44050457298604 0 209.0443904849755 0 0
          -550.5082419110922 -152.39003203333417 0 328.58629691948653 0 0
          646.1258963516188 -57.27308133428079 0 401.5936991722995 0 0
          -2103.8215190208493 -352.45478615818564 0 714.2638548823891 0 0
          2248.069011059276 -76.37110354925215 0 624.1324561336268 0 0
          -4473.914658346571 -638.0343460850956 0 1236.8202823716692 0 0
          4719.234157203912 -109.5266551763479 0 891.1695872574344 0 0
          7930.556619531959 -117.82329392836454 0 1005.5305883302979 0 0
          <InformationKey name="L2_NORM_RANGE" location="vtkDataArray" length="2">
            <Value index="0">
              313.68705468
            </Value>
            <Value index="1">
              7994.9172846
            </Value>
          </InformationKey>
        </DataArray>
        <DataArray type="Float64" Name="Gauss Strain" NumberOfComponents="6" format="ascii" RangeMin="0" RangeMax="0">
          0 0 0 0 0 0
          0 0 0 0 0 0
          0 0 0 0 0 0
          0 0 0 0 0 0
          0 0 0 0 0 0
          0 0 0 0 0 0
          0 0 0 0 0 0
          0 0 0 0 0 0
          0 0 0 0 0 0
          0 0 0 0 0 0
          0 0 0 0 0 0
          <InformationKey name="L2_NORM_RANGE" location="vtkDataArray" length="2">
            <Value index="0">
              0
            </Value>
            <Value index="1">
              0
            </Value>
          </InformationKey>
        </DataArray>
      </CellData>
      <Points>
        <DataArray type="Float32" Name="Points" NumberOfComponents="3" format="ascii" RangeMin="0" RangeMax="0.6020797527609908">
          0 0.05000000074505806 0 0 0 0
          0.10000000149011612 0.05000000074505806 0 0.10000000149011612 0 0
          0.20000000298023224 0.05000000074505806 0 0.20000000298023224 0 0
          0.30000001192092896 0.05000000074505806 0 0.30000001192092896 0 0
          0.4000000059604645 0.05000000074505806 0 0.4000000059604645 0 0
          0.5 0.05000000074505806 0 0.5 0 0
          0.6000000238418579 0.05000000074505806 0
          <InformationKey name="L2_NORM_RANGE" location="vtkDataArray" length="2">
            <Value index="0">
              0
            </Value>
            <Value index="1">
              0.60207975276
            </Value>
          </InformationKey>
        </DataArray>
      </Points>
      <Cells>
        <DataArray type="Int64" Name="connectivity" format="ascii" RangeMin="0" RangeMax="12">
          3 2 1 2 0 1
          5 4 3 4 2 3
          7 6 5 6 4 5
          9 8 7 8 6 7
          11 10 9 10 8 9
          12 10 11
        </DataArray>
        <DataArray type="Int64" Name="offsets" format="ascii" RangeMin="3" RangeMax="33">
          3 6 9 12 15 18
          21 24 27 30 33
        </DataArray>
        <DataArray type="UInt8" Name="types" format="ascii" RangeMin="5" RangeMax="5">
          5 5 5 5 5 5
          5 5 5 5 5
        </DataArray>
      </Cells>
    </Piece>
  </UnstructuredGrid>
</VTKFile>
