<?xml version="1.0"?>
<VTKFile type="UnstructuredGrid" version="0.1" byte_order="LittleEndian" header_type="UInt32" compressor="vtkZLibDataCompressor">
  <UnstructuredGrid>
    <Piece NumberOfPoints="13" NumberOfCells="11">
      <PointData>
        <DataArray type="Float64" Name="Disp" NumberOfComponents="3" format="ascii" RangeMin="0" RangeMax="0.05347501194200114">
          0 0 0 0 0 0
          0.000911407340520649 -0.0018020358909492998 0 -0.0010760424993643525 -0.0017699694250261756 0
          0.0016637542959514826 -0.007922287436385402 0 -0.002143044249162195 -0.007790400785010842 0
          0.001869869994538775 -0.016919194200249447 0 -0.0031316416732275493 -0.016670075540536018 0
          0.0016914940040535298 -0.02794964851806209 0 -0.00415350368695581 -0.027610350859159798 0
          0.0012002351768836295 -0.04031267651288693 0 -0.005176913731459187 -0.03990508737431548 0
          0.0004880802458570513 -0.053472784478375245 0
          <InformationKey name="L2_NORM_RANGE" location="vtkDataArray" length="2">
            <Value index="0">
              0
            </Value>
            <Value index="1">
              0.053475011942
            </Value>
          </InformationKey>
        </DataArray>
        <DataArray type="Float64" Name="Nodal Stress" NumberOfComponents="6" format="ascii" RangeMin="12213.496902805287" RangeMax="103739.32029259577">
          99705.65129048897 549.434869563567 0 -28641.36513564423 0 0
          -50913.932970444796 -5597.349876170804 0 -1985.1515310424227 0 0
          69026.12209416361 5229.256137532201 0 -11337.330242357708 0 0
          -63140.763618556804 -1205.6472149859019 0 3544.2793888887086 0 0
          51190.77913617205 5401.07107870027 0 -14101.265471626391 0 0
          -52330.59770295107 -1758.1415646708172 0 3037.2660139305362 0 0
          39871.105145687565 5362.277847521129 0 -12005.526507073882 0 0
          -39277.17115198018 -846.1297938142135 0 3069.1096795658605 0 0
          27600.628860885477 4680.070455738672 0 -10021.194976969078 0 0
          -27946.781333655636 -443.4468015913243 0 2122.756547906588 0 0
          18163.375663846262 3762.031478884304 0 -7483.230861862839 0 0
          -18214.60266612018 -15.409310896641774 0 1255.8416352861082 0 0
          10730.564636273737 2708.8288191362562 0 -5165.920596583217 0 0
          <InformationKey name="L2_NORM_RANGE" location="vtkDataArray" length="2">
            <Value index="0">
              12213.496903
            </Value>
            <Value index="1">
              103739.32029
            </Value>
          </InformationKey>
        </DataArray>
        <DataArray type="Float64" Name="Nodal Strain" NumberOfComponents="6" format="ascii" RangeMin="0" RangeMax="0">
          0 0 0 0 0 0
          0 0 0 0 0 0
          0 0 0 0 0 0
          0 0 0 0 0 0
          0 0 0 0 0 0
          0 0 0 0 0 0
          0 0 0 0 0 0
          0 0 0 0 0 0
          0 0 0 0 0 0
          0 0 0 0 0 0
          0 0 0 0 0 0
          0 0 0 0 0 0
          0 0 0 0 0 0
          <InformationKey name="L2_NORM_RANGE" location="vtkDataArray" length="2">
            <Value index="0">
              0
            </Value>
            <Value index="1">
              0
            </Value>
          </InformationKey>
        </DataArray>
        <DataArray type="Float64" Name="Sld_traction" NumberOfComponents="3" format="ascii" RangeMin="3156.3567239531676" RangeMax="49329.83717030875">
          -47122.013426557714 14592.761420529318 0 16554.564255789788 12351.171761050684 0
          -19672.663166573584 12328.342493553673 0 -11242.731025651723 8653.081817990287 0
          -17963.67704771234 10135.936895534018 0 -8433.132571614968 6951.91035420329 0
          -15009.2986295215 9087.032623836885 0 -5906.744253852895 5192.9636917435755 0
          -12049.95621515902 7328.347068850016 0 -3845.9605352568865 3546.5221210461036 0
          -9042.446846937524 5533.52759945766 0 -2302.9890758745305 2158.432089561066 0
          -6326.858122581954 3794.4442089748777 0
          <InformationKey name="L2_NORM_RANGE" location="vtkDataArray" length="2">
            <Value index="0">
              3156.356724
            </Value>
            <Value index="1">
              49329.83717
            </Value>
          </InformationKey>
        </DataArray>
        <DataArray type="Float64" Name="Velocity" NumberOfComponents="3" format="ascii" RangeMin="0" RangeMax="6.7086597704258955">
          0 0 0 0 0 0
          0.1242423990606552 -0.2515102288399156 0 -0.14607420232563406 -0.2433519674226844 0
          0.18901260000410347 -1.076704941972285 0 -0.31523204784489545 -1.0405296137678044 0
          0.15360182263751054 -2.2605718777538 0 -0.48923041423455715 -2.195569149549062 0
          0.03793811849432693 -3.6564090065616295 0 -0.6844957376942753 -3.57138015000524 0
          -0.13087298736906905 -5.158585619088619 0 -0.8902938734423866 -5.060726602769325 0
          -0.33038641806809543 -6.700519437333718 0
          <InformationKey name="L2_NORM_RANGE" location="vtkDataArray" length="2">
            <Value index="0">
              0
            </Value>
            <Value index="1">
              6.7086597704
            </Value>
          </InformationKey>
        </DataArray>
        <DataArray type="Float64" Name="Acceleration" NumberOfComponents="3" format="ascii" RangeMin="0" RangeMax="875.9579213423931">
          0 0 0 0 0 0
          -32.12130396948754 74.20651134213028 0 46.9263633161263 73.56774220989053 0
          -53.997659819209275 302.05592027609464 0 68.57618322273947 299.27498959152535 0
          -43.69700343961222 546.7254613999958 0 68.47076226804029 545.0066812082714 0
          -27.618377838118477 745.6931022403678 0 52.351536478308844 747.5885305011398 0
          -13.774762564011326 860.5962885754234 0 19.867119481215013 867.7720961761115 0
          -10.197454011138461 875.8985625597161 0
          <InformationKey name="L2_NORM_RANGE" location="vtkDataArray" length="2">
            <Value index="0">
              0
            </Value>
            <Value index="1">
              875.95792134
            </Value>
          </InformationKey>
        </DataArray>
        <DataArray type="Float64" Name="Sigma" NumberOfComponents="6" format="ascii" RangeMin="23625.428054173004" RangeMax="149992.3801876088">
          98617.87566251832 -98617.87566251979 0 -55197.31256110254 0 0
          -96171.50332585066 96171.50332585047 0 14787.60706772388 0 0
          97248.18484266283 -97248.18484266369 0 -18958.442488095712 0 0
          -91579.51690230827 91579.51690230773 0 18816.067092550114 0 0
          73794.88096118576 -73794.88096118595 0 -33500.53992816918 0 0
          -70195.29461689694 70195.29461689766 0 20330.95044743764 0 0
          56511.15433328541 -56511.15433328613 0 -27090.50479140242 0 0
          -52571.810954568515 52571.810954568566 0 17259.73423860059 0 0
          38829.97893025327 -38829.978930252306 0 -22846.138912769304 0 0
          -36284.981688905704 36284.981688903885 0 13075.312299096111 0 0
          25298.44083332778 -25298.440833329198 0 -16563.199988709544 0 0
          -23295.512934670736 23295.51293467448 0 8716.548157651629 0 0
          14760.72974051763 -14760.729740517194 0 -11063.569306408957 0 0
          <InformationKey name="L2_NORM_RANGE" location="vtkDataArray" length="2">
            <Value index="0">
              23625.428054
            </Value>
            <Value index="1">
              149992.38019
            </Value>
          </InformationKey>
        </DataArray>
        <DataArray type="Float64" Name="Press" format="ascii" RangeMin="-114388.6490250761" RangeMax="113955.38043882995">
          100471.72045317662 -114388.6490250761 113955.38043882995 -98848.37975041574 85162.80850424319 -79339.06879543922
          68975.3272403966 -59376.48039242319 48783.11723738209 -41416.905894817995 33064.9745412339 -26518.219519068913
          20022.64818654946
        </DataArray>
        <DataArray type="Float64" Name="Dev strain" NumberOfComponents="6" format="ascii" RangeMin="0" RangeMax="0">
          0 0 0 0 0 0
          0 0 0 0 0 0
          0 0 0 0 0 0
          0 0 0 0 0 0
          0 0 0 0 0 0
          0 0 0 0 0 0
          0 0 0 0 0 0
          0 0 0 0 0 0
          0 0 0 0 0 0
          0 0 0 0 0 0
          0 0 0 0 0 0
          0 0 0 0 0 0
          0 0 0 0 0 0
          <InformationKey name="L2_NORM_RANGE" location="vtkDataArray" length="2">
            <Value index="0">
              0
            </Value>
            <Value index="1">
              0
            </Value>
          </InformationKey>
        </DataArray>
        <DataArray type="Float64" Name="J2 Stresses" format="ascii" RangeMin="248479783.92202383" RangeMax="10487171228.680077">
          10487171228.680077 9303626382.651432 9547065090.586409 8475319011.267956 5726255999.945304 5030716272.877052
          3376984426.5436916 2838269913.539674 1638253779.5292635 1359340844.0938797 708596007.0639193 561675475.8356638
          248479783.92202383
        </DataArray>
      </PointData>
      <CellData>
        <DataArray type="UInt8" Name="vtkGhostType" format="ascii" RangeMin="0" RangeMax="0">
          0 0 0 0 0 0
          0 0 0 0 0
        </DataArray>
        <DataArray type="Float64" Name="Gauss Stress" NumberOfComponents="6" format="ascii" RangeMin="16095.214168225299" RangeMax="69456.59728762688">
          -63261.49457405268 -2926.2709837224643 0 4881.743890726097 0 0
          66577.66968208701 114.6315625324878 0 -19789.382660491458 0 0
          -60334.856866543756 -1681.569827864104 0 1882.1592039395255 0 0
          59911.1193647326 6935.4200970385045 0 -11214.30510790493 0 0
          -45332.05772854862 -1161.4235697619083 0 3500.0599648786065 0 0
          44969.93587559162 4896.108757208722 0 -13420.031424044655 0 0
          -34012.36092102669 -661.1517788796552 0 2496.302541642467 0 0
          33717.09546477523 5204.213925461874 0 -10892.303155190384 0 0
          -23050.734887633887 -196.03236080127954 0 1742.8868226793993 0 0
          22758.207986157788 4195.915936373461 0 -8778.008867460914 0 0
          14444.353615963042 3268.5818565141826 0 -6303.407045822291 0 0
          <InformationKey name="L2_NORM_RANGE" location="vtkDataArray" length="2">
            <Value index="0">
              16095.214168
            </Value>
            <Value index="1">
              69456.597288
            </Value>
          </InformationKey>
        </DataArray>
        <DataArray type="Float64" Name="Gauss Strain" NumberOfComponents="6" format="ascii" RangeMin="0" RangeMax="0">
          0 0 0 0 0 0
          0 0 0 0 0 0
          0 0 0 0 0 0
          0 0 0 0 0 0
          0 0 0 0 0 0
          0 0 0 0 0 0
          0 0 0 0 0 0
          0 0 0 0 0 0
          0 0 0 0 0 0
          0 0 0 0 0 0
          0 0 0 0 0 0
          <InformationKey name="L2_NORM_RANGE" location="vtkDataArray" length="2">
            <Value index="0">
              0
            </Value>
            <Value index="1">
              0
            </Value>
          </InformationKey>
        </DataArray>
      </CellData>
      <Points>
        <DataArray type="Float32" Name="Points" NumberOfComponents="3" format="ascii" RangeMin="0" RangeMax="0.6020797527609908">
          0 0.05000000074505806 0 0 0 0
          0.10000000149011612 0.05000000074505806 0 0.10000000149011612 0 0
          0.20000000298023224 0.05000000074505806 0 0.20000000298023224 0 0
          0.30000001192092896 0.05000000074505806 0 0.30000001192092896 0 0
          0.4000000059604645 0.05000000074505806 0 0.4000000059604645 0 0
          0.5 0.05000000074505806 0 0.5 0 0
          0.6000000238418579 0.05000000074505806 0
          <InformationKey name="L2_NORM_RANGE" location="vtkDataArray" length="2">
            <Value index="0">
              0
            </Value>
            <Value index="1">
              0.60207975276
            </Value>
          </InformationKey>
        </DataArray>
      </Points>
      <Cells>
        <DataArray type="Int64" Name="connectivity" format="ascii" RangeMin="0" RangeMax="12">
          3 2 1 2 0 1
          5 4 3 4 2 3
          7 6 5 6 4 5
          9 8 7 8 6 7
          11 10 9 10 8 9
          12 10 11
        </DataArray>
        <DataArray type="Int64" Name="offsets" format="ascii" RangeMin="3" RangeMax="33">
          3 6 9 12 15 18
          21 24 27 30 33
        </DataArray>
        <DataArray type="UInt8" Name="types" format="ascii" RangeMin="5" RangeMax="5">
          5 5 5 5 5 5
          5 5 5 5 5
        </DataArray>
      </Cells>
    </Piece>
  </UnstructuredGrid>
</VTKFile>
