<?xml version="1.0"?>
<VTKFile type="UnstructuredGrid" version="0.1" byte_order="LittleEndian" header_type="UInt32" compressor="vtkZLibDataCompressor">
  <UnstructuredGrid>
    <Piece NumberOfPoints="13" NumberOfCells="11">
      <PointData>
        <DataArray type="Float64" Name="Disp" NumberOfComponents="3" format="ascii" RangeMin="0.02233555362514742" RangeMax="0.09479598089828008">
          0.001507196421379757 0.03282131103851519 0 -0.004919167854967405 0.044072471906687435 0
          0.001056386793587934 0.04443533012212802 0 -0.0058023679874462395 0.056330810493705676 0
          0.0004325937469098141 0.056724700835671604 0 -0.00665961110952921 0.06895738622566719 0
          -0.0003081189821359677 0.06936503434900311 0 -0.007480090811183371 0.0817007948967475 0
          -0.0011252914831756703 0.08210769717683868 0 -0.008261698670702517 0.09437517778213006 0
          -0.0019409259927910933 0.09477610880785088 0 -0.004030368553152384 0.03250891445736451 0
          0.0017363037095686601 0.022267963651173273 0
          <InformationKey name="L2_NORM_RANGE" location="vtkDataArray" length="2">
            <Value index="0">
              0.022335553625
            </Value>
            <Value index="1">
              0.094795980898
            </Value>
          </InformationKey>
        </DataArray>
        <DataArray type="Float64" Name="Nodal Stress" NumberOfComponents="6" format="ascii" RangeMin="778.3609783886351" RangeMax="23676.119240274416">
          16934.027466077077 334.21817056285005 0 2239.161935556822 0 0
          -10759.397747834844 -781.4969875577783 0 2346.62217607796 0 0
          11318.441993213237 204.2338079558602 0 1961.2775379957397 0 0
          -6420.152838863999 -501.2005950463091 0 1874.8540036462903 0 0
          6755.191878590775 85.59042549003475 0 1522.727634939538 0 0
          -3244.2565822025867 -316.68826289968746 0 1350.969318971683 0 0
          3508.3462236703203 48.83230033619433 0 1081.9420750320228 0 0
          -1315.4153927965497 -165.1915091533349 0 689.2225256799746 0 0
          1443.9454096007241 16.630873694637263 0 451.6116323020926 0 0
          -706.7045033833358 -53.1104168500715 0 321.8599714127833 0 0
          1205.4762446374511 310.3304981769939 0 496.8846221122057 0 0
          -16171.76553067236 -1174.7809474707526 0 2786.72795300959 0 0
          23558.684896196653 462.4891862236034 0 2309.3488246764045 0 0
          <InformationKey name="L2_NORM_RANGE" location="vtkDataArray" length="2">
            <Value index="0">
              778.36097839
            </Value>
            <Value index="1">
              23676.11924
            </Value>
          </InformationKey>
        </DataArray>
        <DataArray type="Float64" Name="Nodal Strain" NumberOfComponents="6" format="ascii" RangeMin="0" RangeMax="0">
          0 0 0 0 0 0
          0 0 0 0 0 0
          0 0 0 0 0 0
          0 0 0 0 0 0
          0 0 0 0 0 0
          0 0 0 0 0 0
          0 0 0 0 0 0
          0 0 0 0 0 0
          0 0 0 0 0 0
          0 0 0 0 0 0
          0 0 0 0 0 0
          0 0 0 0 0 0
          0 0 0 0 0 0
          <InformationKey name="L2_NORM_RANGE" location="vtkDataArray" length="2">
            <Value index="0">
              0
            </Value>
            <Value index="1">
              0
            </Value>
          </InformationKey>
        </DataArray>
        <DataArray type="Float64" Name="Sld_traction" NumberOfComponents="3" format="ascii" RangeMin="75.6114632555327" RangeMax="9584.970923519842">
          3310.048552036899 -1411.5072234358968 0 6787.692166571786 -2136.8459031638236 0
          1929.2872621343688 -820.4968695342126 0 4701.7692024968965 -1394.4716153905017 0
          848.8349929014272 -404.5393979720495 0 2827.4667554186926 -863.0149881878577 0
          91.33990360926465 -176.33539252893658 0 1317.28566672662 -434.0355265742407 0
          -25.54542050482555 -126.65215067667881 0 136.2499769288255 -73.35790484719986 0
          -24.442548536783306 -71.55176585291075 0 9074.766717037015 -3085.4945529166066 0
          4934.5391689049175 -2167.6223503023302 0
          <InformationKey name="L2_NORM_RANGE" location="vtkDataArray" length="2">
            <Value index="0">
              75.611463256
            </Value>
            <Value index="1">
              9584.9709235
            </Value>
          </InformationKey>
        </DataArray>
        <DataArray type="Float64" Name="Velocity" NumberOfComponents="3" format="ascii" RangeMin="5.14977368284033" RangeMax="12.424013600349051">
          -0.10691666602624361 6.837348678018351 0 -1.0148189287111045 8.227618817368288 0
          -0.3394587329763641 8.31070297409022 0 -1.109332901655666 9.461294609558465 0
          -0.5508582902250806 9.53276049816122 0 -1.199898438069074 10.486844414248768 0
          -0.7227402582953273 10.548857782328227 0 -1.3046326234104417 11.400536705844527 0
          -0.848379241271368 11.45978475771922 0 -1.4350973140879355 12.325123287339665 0
          -0.9658500517921076 12.386413832062587 0 -0.9003574717960074 6.746688604828297 0
          0.1098724581657009 5.148601463253053 0
          <InformationKey name="L2_NORM_RANGE" location="vtkDataArray" length="2">
            <Value index="0">
              5.1497736828
            </Value>
            <Value index="1">
              12.4240136
            </Value>
          </InformationKey>
        </DataArray>
        <DataArray type="Float64" Name="Acceleration" NumberOfComponents="3" format="ascii" RangeMin="274.15220911477996" RangeMax="690.8813338217691">
          -119.04962680831932 -342.9567710643332 0 -91.60243738801546 -426.0744426570818 0
          -128.69888775504683 -423.67414480466323 0 -95.1524281350462 -494.2516216037584 0
          -128.53586901868425 -495.70351320817645 0 -91.78162886572363 -556.6939262021187 0
          -122.50910520761022 -560.1833744302567 0 -84.5063200322461 -616.508608934666 0
          -115.00335269068171 -620.3837742004689 0 -76.35226975453861 -678.7491035297135 0
          -107.78610830156407 -682.4215502755978 0 -78.27247210904011 -350.5147310527209 0
          -98.25349823208694 -255.94078191580047 0
          <InformationKey name="L2_NORM_RANGE" location="vtkDataArray" length="2">
            <Value index="0">
              274.15220911
            </Value>
            <Value index="1">
              690.88133382
            </Value>
          </InformationKey>
        </DataArray>
        <DataArray type="Float64" Name="Sigma" NumberOfComponents="6" format="ascii" RangeMin="1160.4672834158503" RangeMax="45011.64315016523">
          22600.66704262968 -22600.66704263043 0 1992.6279256830828 0 0
          -16666.487253608004 16666.487253608946 0 2549.457946562615 0 0
          14825.89043420978 -14825.890434209625 0 1835.9915865170653 0 0
          -10092.794676417681 10092.794676414056 0 2013.0898653441095 0 0
          8585.088419963646 -8585.08841996147 0 1402.3537846254812 0 0
          -5148.507311521716 5148.50731151986 0 1394.678926928354 0 0
          4144.167880407615 -4144.16788041333 0 1206.8306226253612 0 0
          -2048.7366621065435 2048.736662117029 0 612.5312699926744 0 0
          1698.2463447748967 -1698.2463447749458 0 325.0177848148223 0 0
          -1145.0679269382535 1145.06792693195 0 137.45029790151514 0 0
          618.5565375405197 -618.5565375405755 0 762.5352028662426 0 0
          -24727.583000519397 24727.58300052 0 3194.8181751560855 0 0
          31808.093668585472 -31808.093668585883 0 1593.2273594111325 0 0
          <InformationKey name="L2_NORM_RANGE" location="vtkDataArray" length="2">
            <Value index="0">
              1160.4672834
            </Value>
            <Value index="1">
              45011.64315
            </Value>
          </InformationKey>
        </DataArray>
        <DataArray type="Float64" Name="Press" format="ascii" RangeMin="-27446.127896933154" RangeMax="34048.314650229484">
          24233.696139748514 -18476.698174779674 15842.6856189422 -11199.621176323099 9130.773729773895 -5840.012798507874
          4475.29533355822 -2347.626240448845 1732.3508906617376 -1372.9686653112074 1336.115630140796 -27446.127896933154
          34048.314650229484
        </DataArray>
        <DataArray type="Float64" Name="Dev strain" NumberOfComponents="6" format="ascii" RangeMin="0" RangeMax="0">
          0 0 0 0 0 0
          0 0 0 0 0 0
          0 0 0 0 0 0
          0 0 0 0 0 0
          0 0 0 0 0 0
          0 0 0 0 0 0
          0 0 0 0 0 0
          0 0 0 0 0 0
          0 0 0 0 0 0
          0 0 0 0 0 0
          0 0 0 0 0 0
          0 0 0 0 0 0
          0 0 0 0 0 0
          <InformationKey name="L2_NORM_RANGE" location="vtkDataArray" length="2">
            <Value index="0">
              0
            </Value>
            <Value index="1">
              0
            </Value>
          </InformationKey>
        </DataArray>
        <DataArray type="Float64" Name="J2 Stresses" format="ascii" RangeMin="527977.1740367163" RangeMax="1012389416.1842144">
          511782792.28437734 279396731.33001655 220649743.44363105 102877637.08177629 74195392.21288857 26993409.864087515
          17538237.458952412 4291120.549860653 2910449.7876528646 1315903.703393755 527977.1740367163 614005076.8406675
          1012389416.1842144
        </DataArray>
      </PointData>
      <CellData>
        <DataArray type="UInt8" Name="vtkGhostType" format="ascii" RangeMin="0" RangeMax="1">
          1 1 0 0 0 0
          0 0 0 0 0
        </DataArray>
        <DataArray type="Float64" Name="Gauss Stress" NumberOfComponents="6" format="ascii" RangeMin="1053.8809028716573" RangeMax="20302.231680147597">
          20172.3535345802 384.90172744951326 0 2260.2244867501 0 0
          -13494.177714487345 -965.2422401552681 0 2578.968015800595 0 0
          14119.917935714167 279.8711202266432 0 2126.0258195875876 0 0
          9030.674116716247 151.88466487865207 0 1750.4784121622188 0 0
          -8589.008409325497 -633.4140787823978 0 2132.8464661412627 0 0
          5115.601751224595 61.76909198976698 0 1334.6211113930656 0 0
          -4855.0246043442785 -417.5488923615442 0 1603.374192299315 0 0
          2551.2325156156935 22.114140233288794 0 714.7932258109525 0 0
          -2255.1399328730486 -219.7558707249798 0 1071.3469398487964 0 0
          955.7442702894962 174.5876333692518 0 408.3344285275267 0 0
          -1161.2674197894053 -164.22859027476048 0 358.33311756967055 0 0
          <InformationKey name="L2_NORM_RANGE" location="vtkDataArray" length="2">
            <Value index="0">
              1053.8809029
            </Value>
            <Value index="1">
              20302.23168
            </Value>
          </InformationKey>
        </DataArray>
        <DataArray type="Float64" Name="Gauss Strain" NumberOfComponents="6" format="ascii" RangeMin="0" RangeMax="0">
          0 0 0 0 0 0
          0 0 0 0 0 0
          0 0 0 0 0 0
          0 0 0 0 0 0
          0 0 0 0 0 0
          0 0 0 0 0 0
          0 0 0 0 0 0
          0 0 0 0 0 0
          0 0 0 0 0 0
          0 0 0 0 0 0
          0 0 0 0 0 0
          <InformationKey name="L2_NORM_RANGE" location="vtkDataArray" length="2">
            <Value index="0">
              0
            </Value>
            <Value index="1">
              0
            </Value>
          </InformationKey>
        </DataArray>
      </CellData>
      <Points>
        <DataArray type="Float32" Name="Points" NumberOfComponents="3" format="ascii" RangeMin="0.4000000059604645" RangeMax="1.0012492197622458">
          0.5 0 0 0.6000000238418579 0.05000000074505806 0
          0.6000000238418579 0 0 0.699999988079071 0.05000000074505806 0
          0.699999988079071 0 0 0.800000011920929 0.05000000074505806 0
          0.800000011920929 0 0 0.8999999761581421 0.05000000074505806 0
          0.8999999761581421 0 0 1 0.05000000074505806 0
          1 0 0 0.5 0.05000000074505806 0
          0.4000000059604645 0 0
          <InformationKey name="L2_NORM_RANGE" location="vtkDataArray" length="2">
            <Value index="0">
              0.40000000596
            </Value>
            <Value index="1">
              1.0012492198
            </Value>
          </InformationKey>
        </DataArray>
      </Points>
      <Cells>
        <DataArray type="Int64" Name="connectivity" format="ascii" RangeMin="0" RangeMax="12">
          0 11 12 1 11 0
          2 1 0 4 3 2
          3 1 2 6 5 4
          5 3 4 8 7 6
          7 5 6 10 9 8
          9 7 8
        </DataArray>
        <DataArray type="Int64" Name="offsets" format="ascii" RangeMin="3" RangeMax="33">
          3 6 9 12 15 18
          21 24 27 30 33
        </DataArray>
        <DataArray type="UInt8" Name="types" format="ascii" RangeMin="5" RangeMax="5">
          5 5 5 5 5 5
          5 5 5 5 5
        </DataArray>
      </Cells>
    </Piece>
  </UnstructuredGrid>
</VTKFile>
