<?xml version="1.0"?>
<VTKFile type="UnstructuredGrid" version="0.1" byte_order="LittleEndian" header_type="UInt32" compressor="vtkZLibDataCompressor">
  <UnstructuredGrid>
    <Piece NumberOfPoints="13" NumberOfCells="11">
      <PointData>
        <DataArray type="Float64" Name="Disp" NumberOfComponents="3" format="ascii" RangeMin="0" RangeMax="0.07689810227825061">
          0 0 0 0 0 0
          0.0014189497139352088 -0.0028754193576098134 0 -0.0016976987330935586 -0.0027999728606360004 0
          0.0023473546132186914 -0.012374144752391488 0 -0.0034454275585350364 -0.01206327485663183 0
          0.002249750294577551 -0.025865193092790548 0 -0.005088790457429126 -0.02532631935994869 0
          0.0014628729497111112 -0.04177496429314653 0 -0.006812335435606022 -0.041091104271937906 0
          0.000226530421901085 -0.05900959647737244 0 -0.008541847405172142 -0.05823529824214734 0
          -0.0012680178810757906 -0.07688764702245456 0
          <InformationKey name="L2_NORM_RANGE" location="vtkDataArray" length="2">
            <Value index="0">
              0
            </Value>
            <Value index="1">
              0.076898102278
            </Value>
          </InformationKey>
        </DataArray>
        <DataArray type="Float64" Name="Nodal Stress" NumberOfComponents="6" format="ascii" RangeMin="11682.251366525381" RangeMax="161237.3564328612">
          153870.8610089721 -4531.246577796596 0 -47965.727830048934 0 0
          -80092.96497398303 -14110.488552262575 0 -4766.9733894353985 0 0
          104824.63815229958 8164.001145454899 0 -21303.97765531205 0 0
          -96187.06189423415 -617.9601387863863 0 5494.268689917501 0 0
          71893.53356132217 10245.252665843664 0 -25004.14048630979 0 0
          -76606.39954920956 -2261.496161366401 0 5483.5311522090715 0 0
          51582.80279741126 9720.4828587279 0 -20151.02476749305 0 0
          -53046.458962789104 -717.8302763715145 0 5392.131137520904 0 0
          31687.55058442992 7967.014554254233 0 -15147.98788530768 0 0
          -34147.27978042859 -308.090280707874 0 3405.37845399167 0 0
          18433.336158812206 5713.066663505915 0 -9970.169185294595 0 0
          -19586.204476765317 211.26666426164527 0 1801.7979798512397 0 0
          9380.018406510799 3587.996376094267 0 -5967.958921552423 0 0
          <InformationKey name="L2_NORM_RANGE" location="vtkDataArray" length="2">
            <Value index="0">
              11682.251367
            </Value>
            <Value index="1">
              161237.35643
            </Value>
          </InformationKey>
        </DataArray>
        <DataArray type="Float64" Name="Nodal Strain" NumberOfComponents="6" format="ascii" RangeMin="0" RangeMax="0">
          0 0 0 0 0 0
          0 0 0 0 0 0
          0 0 0 0 0 0
          0 0 0 0 0 0
          0 0 0 0 0 0
          0 0 0 0 0 0
          0 0 0 0 0 0
          0 0 0 0 0 0
          0 0 0 0 0 0
          0 0 0 0 0 0
          0 0 0 0 0 0
          0 0 0 0 0 0
          0 0 0 0 0 0
          <InformationKey name="L2_NORM_RANGE" location="vtkDataArray" length="2">
            <Value index="0">
              0
            </Value>
            <Value index="1">
              0
            </Value>
          </InformationKey>
        </DataArray>
        <DataArray type="Float64" Name="Sld_traction" NumberOfComponents="3" format="ascii" RangeMin="3003.3674296196623" RangeMax="76916.24062365526">
          -74096.45726216621 20635.481406354753 0 27700.660202176085 23929.89912907061 0
          -30642.665261181693 19627.230841441116 0 -15258.904188559858 12965.561095043362 0
          -26732.15613203515 15591.935531565 0 -10054.660015211373 9424.217341780684 0
          -21744.511570214796 13711.19762784068 0 -6591.129933506152 6542.123937328098 0
          -16482.939380131924 10532.976697340806 0 -3854.799973472226 4099.135846156 0
          -11219.326097984323 7313.934368053881 0 -2049.920043538539 2195.004267057167 0
          -6961.5403862236635 4460.664416141453 0
          <InformationKey name="L2_NORM_RANGE" location="vtkDataArray" length="2">
            <Value index="0">
              3003.3674296
            </Value>
            <Value index="1">
              76916.240624
            </Value>
          </InformationKey>
        </DataArray>
        <DataArray type="Float64" Name="Velocity" NumberOfComponents="3" format="ascii" RangeMin="0" RangeMax="2.527748978013768">
          0 0 0 0 0 0
          -0.03578873671739757 0.12700590510507048 0 0.08839241122408603 0.12333591327740656 0
          -0.013198522309102456 0.4321637508700489 0 0.08761646012819702 0.42240048916332285 0
          0.08511424348876395 0.46124839447598376 0 -0.011864807821734047 0.4774376772575639 0
          0.14325617222628462 0.007220841798805111 0 -0.21223700561343462 0.06828221753339392 0
          0.10899354740168493 -1.0010362188377293 0 -0.5165739680572838 -0.8898668171064266 0
          -0.040099778450653156 -2.527430889978568 0
          <InformationKey name="L2_NORM_RANGE" location="vtkDataArray" length="2">
            <Value index="0">
              0
            </Value>
            <Value index="1">
              2.527748978
            </Value>
          </InformationKey>
        </DataArray>
        <DataArray type="Float64" Name="Acceleration" NumberOfComponents="3" format="ascii" RangeMin="0" RangeMax="1932.511910750377">
          0 0 0 0 0 0
          -110.72784981546374 289.77990404224374 0 178.9541515596395 276.31849612618544 0
          -87.92837285066685 1073.8860472913348 0 284.0969478976199 1028.4193309624898 0
          77.43568155690264 1700.0147288346707 0 291.4850880912145 1664.7814434107968 0
          222.1940592641963 1919.6958314326184 0 241.44610978071432 1917.2644821134818 0
          270.16918522559604 1782.9078917254446 0 154.34520510972834 1809.6978217279611 0
          226.45836203293672 1464.1101824701254 0
          <InformationKey name="L2_NORM_RANGE" location="vtkDataArray" length="2">
            <Value index="0">
              0
            </Value>
            <Value index="1">
              1932.5119108
            </Value>
          </InformationKey>
        </DataArray>
        <DataArray type="Float64" Name="Sigma" NumberOfComponents="6" format="ascii" RangeMin="21611.062249067723" RangeMax="239989.35660458755">
          157499.46801273158 -157499.46801273318 0 -89346.10475502817 0 0
          -145182.14627874474 145182.1462787441 0 23119.71203480427 0 0
          146987.42542681703 -146987.42542681718 0 -36290.41384494368 0 0
          -139267.14798154033 139267.14798154 0 33208.43436693124 0 0
          103870.40485604083 -103870.40485604058 0 -59120.6264312094 0 0
          -99074.09651041635 99074.09651041632 0 35875.47033305198 0 0
          72633.43219904117 -72633.4321990432 0 -46018.56090850525 0 0
          -67866.92278838923 67866.92278838847 0 28639.31347398073 0 0
          43847.53751514707 -43847.53751514725 0 -34830.9729500186 0 0
          -41634.749185779074 41634.7491857791 0 19195.018234491556 0 0
          25012.058722445083 -25012.05872244825 0 -22103.91234454032 0 0
          -23436.149946442198 23436.149946446163 0 11129.16135487872 0 0
          12357.776984822614 -12357.776984820588 0 -12712.541347815046 0 0
          <InformationKey name="L2_NORM_RANGE" location="vtkDataArray" length="2">
            <Value index="0">
              21611.062249
            </Value>
            <Value index="1">
              239989.3566
            </Value>
          </InformationKey>
        </DataArray>
        <DataArray type="Float64" Name="Press" format="ascii" RangeMin="-185155.83053227694" RangeMax="176811.94547581128">
          153511.55695940935 -185155.83053227694 176811.94547581128 -147990.71750818426 123631.37592639416 -114374.140445702
          94593.14448544776 -78303.76687335368 60158.7610910668 -49094.350644729 36432.15743431272 -27489.97459860753
          19054.92112629686
        </DataArray>
        <DataArray type="Float64" Name="Dev strain" NumberOfComponents="6" format="ascii" RangeMin="0" RangeMax="0">
          0 0 0 0 0 0
          0 0 0 0 0 0
          0 0 0 0 0 0
          0 0 0 0 0 0
          0 0 0 0 0 0
          0 0 0 0 0 0
          0 0 0 0 0 0
          0 0 0 0 0 0
          0 0 0 0 0 0
          0 0 0 0 0 0
          0 0 0 0 0 0
          0 0 0 0 0 0
          0 0 0 0 0 0
          <InformationKey name="L2_NORM_RANGE" location="vtkDataArray" length="2">
            <Value index="0">
              0
            </Value>
            <Value index="1">
              0
            </Value>
          </InformationKey>
        </DataArray>
        <DataArray type="Float64" Name="J2 Stresses" format="ascii" RangeMin="193116828.88656324" RangeMax="26801764033.017834">
          26801764033.017834 21211485869.24581 21934551767.863438 19671038535.187912 11662873122.362455 10137438942.259712
          5805042460.035311 4810971777.830367 2225905715.3034697 1825564521.018348 747748816.7689009 580217682.427947
          193116828.88656324
        </DataArray>
      </PointData>
      <CellData>
        <DataArray type="UInt8" Name="vtkGhostType" format="ascii" RangeMin="0" RangeMax="0">
          0 0 0 0 0 0
          0 0 0 0 0
        </DataArray>
        <DataArray type="Float64" Name="Gauss Stress" NumberOfComponents="6" format="ascii" RangeMin="16723.432251924332" RangeMax="107192.9757730301">
          -97932.15713270601 -6290.911243727667 0 6679.24418559728 0 0
          101490.80635458253 -4712.358419287517 0 -34172.26885505586 0 0
          -91068.10722113599 -1420.8807971921115 0 3321.092756257938 0 0
          88014.4287317796 13620.640530901157 0 -20734.20196974062 0 0
          -64130.78331112412 -1259.0585779487778 0 6165.407632842485 0 0
          60426.70683693522 8806.879807157502 0 -23087.90566888756 0 0
          -44297.830295345724 -528.4073226651885 0 4334.452919484564 0 0
          41687.395209653296 9278.030592452964 0 -17403.40679484771 0 0
          -26737.002739599997 -31.10913308226236 0 2740.089081609987 0 0
          24907.13831082121 6757.240276278046 0 -12579.95568668912 0 0
          13976.929907609192 4687.806067059795 0 -7895.764112492217 0 0
          <InformationKey name="L2_NORM_RANGE" location="vtkDataArray" length="2">
            <Value index="0">
              16723.432252
            </Value>
            <Value index="1">
              107192.97577
            </Value>
          </InformationKey>
        </DataArray>
        <DataArray type="Float64" Name="Gauss Strain" NumberOfComponents="6" format="ascii" RangeMin="0" RangeMax="0">
          0 0 0 0 0 0
          0 0 0 0 0 0
          0 0 0 0 0 0
          0 0 0 0 0 0
          0 0 0 0 0 0
          0 0 0 0 0 0
          0 0 0 0 0 0
          0 0 0 0 0 0
          0 0 0 0 0 0
          0 0 0 0 0 0
          0 0 0 0 0 0
          <InformationKey name="L2_NORM_RANGE" location="vtkDataArray" length="2">
            <Value index="0">
              0
            </Value>
            <Value index="1">
              0
            </Value>
          </InformationKey>
        </DataArray>
      </CellData>
      <Points>
        <DataArray type="Float32" Name="Points" NumberOfComponents="3" format="ascii" RangeMin="0" RangeMax="0.6020797527609908">
          0 0.05000000074505806 0 0 0 0
          0.10000000149011612 0.05000000074505806 0 0.10000000149011612 0 0
          0.20000000298023224 0.05000000074505806 0 0.20000000298023224 0 0
          0.30000001192092896 0.05000000074505806 0 0.30000001192092896 0 0
          0.4000000059604645 0.05000000074505806 0 0.4000000059604645 0 0
          0.5 0.05000000074505806 0 0.5 0 0
          0.6000000238418579 0.05000000074505806 0
          <InformationKey name="L2_NORM_RANGE" location="vtkDataArray" length="2">
            <Value index="0">
              0
            </Value>
            <Value index="1">
              0.60207975276
            </Value>
          </InformationKey>
        </DataArray>
      </Points>
      <Cells>
        <DataArray type="Int64" Name="connectivity" format="ascii" RangeMin="0" RangeMax="12">
          3 2 1 2 0 1
          5 4 3 4 2 3
          7 6 5 6 4 5
          9 8 7 8 6 7
          11 10 9 10 8 9
          12 10 11
        </DataArray>
        <DataArray type="Int64" Name="offsets" format="ascii" RangeMin="3" RangeMax="33">
          3 6 9 12 15 18
          21 24 27 30 33
        </DataArray>
        <DataArray type="UInt8" Name="types" format="ascii" RangeMin="5" RangeMax="5">
          5 5 5 5 5 5
          5 5 5 5 5
        </DataArray>
      </Cells>
    </Piece>
  </UnstructuredGrid>
</VTKFile>
