<?xml version="1.0"?>
<VTKFile type="UnstructuredGrid" version="0.1" byte_order="LittleEndian" header_type="UInt32" compressor="vtkZLibDataCompressor">
  <UnstructuredGrid>
    <Piece NumberOfPoints="13" NumberOfCells="11">
      <PointData>
        <DataArray type="Float64" Name="Disp" NumberOfComponents="3" format="ascii" RangeMin="0" RangeMax="0.008562332406452784">
          0 0 0 0 0 0
          -0.00016463372983430247 0.00034519925841555656 0 0.00022240662381464515 0.0003525750767685544 0
          -0.0003355114313735945 0.001511713094436524 0 0.00036293041683113045 0.001521679159959936 0
          -0.0004112794743195263 0.0030832902226200828 0 0.00043390955532288176 0.003095298636726206 0
          -0.00045668275764210685 0.004877318465533866 0 0.000460287167893878 0.0048904720115244505 0
          -0.0004684097526105422 0.00673547389561728 0 0.0004512497442058685 0.006748062958367971 0
          -0.0004598041731998113 0.008549977564935451 0
          <InformationKey name="L2_NORM_RANGE" location="vtkDataArray" length="2">
            <Value index="0">
              0
            </Value>
            <Value index="1">
              0.0085623324065
            </Value>
          </InformationKey>
        </DataArray>
        <DataArray type="Float64" Name="Nodal Stress" NumberOfComponents="6" format="ascii" RangeMin="1245.7424997039202" RangeMax="16100.15081721769">
          -15197.489631921437 -397.6421169689029 0 5300.28734802259 0 0
          9541.350826780747 100.92067347432497 0 1073.7077517642601 0 0
          -9024.267492054747 -952.4078855746097 0 1758.103531030693 0 0
          11610.09916418238 -38.20704070547267 0 59.14382820532086 0 0
          -5595.709819903838 -783.5668216297533 0 2139.326491784996 0 0
          8594.487620553527 -18.300265895363868 0 541.8858978743373 0 0
          -2955.839226671912 -616.2980185356032 0 1558.961495523379 0 0
          5661.667684466757 -102.55691214114803 0 537.9754554155611 0 0
          -532.8625511102688 -389.8468766321801 0 1167.3525280567872 0 0
          3306.938579837963 -127.5992623649033 0 510.97386812554663 0 0
          1011.466268305202 -219.51760578308352 0 693.2693447719895 0 0
          1622.63585174355 -112.16023663364689 0 370.5206839760525 0 0
          1809.3963856235694 -69.63425164835584 0 284.53546924127056 0 0
          <InformationKey name="L2_NORM_RANGE" location="vtkDataArray" length="2">
            <Value index="0">
              1245.7424997
            </Value>
            <Value index="1">
              16100.150817
            </Value>
          </InformationKey>
        </DataArray>
        <DataArray type="Float64" Name="Nodal Strain" NumberOfComponents="6" format="ascii" RangeMin="0" RangeMax="0">
          0 0 0 0 0 0
          0 0 0 0 0 0
          0 0 0 0 0 0
          0 0 0 0 0 0
          0 0 0 0 0 0
          0 0 0 0 0 0
          0 0 0 0 0 0
          0 0 0 0 0 0
          0 0 0 0 0 0
          0 0 0 0 0 0
          0 0 0 0 0 0
          0 0 0 0 0 0
          0 0 0 0 0 0
          <InformationKey name="L2_NORM_RANGE" location="vtkDataArray" length="2">
            <Value index="0">
              0
            </Value>
            <Value index="1">
              0
            </Value>
          </InformationKey>
        </DataArray>
        <DataArray type="Float64" Name="Sld_traction" NumberOfComponents="3" format="ascii" RangeMin="59.807767700662396" RangeMax="8729.863963889213">
          8277.814371098031 -2772.7809263723598 0 -3289.7983827291364 -1640.9349699403947 0
          3955.139901530352 -1852.7226530633063 0 1661.1340917377966 -908.833013951038 0
          3963.7985282081963 -1634.2220043365583 0 1194.251887906947 -651.3272371865456 0
          2882.0687973676568 -1197.1622609731717 0 489.139364464316 -312.76303516949537 0
          1869.3719662696456 -705.2710821680653 0 35.90853711459785 -47.828297477810615 0
          961.4723425977267 -331.70147327598835 0 -221.64399021708465 84.50534543125315 0
          247.89508763678757 -60.94225223000842 0
          <InformationKey name="L2_NORM_RANGE" location="vtkDataArray" length="2">
            <Value index="0">
              59.807767701
            </Value>
            <Value index="1">
              8729.8639639
            </Value>
          </InformationKey>
        </DataArray>
        <DataArray type="Float64" Name="Velocity" NumberOfComponents="3" format="ascii" RangeMin="0" RangeMax="7.033910178458826">
          0 0 0 0 0 0
          0.06981480999640524 -0.11314937259153524 0 -0.06873926097457192 -0.11262241787502497 0
          0.17163675480225798 -0.5770958133664279 0 -0.1664165234725205 -0.5818512878535782 0
          0.30084328920043824 -1.4758376053537257 0 -0.2682273860654566 -1.4853432735045833 0
          0.44533200547616414 -2.852241232317982 0 -0.36402938866770296 -2.867619562280911 0
          0.5944949656419526 -4.706704339437139 0 -0.44435675914224726 -4.726697423372885 0
          0.734560020341378 -6.995449519161921 0
          <InformationKey name="L2_NORM_RANGE" location="vtkDataArray" length="2">
            <Value index="0">
              0
            </Value>
            <Value index="1">
              7.0339101785
            </Value>
          </InformationKey>
        </DataArray>
        <DataArray type="Float64" Name="Acceleration" NumberOfComponents="3" format="ascii" RangeMin="0" RangeMax="345.9927750338783">
          0 0 0 0 0 0
          13.189761273582178 -30.82464880184682 0 -19.960126029885203 -32.11301710469104 0
          22.73315557989133 -125.99680383388022 0 -27.830484793345136 -126.19359894776335 0
          13.319099390293559 -227.08869170210437 0 -31.32079820453373 -223.45464823086786 0
          -12.746691619849798 -306.4138395294103 0 -39.798384231866294 -295.31286941888357 0
          -61.90996162262536 -340.4088086808697 0 -61.84522759188394 -318.6895315576221 0
          -135.32829363257906 -315.61200043160716 0
          <InformationKey name="L2_NORM_RANGE" location="vtkDataArray" length="2">
            <Value index="0">
              0
            </Value>
            <Value index="1">
              345.99277503
            </Value>
          </InformationKey>
        </DataArray>
        <DataArray type="Float64" Name="Sigma" NumberOfComponents="6" format="ascii" RangeMin="926.6048740041589" RangeMax="24755.282392023477">
          -15990.013410657686 15990.013410657213 0 10072.881840010701 0 0
          16838.66296551199 -16838.662965511725 0 -931.8133385291599 0 0
          -14458.331174101682 14458.33117410237 0 1987.1990505981125 0 0
          15255.175493059876 -15255.175493059762 0 -1708.2808173666717 0 0
          -9952.297503356485 9952.297503356354 0 4402.713355688364 0 0
          10280.507572594055 -10280.50757259415 0 -878.1278013341899 0 0
          -5814.023737667622 5814.023737668157 0 2446.727064890365 0 0
          6247.386162073349 -6247.386162073529 0 -214.11857829327607 0 0
          -2269.682529763562 2269.6825297630653 0 1812.454530350408 0 0
          2980.6050233549972 -2980.6050233553497 0 101.80136047173441 0 0
          114.86280949702575 -114.86280949656368 0 912.2552617098294 0 0
          784.7164867597094 -784.7164867595613 0 285.6917294456932 0 0
          1435.7084452894633 -1435.7084452896875 0 258.36573306880524 0 0
          <InformationKey name="L2_NORM_RANGE" location="vtkDataArray" length="2">
            <Value index="0">
              926.604874
            </Value>
            <Value index="1">
              24755.282392
            </Value>
          </InformationKey>
        </DataArray>
        <DataArray type="Float64" Name="Press" format="ascii" RangeMin="-16766.266463829652" RangeMax="18033.170692514057">
          -16228.583863232541 18033.170692514057 -16766.266463829652 16136.851106836726 -11452.31696090902 10946.860276722051
          -7009.705829770675 6536.99750340818 -2904.4985046136385 3006.104961093025 -189.38428967528282 688.9543489425791
          1402.2832212918777
        </DataArray>
        <DataArray type="Float64" Name="Dev strain" NumberOfComponents="6" format="ascii" RangeMin="0" RangeMax="0">
          0 0 0 0 0 0
          0 0 0 0 0 0
          0 0 0 0 0 0
          0 0 0 0 0 0
          0 0 0 0 0 0
          0 0 0 0 0 0
          0 0 0 0 0 0
          0 0 0 0 0 0
          0 0 0 0 0 0
          0 0 0 0 0 0
          0 0 0 0 0 0
          0 0 0 0 0 0
          0 0 0 0 0 0
          <InformationKey name="L2_NORM_RANGE" location="vtkDataArray" length="2">
            <Value index="0">
              0
            </Value>
            <Value index="1">
              0
            </Value>
          </InformationKey>
        </DataArray>
        <DataArray type="Float64" Name="J2 Stresses" format="ascii" RangeMin="221245.8806348143" RangeMax="283757639.4905658">
          281046266.0137095 283757639.4905658 210030580.35668498 233449935.1617986 103894196.8184036 105881613.05903369
          35299490.35468246 39041295.549459286 5972706.642059724 8886597.184498567 221245.8806348143 636184.9056608027
          2077946.9528818545
        </DataArray>
      </PointData>
      <CellData>
        <DataArray type="UInt8" Name="vtkGhostType" format="ascii" RangeMin="0" RangeMax="0">
          0 0 0 0 0 0
          0 0 0 0 0
        </DataArray>
        <DataArray type="Float64" Name="Gauss Stress" NumberOfComponents="6" format="ascii" RangeMin="1020.2623804679558" RangeMax="11682.037046190397">
          11679.754206663772 -77.25064964932778 0 -217.6317017659066 0 0
          -9523.787084598509 -450.66600510009283 0 3709.4225173598843 0 0
          10404.92666164907 16.00295345073414 0 605.4349123291671 0 0
          -7079.061834100086 -975.4263778343282 0 1560.5438629732685 0 0
          7062.673982453113 -79.90601554665486 0 451.49356175429966 0 0
          -4333.658727462569 -676.4496151757612 0 1990.43753974818 0 0
          4532.304205184117 -106.56823192608272 0 566.712437509622 0 0
          -1737.8423121113237 -513.6289085394801 0 1348.354338982499 0 0
          2461.9531133240184 -124.8364330837177 0 433.2494505424189 0 0
          246.00248996418804 -304.52104542824816 0 942.170384177324 0 0
          1412.3803407017913 -144.47815366221286 0 485.4375747414425 0 0
          <InformationKey name="L2_NORM_RANGE" location="vtkDataArray" length="2">
            <Value index="0">
              1020.2623805
            </Value>
            <Value index="1">
              11682.037046
            </Value>
          </InformationKey>
        </DataArray>
        <DataArray type="Float64" Name="Gauss Strain" NumberOfComponents="6" format="ascii" RangeMin="0" RangeMax="0">
          0 0 0 0 0 0
          0 0 0 0 0 0
          0 0 0 0 0 0
          0 0 0 0 0 0
          0 0 0 0 0 0
          0 0 0 0 0 0
          0 0 0 0 0 0
          0 0 0 0 0 0
          0 0 0 0 0 0
          0 0 0 0 0 0
          0 0 0 0 0 0
          <InformationKey name="L2_NORM_RANGE" location="vtkDataArray" length="2">
            <Value index="0">
              0
            </Value>
            <Value index="1">
              0
            </Value>
          </InformationKey>
        </DataArray>
      </CellData>
      <Points>
        <DataArray type="Float32" Name="Points" NumberOfComponents="3" format="ascii" RangeMin="0" RangeMax="0.6020797527609908">
          0 0.05000000074505806 0 0 0 0
          0.10000000149011612 0.05000000074505806 0 0.10000000149011612 0 0
          0.20000000298023224 0.05000000074505806 0 0.20000000298023224 0 0
          0.30000001192092896 0.05000000074505806 0 0.30000001192092896 0 0
          0.4000000059604645 0.05000000074505806 0 0.4000000059604645 0 0
          0.5 0.05000000074505806 0 0.5 0 0
          0.6000000238418579 0.05000000074505806 0
          <InformationKey name="L2_NORM_RANGE" location="vtkDataArray" length="2">
            <Value index="0">
              0
            </Value>
            <Value index="1">
              0.60207975276
            </Value>
          </InformationKey>
        </DataArray>
      </Points>
      <Cells>
        <DataArray type="Int64" Name="connectivity" format="ascii" RangeMin="0" RangeMax="12">
          3 2 1 2 0 1
          5 4 3 4 2 3
          7 6 5 6 4 5
          9 8 7 8 6 7
          11 10 9 10 8 9
          12 10 11
        </DataArray>
        <DataArray type="Int64" Name="offsets" format="ascii" RangeMin="3" RangeMax="33">
          3 6 9 12 15 18
          21 24 27 30 33
        </DataArray>
        <DataArray type="UInt8" Name="types" format="ascii" RangeMin="5" RangeMax="5">
          5 5 5 5 5 5
          5 5 5 5 5
        </DataArray>
      </Cells>
    </Piece>
  </UnstructuredGrid>
</VTKFile>
