<?xml version="1.0"?>
<VTKFile type="UnstructuredGrid" version="0.1" byte_order="LittleEndian" header_type="UInt32" compressor="vtkZLibDataCompressor">
  <UnstructuredGrid>
    <Piece NumberOfPoints="13" NumberOfCells="11">
      <PointData>
        <DataArray type="Float64" Name="Disp" NumberOfComponents="3" format="ascii" RangeMin="0" RangeMax="0.036212983501140564">
          0 0 0 0 0 0
          0.00042381138462228304 -0.0007263347568333311 0 -0.0004233906659355088 -0.0007146046699575159 0
          0.0009084173585521183 -0.0034960876741670526 0 -0.0010168780784026098 -0.00346369863286271 0
          0.0013454120609805646 -0.008490486613279138 0 -0.0017005425065091352 -0.008398712778239443 0
          0.0016257006357129227 -0.015726154527503623 0 -0.002504049834911413 -0.015558383544578723 0
          0.0016809045359769694 -0.025054554603616216 0 -0.003424666775162089 -0.0247958114260697 0
          0.001465130984662171 -0.03618333269962375 0
          <InformationKey name="L2_NORM_RANGE" location="vtkDataArray" length="2">
            <Value index="0">
              0
            </Value>
            <Value index="1">
              0.036212983501
            </Value>
          </InformationKey>
        </DataArray>
        <DataArray type="Float64" Name="Nodal Stress" NumberOfComponents="6" format="ascii" RangeMin="25129.997232844187" RangeMax="52267.27751103229">
          51220.887962749795 404.9194854557711 0 -10398.315966203068 0 0
          -27612.70276258055 -2952.831622273834 0 2978.0650093875056 0 0
          41065.22346977122 2094.341185563017 0 -2315.585065356186 0 0
          -36871.84164156253 -2256.4280648033773 0 4008.4947845179395 0 0
          38181.466184870784 1653.6795396492391 0 -4407.149153626934 0 0
          -37865.0450148345 -2675.525936448645 0 4025.1363456657323 0 0
          38539.50362987321 2248.085425469794 0 -5393.892234656452 0 0
          -37271.71987725504 -2348.5938316930947 0 4366.826137803744 0 0
          35710.13916577666 2742.9227078539157 0 -6799.300212698486 0 0
          -35176.84199901873 -2008.165793533237 0 4092.5449132836466 0 0
          30794.0176659254 3256.7428981626654 0 -7582.500558905976 0 0
          -30754.496351775328 -1329.7682986665218 0 3389.912403966177 0 0
          23697.1365330497 3512.0502156036005 0 -7591.309790796073 0 0
          <InformationKey name="L2_NORM_RANGE" location="vtkDataArray" length="2">
            <Value index="0">
              25129.997233
            </Value>
            <Value index="1">
              52267.277511
            </Value>
          </InformationKey>
        </DataArray>
        <DataArray type="Float64" Name="Nodal Strain" NumberOfComponents="6" format="ascii" RangeMin="0" RangeMax="0">
          0 0 0 0 0 0
          0 0 0 0 0 0
          0 0 0 0 0 0
          0 0 0 0 0 0
          0 0 0 0 0 0
          0 0 0 0 0 0
          0 0 0 0 0 0
          0 0 0 0 0 0
          0 0 0 0 0 0
          0 0 0 0 0 0
          0 0 0 0 0 0
          0 0 0 0 0 0
          0 0 0 0 0 0
          <InformationKey name="L2_NORM_RANGE" location="vtkDataArray" length="2">
            <Value index="0">
              0
            </Value>
            <Value index="1">
              0
            </Value>
          </InformationKey>
        </DataArray>
        <DataArray type="Float64" Name="Sld_traction" NumberOfComponents="3" format="ascii" RangeMin="7039.497018141677" RangeMax="21528.216739670366">
          -20630.516070852565 6151.9039849885 0 6984.635427041383 5101.140167642989 0
          -8081.414782690271 6312.391361875432 0 -9021.672166503653 6684.432057735037 0
          -7777.9393229352245 5567.900910460006 0 -8599.689529854384 6578.748393700523 0
          -8215.921564456516 5985.36356887868 0 -7986.657924053808 6321.797556225013 0
          -8860.64593258787 6205.718650198498 0 -6860.085434454182 5695.0166269195015 0
          -9206.693953009319 6198.232052117316 0 -5344.49364504883 4581.5833449210795 0
          -9024.217892092758 5763.254139215145 0
          <InformationKey name="L2_NORM_RANGE" location="vtkDataArray" length="2">
            <Value index="0">
              7039.4970181
            </Value>
            <Value index="1">
              21528.21674
            </Value>
          </InformationKey>
        </DataArray>
        <DataArray type="Float64" Name="Velocity" NumberOfComponents="3" format="ascii" RangeMin="0" RangeMax="7.784854147139059">
          0 0 0 0 0 0
          -0.1528490259105177 0.31017317474032813 0 0.18559805544717567 0.3065456631908645 0
          -0.2771249876821551 1.3388618723731391 0 0.34285739966018547 1.3185432004127215 0
          -0.2820441736056568 2.7603846778625734 0 0.4806376074030825 2.7152577394685595 0
          -0.2031532832294256 4.395313984154107 0 0.6300105395418594 4.326568743926783 0
          -0.05087394908845977 6.100451029211449 0 0.7931907950580173 6.012213209733286 0
          0.14967502518401776 7.783415155255717 0
          <InformationKey name="L2_NORM_RANGE" location="vtkDataArray" length="2">
            <Value index="0">
              0
            </Value>
            <Value index="1">
              7.7848541471
            </Value>
          </InformationKey>
        </DataArray>
        <DataArray type="Float64" Name="Acceleration" NumberOfComponents="3" format="ascii" RangeMin="0" RangeMax="958.4294205538836">
          0 0 0 0 0 0
          49.76970960076994 -121.61881276076656 0 -73.76831223230465 -118.18797296716457 0
          57.50462238984164 -468.89585260659624 0 -116.47148289536153 -452.4934677401998 0
          -8.113532783245091 -789.9829386839483 0 -130.8158217574255 -767.4350564610577 0
          -98.36290611056779 -953.3686028419106 0 -123.92788677158751 -935.0982239299628 0
          -181.78767378731732 -883.0138449596052 0 -85.11648945731213 -878.4486758508938 0
          -230.39060774481712 -557.3962204887939 0
          <InformationKey name="L2_NORM_RANGE" location="vtkDataArray" length="2">
            <Value index="0">
              0
            </Value>
            <Value index="1">
              958.42942055
            </Value>
          </InformationKey>
        </DataArray>
        <DataArray type="Float64" Name="Sigma" NumberOfComponents="6" format="ascii" RangeMin="51140.267475526685" RangeMax="81171.24188946489">
          48137.86277821995 -48137.86277821983 0 -24057.1013177231 0 0
          -51887.449102457314 51887.44910245731 0 12445.225635805242 0 0
          57243.66050060552 -57243.6605006056 0 -5924.286865171317 0 0
          -54153.96014384045 54153.96014384065 0 10095.89450251627 0 0
          53683.983778951 -53683.98377895063 0 -13091.180736742115 0 0
          -53462.59280371436 53462.592803714484 0 13258.039051759486 0 0
          54259.513370006265 -54259.51337000631 0 -14960.455112793039 0 0
          -52900.708964759506 52900.708964760095 0 14960.13121015749 0 0
          50452.05783200788 -50452.057832009465 0 -18089.025271165254 0 0
          -48850.26827120856 48850.268271207584 0 15708.323729611531 0 0
          43628.592518522695 -43628.592518521305 0 -19206.336874872126 0 0
          -41807.38481803102 41807.3848180318 0 14716.889388741673 0 0
          33765.646218366826 -33765.64621836922 0 -18305.442589034305 0 0
          <InformationKey name="L2_NORM_RANGE" location="vtkDataArray" length="2">
            <Value index="0">
              51140.267476
            </Value>
            <Value index="1">
              81171.241889
            </Value>
          </InformationKey>
        </DataArray>
        <DataArray type="Float64" Name="Press" format="ascii" RangeMin="-60703.85477102588" RangeMax="65362.86452626047">
          49216.62476290645 -60544.49915566233 65362.86452626047 -60497.442971926066 58956.43722051619 -60703.85477102588
          61415.25985307948 -60169.95462313981 58141.479838422296 -55973.606056501885 51931.701658965576 -47980.66739592025
          41841.63068129661
        </DataArray>
        <DataArray type="Float64" Name="Dev strain" NumberOfComponents="6" format="ascii" RangeMin="0" RangeMax="0">
          0 0 0 0 0 0
          0 0 0 0 0 0
          0 0 0 0 0 0
          0 0 0 0 0 0
          0 0 0 0 0 0
          0 0 0 0 0 0
          0 0 0 0 0 0
          0 0 0 0 0 0
          0 0 0 0 0 0
          0 0 0 0 0 0
          0 0 0 0 0 0
          0 0 0 0 0 0
          0 0 0 0 0 0
          <InformationKey name="L2_NORM_RANGE" location="vtkDataArray" length="2">
            <Value index="0">
              0
            </Value>
            <Value index="1">
              0
            </Value>
          </InformationKey>
        </DataArray>
        <DataArray type="Float64" Name="J2 Stresses" format="ascii" RangeMin="1223891171.6390991" RangeMax="3285610961.2237997">
          2461939863.807527 2731028284.6416235 3285610961.2237997 2958133170.712156 2924814867.649166 2902192729.170272
          3000048595.445365 2854436390.4305 2627213348.2995615 2448036568.7675676 1995674929.1850019 1802004133.6430774
          1223891171.6390991
        </DataArray>
      </PointData>
      <CellData>
        <DataArray type="UInt8" Name="vtkGhostType" format="ascii" RangeMin="0" RangeMax="0">
          0 0 0 0 0 0
          0 0 0 0 0
        </DataArray>
        <DataArray type="Float64" Name="Gauss Stress" NumberOfComponents="6" format="ascii" RangeMin="28375.246807801264" RangeMax="40376.726684665446">
          -34825.60878234006 -2293.776285211853 0 5538.944424383399 0 0
          35843.021436624265 180.30531904548752 0 -5845.387515696391 0 0
          -38725.8098970132 -2770.7637846104176 0 3420.9176058445487 0 0
          40198.514303522235 2349.391546378341 0 -2973.191033132389 0 0
          -37187.44597985127 -2451.587047539316 0 4419.238383041313 0 0
          38049.582215937575 1728.979319109113 0 -4931.19893259189 0 0
          -36433.6667483932 -2234.3871457537316 0 4193.143222867924 0 0
          37065.88243520555 2525.307610368764 0 -6029.783057933601 0 0
          -33017.210788057826 -1664.5037409128286 0 3739.625414493693 0 0
          33109.98584006935 2956.397787187608 0 -7195.679472141953 0 0
          27126.506287733493 3401.9370084944044 0 -7598.296691721587 0 0
          <InformationKey name="L2_NORM_RANGE" location="vtkDataArray" length="2">
            <Value index="0">
              28375.246808
            </Value>
            <Value index="1">
              40376.726685
            </Value>
          </InformationKey>
        </DataArray>
        <DataArray type="Float64" Name="Gauss Strain" NumberOfComponents="6" format="ascii" RangeMin="0" RangeMax="0">
          0 0 0 0 0 0
          0 0 0 0 0 0
          0 0 0 0 0 0
          0 0 0 0 0 0
          0 0 0 0 0 0
          0 0 0 0 0 0
          0 0 0 0 0 0
          0 0 0 0 0 0
          0 0 0 0 0 0
          0 0 0 0 0 0
          0 0 0 0 0 0
          <InformationKey name="L2_NORM_RANGE" location="vtkDataArray" length="2">
            <Value index="0">
              0
            </Value>
            <Value index="1">
              0
            </Value>
          </InformationKey>
        </DataArray>
      </CellData>
      <Points>
        <DataArray type="Float32" Name="Points" NumberOfComponents="3" format="ascii" RangeMin="0" RangeMax="0.6020797527609908">
          0 0.05000000074505806 0 0 0 0
          0.10000000149011612 0.05000000074505806 0 0.10000000149011612 0 0
          0.20000000298023224 0.05000000074505806 0 0.20000000298023224 0 0
          0.30000001192092896 0.05000000074505806 0 0.30000001192092896 0 0
          0.4000000059604645 0.05000000074505806 0 0.4000000059604645 0 0
          0.5 0.05000000074505806 0 0.5 0 0
          0.6000000238418579 0.05000000074505806 0
          <InformationKey name="L2_NORM_RANGE" location="vtkDataArray" length="2">
            <Value index="0">
              0
            </Value>
            <Value index="1">
              0.60207975276
            </Value>
          </InformationKey>
        </DataArray>
      </Points>
      <Cells>
        <DataArray type="Int64" Name="connectivity" format="ascii" RangeMin="0" RangeMax="12">
          3 2 1 2 0 1
          5 4 3 4 2 3
          7 6 5 6 4 5
          9 8 7 8 6 7
          11 10 9 10 8 9
          12 10 11
        </DataArray>
        <DataArray type="Int64" Name="offsets" format="ascii" RangeMin="3" RangeMax="33">
          3 6 9 12 15 18
          21 24 27 30 33
        </DataArray>
        <DataArray type="UInt8" Name="types" format="ascii" RangeMin="5" RangeMax="5">
          5 5 5 5 5 5
          5 5 5 5 5
        </DataArray>
      </Cells>
    </Piece>
  </UnstructuredGrid>
</VTKFile>
