<?xml version="1.0"?>
<VTKFile type="UnstructuredGrid" version="0.1" byte_order="LittleEndian" header_type="UInt32" compressor="vtkZLibDataCompressor">
  <UnstructuredGrid>
    <Piece NumberOfPoints="13" NumberOfCells="11">
      <PointData>
        <DataArray type="Float64" Name="Disp" NumberOfComponents="3" format="ascii" RangeMin="0.0417878707073681" RangeMax="0.150104319563629">
          -0.008674599165970095 -0.058600971209845074 0 -0.0013359138421925737 -0.0774912185520814 0
          -0.010414966614075087 -0.07666081316334529 0 -0.0030043302190503646 -0.0957209613277503 0
          -0.012095853210271283 -0.0948870049856185 0 -0.004693246194921889 -0.11386602304149314 0
          -0.013732132913941443 -0.11304133304487596 0 -0.0063556078026232345 -0.13189461024991814 0
          -0.015357312268453507 -0.1310766539890359 0 -0.007989978978276847 -0.14989151739703868 0
          -0.016989213720303913 -0.14907519306244393 0 0.000213073930436832 -0.059395994754882685 0
          -0.00689901010571934 -0.04121443676452337 0
          <InformationKey name="L2_NORM_RANGE" location="vtkDataArray" length="2">
            <Value index="0">
              0.041787870707
            </Value>
            <Value index="1">
              0.15010431956
            </Value>
          </InformationKey>
        </DataArray>
        <DataArray type="Float64" Name="Nodal Stress" NumberOfComponents="6" format="ascii" RangeMin="130.61506651658442" RangeMax="35107.986428338794">
          -19448.050089516633 463.4639623753829 0 1547.6291255561762 0 0
          8049.011485905681 3701.4523890923133 0 -5960.956326300896 0 0
          -8924.608952053546 536.3826500484631 0 294.1665304879937 0 0
          2802.0263771931723 1837.2632384505898 0 -2794.459028451438 0 0
          -2818.4542378286533 367.09133746440284 0 -174.64237824675652 0 0
          622.218767342781 609.394580096845 0 -911.1956692791906 0 0
          -165.71673991047248 94.60807149307942 0 -156.73208376110588 0 0
          86.49191155158799 37.35446979305115 0 -90.46595173745798 0 0
          424.3524176821881 -31.86488950962072 0 -39.611146223258544 0 0
          -10.040415473360577 -90.31711140715865 0 125.97582237537544 0 0
          209.24153450851617 -23.39513095253809 0 -10.872061684863308 0 0
          17771.847924809314 6018.400951916951 0 -10314.958921000829 0 0
          -34945.184321175664 -152.57095508902623 0 3373.651718115366 0 0
          <InformationKey name="L2_NORM_RANGE" location="vtkDataArray" length="2">
            <Value index="0">
              130.61506652
            </Value>
            <Value index="1">
              35107.986428
            </Value>
          </InformationKey>
        </DataArray>
        <DataArray type="Float64" Name="Nodal Strain" NumberOfComponents="6" format="ascii" RangeMin="0" RangeMax="0">
          0 0 0 0 0 0
          0 0 0 0 0 0
          0 0 0 0 0 0
          0 0 0 0 0 0
          0 0 0 0 0 0
          0 0 0 0 0 0
          0 0 0 0 0 0
          0 0 0 0 0 0
          0 0 0 0 0 0
          0 0 0 0 0 0
          0 0 0 0 0 0
          0 0 0 0 0 0
          0 0 0 0 0 0
          <InformationKey name="L2_NORM_RANGE" location="vtkDataArray" length="2">
            <Value index="0">
              0
            </Value>
            <Value index="1">
              0
            </Value>
          </InformationKey>
        </DataArray>
        <DataArray type="Float64" Name="Sld_traction" NumberOfComponents="3" format="ascii" RangeMin="13.932396790431284" RangeMax="13957.461786747923">
          -1841.9954148542554 1954.8838401686921 0 -7163.37393484152 4473.468001386794 0
          -626.2384028504663 739.1944845001474 0 -3542.5350212821077 2166.9488565241563 0
          -68.66626180563456 177.66312570051036 0 -1219.4445150428762 720.9919940384839 0
          20.25082461364694 46.03247480675711 0 -134.82664804879087 67.7412764772569 0
          10.824520473748532 22.44652185229475 0 1.4761517475062351 17.87395495757866 0
          -0.1808655271872811 13.931222774297137 0 -11746.58106322024 7538.472846255015 0
          -3806.3996923940535 4019.5656490749793 0
          <InformationKey name="L2_NORM_RANGE" location="vtkDataArray" length="2">
            <Value index="0">
              13.93239679
            </Value>
            <Value index="1">
              13957.461787
            </Value>
          </InformationKey>
        </DataArray>
        <DataArray type="Float64" Name="Velocity" NumberOfComponents="3" format="ascii" RangeMin="1.6502975031254308" RangeMax="8.967766892489262">
          0.6350859404339273 2.519976536964503 0 0.2895818529608205 3.719197946485629 0
          0.8704691650077487 3.61189515398587 0 0.4860835083858086 4.945465532447422 0
          1.1172619137335946 4.830092084597403 0 0.7051978065936506 6.246175807119904 0
          1.363706517100006 6.127637660058916 0 0.9388494238500762 7.575435911106069 0
          1.6002117873299486 7.457365662035485 0 1.178455575247737 8.889999184206602 0
          1.8331769717930069 8.772758060170105 0 0.12606275198079622 2.6132218994357856 0
          0.4259972545998698 1.5943676451481963 0
          <InformationKey name="L2_NORM_RANGE" location="vtkDataArray" length="2">
            <Value index="0">
              1.6502975031
            </Value>
            <Value index="1">
              8.9677668925
            </Value>
          </InformationKey>
        </DataArray>
        <DataArray type="Float64" Name="Acceleration" NumberOfComponents="3" format="ascii" RangeMin="220.04392993521174" RangeMax="1902.1081108945837">
          222.4911553562397 1889.050806971376 0 243.16324244608882 1748.0087301441235 0
          118.7979131964803 1780.2102231190802 0 204.98073154782332 1371.5729175180459 0
          -22.90753026109087 1425.608801505543 0 111.8298796179306 830.5315018595575 0
          -178.4527130420829 897.1574413283088 0 -20.836284349154084 219.05519933535834 0
          -320.10228930216545 287.18255587495514 0 -166.44042494401037 -361.45216007350245 0
          -451.21595368333874 -294.96889572098735 0 216.65991987954817 1884.384558354337 0
          272.03403383530076 1722.7757412603823 0
          <InformationKey name="L2_NORM_RANGE" location="vtkDataArray" length="2">
            <Value index="0">
              220.04392994
            </Value>
            <Value index="1">
              1902.1081109
            </Value>
          </InformationKey>
        </DataArray>
        <DataArray type="Float64" Name="Sigma" NumberOfComponents="6" format="ascii" RangeMin="70.09806495527796" RangeMax="63076.10205935041">
          -22860.706559190265 22860.70655919191 0 10768.314878313882 0 0
          10642.141892496726 -10642.141892500571 0 -12352.006408073104 0 0
          -9846.608388776056 9846.608388778133 0 4450.546866329889 0 0
          3338.5361560468527 -3338.5361560438337 0 -5151.150009470466 0 0
          -2800.1819343538455 2800.1819343472525 0 1071.5132294447465 0 0
          408.4835955180892 -408.48359552421635 0 -1317.5013007494215 0 0
          41.0452105817836 -41.04521057836098 0 -39.29783820198526 0 0
          -193.21126016116727 193.21126015752748 0 56.262475318207436 0 0
          561.9173194846405 -561.917319488678 0 -194.3342655953832 0 0
          -160.34293646572883 160.34293647937656 0 361.36962848072926 0 0
          31.849473947772534 -31.849473960229474 0 -105.26180481239963 0 0
          24275.075583855807 -24275.075583857666 0 -22679.492141177514 0 0
          -42386.31456907869 42386.31456908332 0 19631.48811230088 0 0
          <InformationKey name="L2_NORM_RANGE" location="vtkDataArray" length="2">
            <Value index="0">
              70.098064955
            </Value>
            <Value index="1">
              63076.102059
            </Value>
          </InformationKey>
        </DataArray>
        <DataArray type="Float64" Name="Press" format="ascii" RangeMin="-49878.87349785833" RangeMax="36117.94981608119">
          -26612.844993802915 17310.79807736337 -11328.296930071336 6355.811684096894 -3095.7775853212397 1237.1302388199115
          10.341378396319111 -216.41605064773933 566.2766210340633 -348.6522268264452 77.03420645599495 36117.94981608119
          -49878.87349785833
        </DataArray>
        <DataArray type="Float64" Name="Dev strain" NumberOfComponents="6" format="ascii" RangeMin="0" RangeMax="0">
          0 0 0 0 0 0
          0 0 0 0 0 0
          0 0 0 0 0 0
          0 0 0 0 0 0
          0 0 0 0 0 0
          0 0 0 0 0 0
          0 0 0 0 0 0
          0 0 0 0 0 0
          0 0 0 0 0 0
          0 0 0 0 0 0
          0 0 0 0 0 0
          0 0 0 0 0 0
          0 0 0 0 0 0
          <InformationKey name="L2_NORM_RANGE" location="vtkDataArray" length="2">
            <Value index="0">
              0
            </Value>
            <Value index="1">
              0
            </Value>
          </InformationKey>
        </DataArray>
        <DataArray type="Float64" Name="J2 Stresses" format="ascii" RangeMin="2070.789333399832" RangeMax="1892948494.1249413">
          551601055.7150714 151398199.6363445 101907538.61428517 17779410.270238914 8128054.01568196 600811.267178993
          2070.789333399832 38121.95758459599 325192.52563519654 58356.85937371614 3784.4008792375184 717869135.5473906
          1892948494.1249413
        </DataArray>
      </PointData>
      <CellData>
        <DataArray type="UInt8" Name="vtkGhostType" format="ascii" RangeMin="0" RangeMax="1">
          1 1 0 0 0 0
          0 0 0 0 0
        </DataArray>
        <DataArray type="Float64" Name="Gauss Stress" NumberOfComponents="6" format="ascii" RangeMin="123.24105857414708" RangeMax="27237.813252778564">
          -27115.238073331067 199.39228961250456 0 2573.436949812417 0 0
          12957.471272267976 4919.797327491773 0 -8087.727890312246 0 0
          -14231.838967326827 478.2764029861962 0 955.6184455235566 0 0
          -5792.17233279291 413.3304452619571 0 123.63669543472315 0 0
          5490.79416371882 2734.74772387422 0 -4350.869850404561 0 0
          -1399.6530321196606 167.4490533798887 0 -95.0953031688868 0 0
          1814.667384935554 1183.4421734582559 0 -1799.046026925047 0 0
          256.6510728959668 -16.516440375622793 0 -59.12320949305369 0 0
          429.1243708357321 258.2460068744805 0 -433.51222121106633 0 0
          242.6941525434324 -46.255085435305936 0 20.591186024315462 0 0
          69.85715547254097 -69.05159309729844 0 74.4326127345179 0 0
          <InformationKey name="L2_NORM_RANGE" location="vtkDataArray" length="2">
            <Value index="0">
              123.24105857
            </Value>
            <Value index="1">
              27237.813253
            </Value>
          </InformationKey>
        </DataArray>
        <DataArray type="Float64" Name="Gauss Strain" NumberOfComponents="6" format="ascii" RangeMin="0" RangeMax="0">
          0 0 0 0 0 0
          0 0 0 0 0 0
          0 0 0 0 0 0
          0 0 0 0 0 0
          0 0 0 0 0 0
          0 0 0 0 0 0
          0 0 0 0 0 0
          0 0 0 0 0 0
          0 0 0 0 0 0
          0 0 0 0 0 0
          0 0 0 0 0 0
          <InformationKey name="L2_NORM_RANGE" location="vtkDataArray" length="2">
            <Value index="0">
              0
            </Value>
            <Value index="1">
              0
            </Value>
          </InformationKey>
        </DataArray>
      </CellData>
      <Points>
        <DataArray type="Float32" Name="Points" NumberOfComponents="3" format="ascii" RangeMin="0.4000000059604645" RangeMax="1.0012492197622458">
          0.5 0 0 0.6000000238418579 0.05000000074505806 0
          0.6000000238418579 0 0 0.699999988079071 0.05000000074505806 0
          0.699999988079071 0 0 0.800000011920929 0.05000000074505806 0
          0.800000011920929 0 0 0.8999999761581421 0.05000000074505806 0
          0.8999999761581421 0 0 1 0.05000000074505806 0
          1 0 0 0.5 0.05000000074505806 0
          0.4000000059604645 0 0
          <InformationKey name="L2_NORM_RANGE" location="vtkDataArray" length="2">
            <Value index="0">
              0.40000000596
            </Value>
            <Value index="1">
              1.0012492198
            </Value>
          </InformationKey>
        </DataArray>
      </Points>
      <Cells>
        <DataArray type="Int64" Name="connectivity" format="ascii" RangeMin="0" RangeMax="12">
          0 11 12 1 11 0
          2 1 0 4 3 2
          3 1 2 6 5 4
          5 3 4 8 7 6
          7 5 6 10 9 8
          9 7 8
        </DataArray>
        <DataArray type="Int64" Name="offsets" format="ascii" RangeMin="3" RangeMax="33">
          3 6 9 12 15 18
          21 24 27 30 33
        </DataArray>
        <DataArray type="UInt8" Name="types" format="ascii" RangeMin="5" RangeMax="5">
          5 5 5 5 5 5
          5 5 5 5 5
        </DataArray>
      </Cells>
    </Piece>
  </UnstructuredGrid>
</VTKFile>
