<?xml version="1.0"?>
<VTKFile type="UnstructuredGrid" version="0.1" byte_order="LittleEndian" header_type="UInt32" compressor="vtkZLibDataCompressor">
  <UnstructuredGrid>
    <Piece NumberOfPoints="13" NumberOfCells="11">
      <PointData>
        <DataArray type="Float64" Name="Disp" NumberOfComponents="3" format="ascii" RangeMin="0" RangeMax="0.07840172268167243">
          0 0 0 0 0 0
          0.0013073082644213 -0.0025600438608122276 0 -0.0014980689136953854 -0.0024983380185557 0
          0.002256211757259919 -0.011238172455309886 0 -0.0031856579171895332 -0.010967172830459986 0
          0.002353169514355099 -0.024260427052861588 0 -0.004921652211128205 -0.02373378990139085 0
          0.0017176908765118614 -0.04042345315315892 0 -0.0068763023284083525 -0.03968729319422069 0
          0.00048819784109109245 -0.058722873269132704 0 -0.008984665707322028 -0.05782028345474784 0
          -0.001180194049745089 -0.07839283935066274 0
          <InformationKey name="L2_NORM_RANGE" location="vtkDataArray" length="2">
            <Value index="0">
              0
            </Value>
            <Value index="1">
              0.078401722682
            </Value>
          </InformationKey>
        </DataArray>
        <DataArray type="Float64" Name="Nodal Stress" NumberOfComponents="6" format="ascii" RangeMin="21765.613577298114" RangeMax="151141.30784852104">
          145183.29703829432 -4039.4258469457077 0 -41823.29779057164 0 0
          -77322.90439564554 -13420.77381952543 0 -1299.0330274654896 0 0
          103013.38805382795 7016.834480052074 0 -17684.517269383945 0 0
          -94520.45423780632 -2234.8548034347086 0 7011.958189857994 0 0
          76811.6862368327 8642.040684522835 0 -22479.964112531976 0 0
          -80955.06712597617 -3902.0079280793716 0 7537.383259365189 0 0
          61754.96633792326 9155.36172557708 0 -20204.673050414265 0 0
          -63157.84809101422 -2480.1202657757303 0 8205.978913123845 0 0
          44170.86613077251 8680.452471587641 0 -17472.378493594355 0 0
          -47222.3035130018 -1874.6200247744293 0 6683.047766883655 0 0
          30197.46468701095 7436.862529035255 0 -13587.89260273538 0 0
          -32723.969820412796 -928.0739533202687 0 4805.283064555694 0 0
          18571.72258004456 5756.020038325357 0 -9782.703518175538 0 0
          <InformationKey name="L2_NORM_RANGE" location="vtkDataArray" length="2">
            <Value index="0">
              21765.613577
            </Value>
            <Value index="1">
              151141.30785
            </Value>
          </InformationKey>
        </DataArray>
        <DataArray type="Float64" Name="Nodal Strain" NumberOfComponents="6" format="ascii" RangeMin="0" RangeMax="0">
          0 0 0 0 0 0
          0 0 0 0 0 0
          0 0 0 0 0 0
          0 0 0 0 0 0
          0 0 0 0 0 0
          0 0 0 0 0 0
          0 0 0 0 0 0
          0 0 0 0 0 0
          0 0 0 0 0 0
          0 0 0 0 0 0
          0 0 0 0 0 0
          0 0 0 0 0 0
          0 0 0 0 0 0
          <InformationKey name="L2_NORM_RANGE" location="vtkDataArray" length="2">
            <Value index="0">
              0
            </Value>
            <Value index="1">
              0
            </Value>
          </InformationKey>
        </DataArray>
        <DataArray type="Float64" Name="Sld_traction" NumberOfComponents="3" format="ascii" RangeMin="5912.700570122691" RangeMax="69624.37244397514">
          -67125.77744634154 18484.67582733301 0 24974.653295346587 21551.43605420645 0
          -27456.65551448171 18399.760732571613 0 -17124.911379633766 14340.542628617668 0
          -23980.120490185775 14896.839566329556 0 -12366.953483762989 11588.17785434054 0
          -20410.088825350726 13987.237458816198 0 -9015.954907618512 9087.391226521328 0
          -17108.76585963038 12017.352432835043 0 -6157.970694459344 6654.661803279026 0
          -13521.408588608403 9700.765562651231 0 -3978.963191263772 4373.54318082001 0
          -10141.85766217484 7174.493230626551 0
          <InformationKey name="L2_NORM_RANGE" location="vtkDataArray" length="2">
            <Value index="0">
              5912.7005701
            </Value>
            <Value index="1">
              69624.372444
            </Value>
          </InformationKey>
        </DataArray>
        <DataArray type="Float64" Name="Velocity" NumberOfComponents="3" format="ascii" RangeMin="0" RangeMax="3.4798843400663917">
          0 0 0 0 0 0
          -0.06407711768741453 0.12835044715137434 0 0.0712767213148564 0.12246656528251365 0
          -0.0854133429838384 0.5433763357253083 0 0.16995648341128788 0.516972097940168 0
          -0.04633032480500665 1.1518233467885608 0 0.2841818652604329 1.102953990390036 0
          0.04934717592456073 1.8740854522306734 0 0.422759483060962 1.8087469297801455 0
          0.18296879613357725 2.655077226544954 0 0.5782288483172291 2.5783710215558564 0
          0.34001584281058783 3.463233207116886 0
          <InformationKey name="L2_NORM_RANGE" location="vtkDataArray" length="2">
            <Value index="0">
              0
            </Value>
            <Value index="1">
              3.4798843401
            </Value>
          </InformationKey>
        </DataArray>
        <DataArray type="Float64" Name="Acceleration" NumberOfComponents="3" format="ascii" RangeMin="0" RangeMax="1049.6321018031997">
          0 0 0 0 0 0
          -32.99751195215026 74.98715839197575 0 44.51502922484292 71.86880570372114 0
          -39.54178723372161 300.371273888979 0 84.78702628858719 288.0203990853988 0
          -9.085925568593211 561.634832559419 0 114.52917849216192 544.7831540275292 0
          36.24213327105144 792.474550363906 0 136.01794610913748 777.4157464251402 0
          79.28197799185762 957.0468179423624 0 143.26273564311305 947.7086458740014 0
          109.16785011815273 1043.9396197273018 0
          <InformationKey name="L2_NORM_RANGE" location="vtkDataArray" length="2">
            <Value index="0">
              0
            </Value>
            <Value index="1">
              1049.6321018
            </Value>
          </InformationKey>
        </DataArray>
        <DataArray type="Float64" Name="Sigma" NumberOfComponents="6" format="ascii" RangeMin="42554.93020367586" RangeMax="222656.93177272534">
          146771.08343418475 -146771.08343418344 0 -80576.717490573 0 0
          -139625.10612429096 139625.1061242915 0 25763.415201790787 0 0
          144528.3850264035 -144528.38502640263 0 -31903.171382931356 0 0
          -136891.86543098447 136891.86543098444 0 32514.282643231836 0 0
          110132.74294329634 -110132.74294329589 0 -54979.47314525426 0 0
          -106588.87498067226 106588.87498067056 0 38435.70146924435 0 0
          86758.90510657271 -86758.90510657207 0 -48669.420874213334 0 0
          -82632.40370547473 82632.40370547747 0 35795.29897695522 0 0
          61237.064913381044 -61237.064913382186 0 -42915.30726554115 0 0
          -59229.144625586916 59229.144625586305 0 29212.469159935274 0 0
          41363.717986408075 -41363.717986404146 0 -32917.253456208346 0 0
          -40064.82671767962 40064.82671767556 0 21244.649076828195 0 0
          25214.648437400272 -25214.648437398737 0 -23224.235035764206 0 0
          <InformationKey name="L2_NORM_RANGE" location="vtkDataArray" length="2">
            <Value index="0">
              42554.930204
            </Value>
            <Value index="1">
              222656.93177
            </Value>
          </InformationKey>
        </DataArray>
        <DataArray type="Float64" Name="Press" format="ascii" RangeMin="-176680.862198739" RangeMax="171909.01678235343">
          143529.79389954038 -176680.862198739 171909.01678235343 -147659.97336665366 128357.41899670097 -123866.96826163205
          109176.57988116547 -96761.96540759294 80793.76205374474 -71233.47469505435 57770.923057091226 -48532.75921805614
          37257.178853114274
        </DataArray>
        <DataArray type="Float64" Name="Dev strain" NumberOfComponents="6" format="ascii" RangeMin="0" RangeMax="0">
          0 0 0 0 0 0
          0 0 0 0 0 0
          0 0 0 0 0 0
          0 0 0 0 0 0
          0 0 0 0 0 0
          0 0 0 0 0 0
          0 0 0 0 0 0
          0 0 0 0 0 0
          0 0 0 0 0 0
          0 0 0 0 0 0
          0 0 0 0 0 0
          0 0 0 0 0 0
          0 0 0 0 0 0
          <InformationKey name="L2_NORM_RANGE" location="vtkDataArray" length="2">
            <Value index="0">
              0
            </Value>
            <Value index="1">
              0
            </Value>
          </InformationKey>
        </DataArray>
        <DataArray type="Float64" Name="J2 Stresses" format="ascii" RangeMin="770619769.0707576" RangeMax="23164902782.83313">
          23164902782.83313 19661108650.934547 21142907164.412384 19003677465.12576 12884906685.046574 11730514056.503418
          8119285747.34906 7148439999.357183 4210409018.6296663 3721433661.6836977 1981843559.4340014 1718024118.5169263
          770619769.0707576
        </DataArray>
      </PointData>
      <CellData>
        <DataArray type="UInt8" Name="vtkGhostType" format="ascii" RangeMin="0" RangeMax="0">
          0 0 0 0 0 0
          0 0 0 0 0
        </DataArray>
        <DataArray type="Float64" Name="Gauss Stress" NumberOfComponents="6" format="ascii" RangeMin="27783.605799072247" RangeMax="101125.61370274401">
          -94806.80177063706 -6814.4107513886565 0 8791.508820697092 0 0
          96810.77027315073 -4305.471284379924 0 -28905.491223904526 0 0
          -92172.50669998174 -3273.841721075214 0 5323.503655740646 0 0
          90125.24165037209 11612.399957895545 0 -18122.787294984595 0 0
          -71304.9091225446 -2996.6600694945228 0 8520.526523995415 0 0
          67989.9345618104 7788.085849012334 0 -21737.730850074422 0 0
          -55942.0538221944 -2192.398210406991 0 7364.153623783117 0 0
          52857.314280598766 9281.603404280158 0 -18596.47638759976 0 0
          -39975.18807095925 -1355.0191663871847 0 5846.621593518378 0 0
          36900.949563327966 7986.524047193861 0 -15540.03052060474 0 0
          24336.294132759358 6660.600995340679 0 -11632.279805048118 0 0
          <InformationKey name="L2_NORM_RANGE" location="vtkDataArray" length="2">
            <Value index="0">
              27783.605799
            </Value>
            <Value index="1">
              101125.6137
            </Value>
          </InformationKey>
        </DataArray>
        <DataArray type="Float64" Name="Gauss Strain" NumberOfComponents="6" format="ascii" RangeMin="0" RangeMax="0">
          0 0 0 0 0 0
          0 0 0 0 0 0
          0 0 0 0 0 0
          0 0 0 0 0 0
          0 0 0 0 0 0
          0 0 0 0 0 0
          0 0 0 0 0 0
          0 0 0 0 0 0
          0 0 0 0 0 0
          0 0 0 0 0 0
          0 0 0 0 0 0
          <InformationKey name="L2_NORM_RANGE" location="vtkDataArray" length="2">
            <Value index="0">
              0
            </Value>
            <Value index="1">
              0
            </Value>
          </InformationKey>
        </DataArray>
      </CellData>
      <Points>
        <DataArray type="Float32" Name="Points" NumberOfComponents="3" format="ascii" RangeMin="0" RangeMax="0.6020797527609908">
          0 0.05000000074505806 0 0 0 0
          0.10000000149011612 0.05000000074505806 0 0.10000000149011612 0 0
          0.20000000298023224 0.05000000074505806 0 0.20000000298023224 0 0
          0.30000001192092896 0.05000000074505806 0 0.30000001192092896 0 0
          0.4000000059604645 0.05000000074505806 0 0.4000000059604645 0 0
          0.5 0.05000000074505806 0 0.5 0 0
          0.6000000238418579 0.05000000074505806 0
          <InformationKey name="L2_NORM_RANGE" location="vtkDataArray" length="2">
            <Value index="0">
              0
            </Value>
            <Value index="1">
              0.60207975276
            </Value>
          </InformationKey>
        </DataArray>
      </Points>
      <Cells>
        <DataArray type="Int64" Name="connectivity" format="ascii" RangeMin="0" RangeMax="12">
          3 2 1 2 0 1
          5 4 3 4 2 3
          7 6 5 6 4 5
          9 8 7 8 6 7
          11 10 9 10 8 9
          12 10 11
        </DataArray>
        <DataArray type="Int64" Name="offsets" format="ascii" RangeMin="3" RangeMax="33">
          3 6 9 12 15 18
          21 24 27 30 33
        </DataArray>
        <DataArray type="UInt8" Name="types" format="ascii" RangeMin="5" RangeMax="5">
          5 5 5 5 5 5
          5 5 5 5 5
        </DataArray>
      </Cells>
    </Piece>
  </UnstructuredGrid>
</VTKFile>
