<?xml version="1.0"?>
<VTKFile type="UnstructuredGrid" version="0.1" byte_order="LittleEndian" header_type="UInt32" compressor="vtkZLibDataCompressor">
  <UnstructuredGrid>
    <Piece NumberOfPoints="13" NumberOfCells="11">
      <PointData>
        <DataArray type="Float64" Name="Disp" NumberOfComponents="3" format="ascii" RangeMin="0" RangeMax="0.07950230882670069">
          0 0 0 0 0 0
          -0.0012559704678800783 0.002470422217731174 0 0.001606955040274326 0.002547054904568432 0
          -0.0031473521035990134 0.011307077530022783 0 0.0024180875962043213 0.011610791613586021 0
          -0.004836055833617969 0.02421516795825006 0 0.0024927827995121737 0.024761933775994914 0
          -0.006866220432100587 0.0403563362328566 0 0.001854990526730176 0.04112881347681698 0
          -0.0090501681291969 0.05879326451333648 0 0.0005889472295880407 0.05973847048862253 0
          -0.011330754537183893 0.07869073077811754 0
          <InformationKey name="L2_NORM_RANGE" location="vtkDataArray" length="2">
            <Value index="0">
              0
            </Value>
            <Value index="1">
              0.079502308827
            </Value>
          </InformationKey>
        </DataArray>
        <DataArray type="Float64" Name="Nodal Stress" NumberOfComponents="6" format="ascii" RangeMin="14067.947933366047" RangeMax="131660.79155949017">
          -125683.6303595719 -19738.627655504235 0 33890.64283821398 0 0
          60682.7834342343 -13989.094127213742 0 5481.628815841926 0 0
          -79505.00878856773 -8924.104031796662 0 6546.686771031992 0 0
          81356.27829041304 2322.666417579136 0 77.80152665450392 0 0
          -62272.95712204648 -4358.213250309454 0 8656.252399791183 0 0
          62440.97988634218 544.7994797461349 0 5974.815516193345 0 0
          -47859.52344954229 -3780.565191740816 0 5121.258850141642 0 0
          46331.24779575981 1334.2738586129226 0 6545.158549468216 0 0
          -33617.13114849873 -1986.9719118027697 0 4380.9839430623115 0 0
          32172.09992046231 1077.8426123853997 0 6383.358939358145 0 0
          -22530.672867419067 -1195.1929581306297 0 3411.835034135739 0 0
          20987.100861365238 978.628781009194 0 5227.479374047612 0 0
          -13798.882203564597 -589.3505731392218 0 2674.074585718729 0 0
          <InformationKey name="L2_NORM_RANGE" location="vtkDataArray" length="2">
            <Value index="0">
              14067.947933
            </Value>
            <Value index="1">
              131660.79156
            </Value>
          </InformationKey>
        </DataArray>
        <DataArray type="Float64" Name="Nodal Strain" NumberOfComponents="6" format="ascii" RangeMin="0" RangeMax="0">
          0 0 0 0 0 0
          0 0 0 0 0 0
          0 0 0 0 0 0
          0 0 0 0 0 0
          0 0 0 0 0 0
          0 0 0 0 0 0
          0 0 0 0 0 0
          0 0 0 0 0 0
          0 0 0 0 0 0
          0 0 0 0 0 0
          0 0 0 0 0 0
          0 0 0 0 0 0
          0 0 0 0 0 0
          <InformationKey name="L2_NORM_RANGE" location="vtkDataArray" length="2">
            <Value index="0">
              0
            </Value>
            <Value index="1">
              0
            </Value>
          </InformationKey>
        </DataArray>
        <DataArray type="Float64" Name="Sld_traction" NumberOfComponents="3" format="ascii" RangeMin="4432.901346603342" RangeMax="70111.56969515173">
          64062.67197743139 -28488.704151472826 0 -18385.13998686573 -360.32943506335624 0
          29804.256042658664 -13206.02330075247 0 17132.811453755425 -7208.94853986907 0
          33523.88790859968 -12330.392279958956 0 15630.469617896551 -5811.555866518292 0
          26362.78155344456 -8831.767605848227 0 10814.25066794062 -3843.5494344057483 0
          20350.391886131234 -5617.5717206972895 0 7287.4191109170115 -2222.0990196740563 0
          14731.142740951305 -3552.87756734214 0 4234.679985501515 -1310.7630484227927 0
          9780.44241794841 -2177.3466360354205 0
          <InformationKey name="L2_NORM_RANGE" location="vtkDataArray" length="2">
            <Value index="0">
              4432.9013466
            </Value>
            <Value index="1">
              70111.569695
            </Value>
          </InformationKey>
        </DataArray>
        <DataArray type="Float64" Name="Velocity" NumberOfComponents="3" format="ascii" RangeMin="0" RangeMax="3.9754006785562264">
          0 0 0 0 0 0
          0.06090468244066505 -0.11932783219670684 0 -0.08069730144162279 -0.12676554946765273 0
          0.17969308597426026 -0.5568599771294114 0 -0.0980719080657122 -0.5869881208138752 0
          0.3054786467759594 -1.1918390016605347 0 -0.05833990333583605 -1.246855438025399 0
          0.47516808116861675 -1.988077655224938 0 0.04229887616438566 -2.06570788159668 0
          0.6709059184324317 -2.897327463571056 0 0.19445095056812406 -2.9919430106799503 0
          0.8836884536633782 -3.8759392760887437 0
          <InformationKey name="L2_NORM_RANGE" location="vtkDataArray" length="2">
            <Value index="0">
              0
            </Value>
            <Value index="1">
              3.9754006786
            </Value>
          </InformationKey>
        </DataArray>
        <DataArray type="Float64" Name="Acceleration" NumberOfComponents="3" format="ascii" RangeMin="0" RangeMax="1157.584591455974">
          0 0 0 0 0 0
          37.92119735090273 -83.11840996757655 0 -55.27189934321518 -88.77392195749417 0
          101.49045751633503 -356.3367497317322 0 -51.008576331877066 -372.68057022483845 0
          133.8429955288202 -661.6462254982071 0 -11.622333327907654 -682.6367325495303 0
          156.86144434983908 -931.3624231370268 0 45.68101563784694 -948.4346028934233 0
          151.22514039867565 -1105.6654419665065 0 98.82116822212464 -1111.5248010219002 0
          115.6060370639243 -1151.7974346952979 0
          <InformationKey name="L2_NORM_RANGE" location="vtkDataArray" length="2">
            <Value index="0">
              0
            </Value>
            <Value index="1">
              1157.5845915
            </Value>
          </InformationKey>
        </DataArray>
        <DataArray type="Float64" Name="Sigma" NumberOfComponents="6" format="ascii" RangeMin="29117.970387982266" RangeMax="188955.96888433743">
          -113288.89141411074 113288.89141410973 0 69301.38979058208 0 0
          133544.17529136784 -133544.1752913668 0 -6022.015320123868 0 0
          -118856.39787128172 118856.39787128264 0 2981.807091815648 0 0
          112299.90839193623 -112299.90839193658 0 -6248.020467984678 0 0
          -93279.57602001021 93279.57602001057 0 16819.56532344853 0 0
          86870.62609786012 -86870.6260978595 0 5091.576863596951 0 0
          -70495.2536044666 70495.25360446607 0 2303.707844187309 0 0
          63216.24230889616 -63216.24230889594 0 9253.290893427184 0 0
          -50074.42603488695 50074.42603488889 0 2155.83658968746 0 0
          43650.062583603 -43650.06258360024 0 8966.861709569452 0 0
          -33501.98117252397 33501.98117252043 0 830.0807412050503 0 0
          27971.552958493783 -27971.55295849263 0 7522.494757694224 0 0
          -20581.90375236737 20581.90375236732 0 791.6283041846166 0 0
          <InformationKey name="L2_NORM_RANGE" location="vtkDataArray" length="2">
            <Value index="0">
              29117.970388
            </Value>
            <Value index="1">
              188955.96888
            </Value>
          </InformationKey>
        </DataArray>
        <DataArray type="Float64" Name="Press" format="ascii" RangeMin="-137443.5935770328" RangeMax="127000.42375226489">
          -137443.5935770328 112683.33182002233 -128640.66069610899 127000.42375226489 -105422.93803693508 91246.89832064213
          -78569.91870979569 68967.03621018959 -55264.71809475661 47204.72443861888 -36832.57704235294 30807.859653178533
          -22572.691071838362
        </DataArray>
        <DataArray type="Float64" Name="Dev strain" NumberOfComponents="6" format="ascii" RangeMin="0" RangeMax="0">
          0 0 0 0 0 0
          0 0 0 0 0 0
          0 0 0 0 0 0
          0 0 0 0 0 0
          0 0 0 0 0 0
          0 0 0 0 0 0
          0 0 0 0 0 0
          0 0 0 0 0 0
          0 0 0 0 0 0
          0 0 0 0 0 0
          0 0 0 0 0 0
          0 0 0 0 0 0
          0 0 0 0 0 0
          <InformationKey name="L2_NORM_RANGE" location="vtkDataArray" length="2">
            <Value index="0">
              0
            </Value>
            <Value index="1">
              0
            </Value>
          </InformationKey>
        </DataArray>
        <DataArray type="Float64" Name="J2 Stresses" format="ascii" RangeMin="423771430.9147096" RangeMax="17843112921.380386">
          14035043574.564606 17843112921.380386 14129066108.319733 12621028864.779396 8771803746.890337 7552986717.37364
          4970907548.215867 4017699139.7466545 2508610050.57382 1925429115.781974 1122555000.9932618 796554756.7546744
          423771430.9147096
        </DataArray>
      </PointData>
      <CellData>
        <DataArray type="UInt8" Name="vtkGhostType" format="ascii" RangeMin="0" RangeMax="0">
          0 0 0 0 0 0
          0 0 0 0 0
        </DataArray>
        <DataArray type="Float64" Name="Gauss Stress" NumberOfComponents="6" format="ascii" RangeMin="18508.099626352934" RangeMax="88755.96353215422">
          79343.59356273354 -5314.863645280831 0 -3096.076232097633 0 0
          -84000.67881571474 -18266.60281969796 0 22087.060520757954 0 0
          72905.11416858605 2311.141855395474 0 5221.040573020267 0 0
          -68966.41349337832 -2409.036493807517 0 4517.783982426502 0 0
          53745.21020777525 684.1336729155496 0 5549.525200403815 0 0
          -56550.05398423514 -5280.584966490504 0 8071.616677077596 0 0
          39232.97380388803 1371.721232148195 0 6791.996397561365 0 0
          -40740.34597494004 -2504.721087967897 0 4570.94510910065 0 0
          26433.213806339103 1020.1242266240148 0 5773.1457361562425 0 0
          -28272.971774099537 -1655.4086915605274 0 3984.2596801539876 0 0
          -18236.58014247011 -828.3588315392147 0 3048.0679343612965 0 0
          <InformationKey name="L2_NORM_RANGE" location="vtkDataArray" length="2">
            <Value index="0">
              18508.099626
            </Value>
            <Value index="1">
              88755.963532
            </Value>
          </InformationKey>
        </DataArray>
        <DataArray type="Float64" Name="Gauss Strain" NumberOfComponents="6" format="ascii" RangeMin="0" RangeMax="0">
          0 0 0 0 0 0
          0 0 0 0 0 0
          0 0 0 0 0 0
          0 0 0 0 0 0
          0 0 0 0 0 0
          0 0 0 0 0 0
          0 0 0 0 0 0
          0 0 0 0 0 0
          0 0 0 0 0 0
          0 0 0 0 0 0
          0 0 0 0 0 0
          <InformationKey name="L2_NORM_RANGE" location="vtkDataArray" length="2">
            <Value index="0">
              0
            </Value>
            <Value index="1">
              0
            </Value>
          </InformationKey>
        </DataArray>
      </CellData>
      <Points>
        <DataArray type="Float32" Name="Points" NumberOfComponents="3" format="ascii" RangeMin="0" RangeMax="0.6020797527609908">
          0 0.05000000074505806 0 0 0 0
          0.10000000149011612 0.05000000074505806 0 0.10000000149011612 0 0
          0.20000000298023224 0.05000000074505806 0 0.20000000298023224 0 0
          0.30000001192092896 0.05000000074505806 0 0.30000001192092896 0 0
          0.4000000059604645 0.05000000074505806 0 0.4000000059604645 0 0
          0.5 0.05000000074505806 0 0.5 0 0
          0.6000000238418579 0.05000000074505806 0
          <InformationKey name="L2_NORM_RANGE" location="vtkDataArray" length="2">
            <Value index="0">
              0
            </Value>
            <Value index="1">
              0.60207975276
            </Value>
          </InformationKey>
        </DataArray>
      </Points>
      <Cells>
        <DataArray type="Int64" Name="connectivity" format="ascii" RangeMin="0" RangeMax="12">
          3 2 1 2 0 1
          5 4 3 4 2 3
          7 6 5 6 4 5
          9 8 7 8 6 7
          11 10 9 10 8 9
          12 10 11
        </DataArray>
        <DataArray type="Int64" Name="offsets" format="ascii" RangeMin="3" RangeMax="33">
          3 6 9 12 15 18
          21 24 27 30 33
        </DataArray>
        <DataArray type="UInt8" Name="types" format="ascii" RangeMin="5" RangeMax="5">
          5 5 5 5 5 5
          5 5 5 5 5
        </DataArray>
      </Cells>
    </Piece>
  </UnstructuredGrid>
</VTKFile>
