<?xml version="1.0"?>
<VTKFile type="UnstructuredGrid" version="0.1" byte_order="LittleEndian" header_type="UInt32" compressor="vtkZLibDataCompressor">
  <UnstructuredGrid>
    <Piece NumberOfPoints="33" NumberOfCells="20">
      <PointData>
        <DataArray type="Float64" Name="sld_BC" NumberOfComponents="3" format="ascii" RangeMin="0" RangeMax="0">
          0 0 0 0 0 0
          0 0 0 0 0 0
          0 0 0 0 0 0
          0 0 0 0 0 0
          0 0 0 0 0 0
          0 0 0 0 0 0
          0 0 0 0 0 0
          0 0 0 0 0 0
          0 0 0 0 0 0
          0 0 0 0 0 0
          0 0 0 0 0 0
          0 0 0 0 0 0
          0 0 0 0 0 0
          0 0 0 0 0 0
          0 0 0 0 0 0
          0 0 0 0 0 0
          0 0 0
          <InformationKey name="L2_NORM_RANGE" location="vtkDataArray" length="2">
            <Value index="0">
              0
            </Value>
            <Value index="1">
              0
            </Value>
          </InformationKey>
        </DataArray>
        <DataArray type="Float64" Name="sld_FIXNO" NumberOfComponents="3" format="ascii" RangeMin="1.4142135623730951" RangeMax="1.4142135623730951">
          -1 -1 0 -1 -1 0
          -1 -1 0 -1 -1 0
          -1 -1 0 -1 -1 0
          -1 -1 0 -1 -1 0
          -1 -1 0 -1 -1 0
          -1 -1 0 -1 -1 0
          -1 -1 0 -1 -1 0
          -1 -1 0 -1 -1 0
          -1 -1 0 -1 -1 0
          -1 -1 0 -1 -1 0
          -1 -1 0 -1 -1 0
          -1 -1 0 -1 -1 0
          -1 -1 0 -1 -1 0
          1 1 0 -1 -1 0
          -1 -1 0 -1 -1 0
          1 1 0 -1 -1 0
          1 1 0
          <InformationKey name="L2_NORM_RANGE" location="vtkDataArray" length="2">
            <Value index="0">
              1.4142135624
            </Value>
            <Value index="1">
              1.4142135624
            </Value>
          </InformationKey>
        </DataArray>
        <DataArray type="Float64" Name="Disp" NumberOfComponents="3" format="ascii" RangeMin="0" RangeMax="0.00001730353346621014">
          0.000017149689659577667 0.0000023022630163448327 0 0.000014864572267763593 0.0000022909712970234265 0
          0.000012584121398466012 0.0000022576898735721708 0 0.000017143943673620313 2.8289843492169245e-8 0
          0.00001033626982866355 0.0000021905803732629153 0 0.00001485423210275764 2.6912896842890418e-8 0
          0.000008161323507171779 0.000002078814749213816 0 0.000012564006337591065 2.4990067411524862e-8 0
          0.000017144882147001928 -0.000002244750226954932 0 0.000006109568328790259 0.0000019120424462755984 0
          0.000010302960337242402 2.249955782665776e-8 0 0.00001485891572980242 -0.0000022360146862447074 0
          0.000008111256484922569 1.9609429827577337e-8 0 0.000004241274494006265 0.0000016804807041616886 0
          0.000012577233091338328 -0.0000022067943034377563 0 0.000006039433524558618 1.642000794651814e-8 0
          0.000010328664194803332 -0.000002144867927470036 0 0.0000026269669167439806 0.0000013744006412081245 0
          0.000004148009539265918 1.3023468076287096e-8 0 0.000008153159485910496 -0.0000020390562908711507 0
          0.0000013420151085376819 9.869196457605213e-7 0 0.000006101047390316489 -0.0000018788065811215786 0
          0.0000025067675031137894 9.479700073270494e-9 0 5.019408081962057e-7 4.936343605434038e-7 0
          0.000004232535268647575 -0.0000016541553577961516 0 0.000001197155370125703 5.782796886160808e-9 0
          0 0 0 0.000002618101884601123 -0.0000013552271434520334 0
          2.9152452615886295e-7 1.8392165515407458e-9 0 0.000001333027005429061 -9.749684414445938e-7 0
          0 0 0 4.931031009696475e-7 -4.885240439639099e-7 0
          0 0 0
          <InformationKey name="L2_NORM_RANGE" location="vtkDataArray" length="2">
            <Value index="0">
              0
            </Value>
            <Value index="1">
              1.7303533466e-05
            </Value>
          </InformationKey>
        </DataArray>
        <DataArray type="Float64" Name="Sld_traction" NumberOfComponents="3" format="ascii" RangeMin="0" RangeMax="2179.0849119431773">
          7.6104795912310585 7.86328195374061 0 -32.05796536738514 -31.853055002353575 0
          -110.2515787582795 -52.84012945728398 0 21.164062613704722 -1.4725864106922846 0
          -221.15385424390573 -72.40268643825875 0 0 0 0
          -362.5656550601343 -90.34931676728598 0 0 0 0
          -5.091734895681721 -8.297027630753057 0 -533.0925365106699 -107.34357271672404 0
          0 0 0 -60.70874325069637 34.8644741783731 0
          0 0 0 -731.6784911321964 -123.15437743217433 0
          -140.70691970462454 55.56311478582774 0 0 0 0
          -252.93334981040252 74.37552491406824 0 -954.8442256317353 -140.30994684111968 0
          0 0 0 -395.3720890263014 91.83534994213814 0
          -1216.5326715480371 -141.3405211581862 0 -566.4996575188298 108.39889934617848 0
          0 0 0 -1410.4804589481714 -256.56856481928855 0
          -765.4603973431217 123.89831457516372 0 0 0 0
          -1418.2149373666723 -1654.4115101414309 0 -989.2109466399154 140.9445766432876 0
          0 0 0 -1252.730952194912 142.16834754945913 0
          -514.5576333599862 -17.803030343060996 0 -1439.6130441571543 251.67049046590404 0
          -1412.0394278319866 1628.652950943512 0
          <InformationKey name="L2_NORM_RANGE" location="vtkDataArray" length="2">
            <Value index="0">
              0
            </Value>
            <Value index="1">
              2179.0849119
            </Value>
          </InformationKey>
        </DataArray>
        <DataArray type="Float64" Name="Fld_traction" NumberOfComponents="3" format="ascii" RangeMin="0" RangeMax="38.65153504737445">
          24.570451520525772 -0.4167776763930507 0 38.19216917212334 5.941327751128269 0
          37.51165641910053 3.443333942470745 0 14.87906613969248 -3.718483187242377 0
          36.46703490986354 2.097436864768852 0 0 0 0
          35.979319618843064 1.2935806740726516 0 0 0 0
          12.223530333728032 -1.5508980084635955 0 35.53270761304063 0.7271088891789977 0
          0 0 0 9.693937469286087 -0.8288776273157815 0
          0 0 0 35.040366609810974 0.3603065499782448 0
          6.068618138592933 0.5596558794108129 0 0 0 0
          3.944638833061003 0.8405780480049645 0 34.62877663498963 0.1535266501663887 0
          0 0 0 2.51595522318933 0.8979820145115609 0
          34.40597312396502 0.04069427443620271 0 1.6024357912987954 0.8230005886480843 0
          0 0 0 34.2312718651725 0.00014348360289751449 0
          0.9045097322366382 0.6703291828389382 0 0 0 0
          17.35665660916559 -16.81416265034582 0 0.47406686279434934 0.4542926735935411 0
          0 0 0 0.28800466117680507 0.24437354249781668 0
          0 0 0 0.31256741216133244 0.06316727998444592 0
          0.20565928873283 0.20884258865534538 0
          <InformationKey name="L2_NORM_RANGE" location="vtkDataArray" length="2">
            <Value index="0">
              0
            </Value>
            <Value index="1">
              38.651535047
            </Value>
          </InformationKey>
        </DataArray>
        <DataArray type="Float64" Name="Velocity" NumberOfComponents="3" format="ascii" RangeMin="0" RangeMax="0.0006035123245013849">
          0.000597919957969684 0.00007891534532523263 0 0.0005178141557980513 0.00007891651506474488 0
          0.0004370131055755964 0.00007836416227608037 0 0.0005980583478691867 -9.535779198025922e-7 0
          0.0003567005184890508 0.00007649253930668128 0 0.00051789537653334 -9.027541914686254e-7 0
          0.0002787034674137743 0.000072702975502795 0 0.0004367899336582839 -8.319357230574434e-7 0
          0.000598072741743505 -0.00008084628258906957 0 0.0002053748522882115 0.00006657813732339389 0
          0.000355931842687924 -7.425015123925166e-7 0 0.0005180064599466811 -0.00008075509635794518 0
          0.00027722221980117925 -6.411535725301719e-7 0 0.00013938337066948643 0.0000578743032403811 0
          0.0004372532864367947 -0.0000800566271247227 0 0.00020306858117340979 -5.316335279726957e-7 0
          0.00035696632523289293 -0.00007800043782738142 0 0.00008355780801028777 0.000046500722232178894 0
          0.00013620022241645405 -4.172617477040527e-7 0 0.00027898928479840686 -0.000074002878325615 0
          0.000040573888530273615 0.000032589718620801384 0 0.00020567343346705912 -0.00006765472687858736 0
          0.00007947311063261447 -3.001244025923171e-7 0 0.000013916782455421494 0.000015844963987201163 0
          0.00013969098078007305 -0.00005871868835117871 0 0.0000357952945302008 -1.7958142215601722e-7 0
          0 0 0 0.0000838708322846245 -0.00004710920583162465 0
          0.0000073564861700431074 -5.1427379187572905e-8 0 0.00004089451060022908 -0.00003296342775913583 0
          0 0 0 0.000014234507906970188 -0.000016000134208665573 0
          0 0 0
          <InformationKey name="L2_NORM_RANGE" location="vtkDataArray" length="2">
            <Value index="0">
              0
            </Value>
            <Value index="1">
              0.0006035123245
            </Value>
          </InformationKey>
        </DataArray>
      </PointData>
      <CellData>
        <DataArray type="UInt8" Name="vtkGhostType" format="ascii" RangeMin="0" RangeMax="0">
          0 0 0 0 0 0
          0 0 0 0 0 0
          0 0 0 0 0 0
          0 0
        </DataArray>
        <DataArray type="Float64" Name="Gauss Stress" NumberOfComponents="6" format="ascii" RangeMin="32.18915428007293" RangeMax="1621.0472155433765">
          513.8609963571375 1522.2708740790436 0 215.48164045785643 0 0
          -526.6137011427909 -1509.851214412603 0 210.18599887949497 0 0
          -101.87015214925748 1115.9868349105432 0 194.8476266247081 0 0
          67.72901784144523 -1103.6367473865698 0 196.01947212842992 0 0
          -18.099435340308247 919.3727040824157 0 177.5158610044271 0 0
          -16.219127109808426 -907.3253768608715 0 178.00977415336013 0 0
          -29.852997385883526 717.4054753266346 0 159.41983883155868 0 0
          -4.200193474973133 -705.9885315479307 0 159.83887019892762 0 0
          -28.493299251693713 540.5791267454048 0 140.4661860786638 0 0
          -5.361616845821459 -530.2211140349046 0 141.08379643087798 0 0
          -28.959246034150937 385.55027176927246 0 120.544327899524 0 0
          -4.513431620470044 -376.7764199620682 0 121.45161924694482 0 0
          -29.07685488581845 253.81778219110134 0 99.55180451197616 0 0
          -3.6545856212501064 -247.27524663492005 0 100.8343235176034 0 0
          -29.39319403619797 146.3492853425983 0 77.23030010066725 0 0
          -2.2593318072336572 -142.78991469461658 0 78.89905015931052 0 0
          -29.20239812059549 64.59206733086074 0 52.80100216496285 0 0
          -0.49783416398474145 -65.08559951735766 0 55.13885981598477 0 0
          -32.0018086465073 9.074106680582538 0 26.284785992259543 0 0
          3.812711394463001 -14.73372247628437 0 28.36410243742435 0 0
          <InformationKey name="L2_NORM_RANGE" location="vtkDataArray" length="2">
            <Value index="0">
              32.18915428
            </Value>
            <Value index="1">
              1621.0472155
            </Value>
          </InformationKey>
        </DataArray>
        <DataArray type="Float64" Name="Gauss Strain" NumberOfComponents="6" format="ascii" RangeMin="4.077137850729931e-7" RangeMax="0.000006692284253476748">
          -0.0000021041487770490086 0.000004954693658923425 0 0.000003016727468218831 0 0
          0.0000020158000660908115 -0.000004866888810406422 0 0.0000029426189636749784 0 0
          -0.000003552634687598033 0.000004972344279874363 0 0.0000027278650384886645 0 0
          0.0000033746293769953972 -0.000004824950743415045 0 0.0000027442744416401893 0 0
          -0.000002650271040682828 0.000003912020765731161 0 0.000002485219549220315 0 0
          0.0000024723820256228324 -0.0000037653746818855356 0 0.0000024921394323227476 0 0
          -0.000002134124636565815 0.0000030966766106782506 0 0.0000022318761385497814 0 0
          0.000001959121256916996 -0.0000029534050196289297 0 0.000002237745867112937 0 0
          -0.0000016332976442157143 0.0000023502047644674558 0 0.0000019665255470974894 0 0
          0.0000014620967560968756 -0.000002211924195111292 0 0.000001975174282720327 0 0
          -0.0000012011721232385586 0.0000017003921743002914 0 0.000001687619966939279 0 0
          0.000001036015488495301 -0.0000015698276983888704 0 0.0000017003233623333275 0 0
          -8.328139773638998e-7 0.0000011474474733708107 0 0.0000013937249462831504 0 0
          6.770203163641852e-7 -0.0000010283252949438994 0 0.000001411680907781605 0 0
          -5.332301039051579e-7 6.969669169437642e-7 0 0.0000010812240812123867 0 0
          3.9032202850397546e-7 -5.933923846179744e-7 0 0.0000011045868729555207 0 0
          -3.035081367341874e-7 3.5305305930155573e-7 0 7.392140141199473e-7 0 0
          1.8014855857062526e-7 -2.719658703242977e-7 0 7.719440905639406e-7 0 0
          -1.5981516521268446e-7 1.2771624875729248e-7 0 3.6798701874026046e-7 0 0
          5.726775934022932e-8 -7.255728270982863e-8 0 3.970974376704821e-7 0 0
          <InformationKey name="L2_NORM_RANGE" location="vtkDataArray" length="2">
            <Value index="0">
              4.0771378507e-07
            </Value>
            <Value index="1">
              6.6922842535e-06
            </Value>
          </InformationKey>
        </DataArray>
        <DataArray type="Float64" Name="Btraction" NumberOfComponents="3" format="ascii" RangeMin="0.1463190610782401" RangeMax="19.07082373065225">
          12.896982118584521 -4.203504791685731 0 0.12955667522354058 0.06800246715994782 0
          17.15931124728438 0.010209439509775054 0 0.15014301833453436 0.07688520562056564 0
          17.258687439738658 0.048555231150647846 0 0.19051788099278857 0.17466655402283943 0
          17.41728581120015 0.12845830003615838 0 0.3446441487577469 0.2811554641081198 0
          17.6432685557129 0.2718538597893106 0 0.6267363808838584 0.37333244287175565 0
          17.87800680797092 0.5051723908129122 0 1.0295977536220313 0.4302456507899113 0
          18.111588632176648 0.8477543847103758 0 1.6151485140625832 0.4346400156291313 0
          18.49467283224102 1.3851927018098988 0 2.5033142429134845 0.3500584818539443 0
          18.92595639780596 2.3461654233997535 0 3.940638901969755 -0.0673054369762422 0
          15.690655173162277 1.3811375186838044 0 6.775649118355128 -1.3173452989264933 0
          <InformationKey name="L2_NORM_RANGE" location="vtkDataArray" length="2">
            <Value index="0">
              0.14631906108
            </Value>
            <Value index="1">
              19.070823731
            </Value>
          </InformationKey>
        </DataArray>
      </CellData>
      <Points>
        <DataArray type="Float32" Name="Points" NumberOfComponents="3" format="ascii" RangeMin="1.4500000476837158" RangeMax="1.6286497021092299">
          1.4500000476837158 0.5 0 1.4500000476837158 0.44999998807907104 0
          1.4500000476837158 0.4000000059604645 0 1.5 0.5 0
          1.4500000476837158 0.3499999940395355 0 1.5 0.44999998807907104 0
          1.4500000476837158 0.30000001192092896 0 1.5 0.4000000059604645 0
          1.5499999523162842 0.5 0 1.4500000476837158 0.25 0
          1.5 0.3499999940395355 0 1.5499999523162842 0.44999998807907104 0
          1.5 0.30000001192092896 0 1.4500000476837158 0.20000000298023224 0
          1.5499999523162842 0.4000000059604645 0 1.5 0.25 0
          1.5499999523162842 0.3499999940395355 0 1.4500000476837158 0.15000000596046448 0
          1.5 0.20000000298023224 0 1.5499999523162842 0.30000001192092896 0
          1.4500000476837158 0.10000000149011612 0 1.5499999523162842 0.25 0
          1.5 0.15000000596046448 0 1.4500000476837158 0.05000000074505806 0
          1.5499999523162842 0.20000000298023224 0 1.5 0.10000000149011612 0
          1.4500000476837158 0 0 1.5499999523162842 0.15000000596046448 0
          1.5 0.05000000074505806 0 1.5499999523162842 0.10000000149011612 0
          1.5 0 0 1.5499999523162842 0.05000000074505806 0
          1.5499999523162842 0 0
          <InformationKey name="L2_NORM_RANGE" location="vtkDataArray" length="2">
            <Value index="0">
              1.4500000477
            </Value>
            <Value index="1">
              1.6286497021
            </Value>
          </InformationKey>
        </DataArray>
      </Points>
      <Cells>
        <DataArray type="Int64" Name="connectivity" format="ascii" RangeMin="0" RangeMax="32">
          30 28 23 26 32 31
          28 30 28 25 20 23
          31 29 25 28 25 22
          17 20 29 27 22 25
          22 18 13 17 27 24
          18 22 18 15 9 13
          24 21 15 18 15 12
          6 9 21 19 12 15
          12 10 4 6 19 16
          10 12 10 7 2 4
          16 14 7 10 7 5
          1 2 14 11 5 7
          5 3 0 1 11 8
          3 5
        </DataArray>
        <DataArray type="Int64" Name="offsets" format="ascii" RangeMin="4" RangeMax="80">
          4 8 12 16 20 24
          28 32 36 40 44 48
          52 56 60 64 68 72
          76 80
        </DataArray>
        <DataArray type="UInt8" Name="types" format="ascii" RangeMin="9" RangeMax="9">
          9 9 9 9 9 9
          9 9 9 9 9 9
          9 9 9 9 9 9
          9 9
        </DataArray>
      </Cells>
    </Piece>
  </UnstructuredGrid>
</VTKFile>
