<?xml version="1.0"?>
<VTKFile type="UnstructuredGrid" version="0.1" byte_order="LittleEndian" header_type="UInt32" compressor="vtkZLibDataCompressor">
  <UnstructuredGrid>
    <Piece NumberOfPoints="33" NumberOfCells="20">
      <PointData>
        <DataArray type="Float64" Name="sld_BC" NumberOfComponents="3" format="ascii" RangeMin="0" RangeMax="0">
          0 0 0 0 0 0
          0 0 0 0 0 0
          0 0 0 0 0 0
          0 0 0 0 0 0
          0 0 0 0 0 0
          0 0 0 0 0 0
          0 0 0 0 0 0
          0 0 0 0 0 0
          0 0 0 0 0 0
          0 0 0 0 0 0
          0 0 0 0 0 0
          0 0 0 0 0 0
          0 0 0 0 0 0
          0 0 0 0 0 0
          0 0 0 0 0 0
          0 0 0 0 0 0
          0 0 0
          <InformationKey name="L2_NORM_RANGE" location="vtkDataArray" length="2">
            <Value index="0">
              0
            </Value>
            <Value index="1">
              0
            </Value>
          </InformationKey>
        </DataArray>
        <DataArray type="Float64" Name="sld_FIXNO" NumberOfComponents="3" format="ascii" RangeMin="1.4142135623730951" RangeMax="1.4142135623730951">
          -1 -1 0 -1 -1 0
          -1 -1 0 -1 -1 0
          -1 -1 0 -1 -1 0
          -1 -1 0 -1 -1 0
          -1 -1 0 -1 -1 0
          -1 -1 0 -1 -1 0
          -1 -1 0 -1 -1 0
          -1 -1 0 -1 -1 0
          -1 -1 0 -1 -1 0
          -1 -1 0 -1 -1 0
          -1 -1 0 -1 -1 0
          -1 -1 0 -1 -1 0
          -1 -1 0 -1 -1 0
          1 1 0 -1 -1 0
          -1 -1 0 -1 -1 0
          1 1 0 -1 -1 0
          1 1 0
          <InformationKey name="L2_NORM_RANGE" location="vtkDataArray" length="2">
            <Value index="0">
              1.4142135624
            </Value>
            <Value index="1">
              1.4142135624
            </Value>
          </InformationKey>
        </DataArray>
        <DataArray type="Float64" Name="Disp" NumberOfComponents="3" format="ascii" RangeMin="0" RangeMax="0.000018870553814180852">
          0.000018702959228631677 0.000002509405775484847 0 0.00001620952516816367 0.000002497550202695114 0
          0.000013720256253425359 0.000002461904834945295 0 0.000018697158752327443 2.789381639675086e-8 0
          0.000011265942306498606 0.0000023891405838975695 0 0.000016198805575454166 2.65512830268343e-8 0
          0.000008891104297999982 0.0000022672036518539954 0 0.000013698892177287572 2.4663112195733826e-8 0
          0.000018698251253211927 -0.000002452735162303911 0 0.000006651334802203047 0.0000020847673684635775 0
          0.000011230066676091293 2.2212265507081246e-8 0 0.00001620394016730195 -0.0000024433598397666515 0
          0.000008836788287739415 1.936509320398828e-8 0 0.000004613041575201599 0.0000018313182684281772 0
          0.000013713433068050668 -0.000002411692212712309 0 0.000006574984157181773 1.6220782472276825e-8 0
          0.000011258398272008686 -0.0000023440243009415614 0 0.000002853537205490915 0.0000014965911052419668 0
          0.0000045113974940469546 1.2870032702269927e-8 0 0.00000888300080916432 -0.00000222795068979543 0
          0.0000014549875496787267 0.000001073572729191972 0 0.000006642875892566019 -0.0000020519425258741852 0
          0.0000027225994479708393 9.37167508748434e-9 0 5.425583541760781e-7 5.363684951575379e-7 0
          0.000004604364737565846 -0.0000018053080516316737 0 0.0000012973996709962617 5.7181238835687024e-9 0
          0 0 0 0.000002844737931940234 -0.0000014776378402237148 0
          3.1416671199452356e-7 1.814884369348066e-9 0 0.000001446060047321649 -0.0000010617541960142418 0
          0 0 0 5.337765333467672e-7 -5.31316497690465e-7 0
          0 0 0
          <InformationKey name="L2_NORM_RANGE" location="vtkDataArray" length="2">
            <Value index="0">
              0
            </Value>
            <Value index="1">
              1.8870553814e-05
            </Value>
          </InformationKey>
        </DataArray>
        <DataArray type="Float64" Name="Sld_traction" NumberOfComponents="3" format="ascii" RangeMin="0" RangeMax="2364.8990661728194">
          7.259571026685972 8.642345459013233 0 -36.533683953601255 -34.60506365524993 0
          -121.95502269524482 -58.04914299698959 0 22.555636361220987 -1.3515439144757904 0
          -243.9841804426955 -79.66042970251 0 0 0 0
          -399.6736080462338 -99.25195043066175 0 0 0 0
          -5.154225953235088 -8.979085919352586 0 -586.9231014959149 -117.50793036148049 0
          0 0 0 -64.71358664250218 37.582692418572044 0
          0 0 0 -804.0387875824872 -134.19390863927904 0
          -152.0578487914121 60.73992059841138 0 0 0 0
          -275.4772558190222 81.61203209970688 0 -1046.7642553210728 -152.0821138064373 0
          0 0 0 -432.2495758253191 100.72421117052629 0
          -1329.8238283100052 -152.26807168999238 0 -620.1435089603725 118.55831447402379 0
          0 0 0 -1537.1668359937485 -275.88773578358615 0
          -837.6725117214503 134.94045433392162 0 0 0 0
          -1539.3652642266118 -1795.3000240844444 0 -1080.9988108899156 152.72945635134818 0
          0 0 0 -1365.9148832944013 153.11295947473727 0
          -555.4766155995012 -17.579362797955 0 -1566.261490341664 271.03494393772917 0
          -1533.3047519601266 1769.8275680015263 0
          <InformationKey name="L2_NORM_RANGE" location="vtkDataArray" length="2">
            <Value index="0">
              0
            </Value>
            <Value index="1">
              2364.8990662
            </Value>
          </InformationKey>
        </DataArray>
        <DataArray type="Float64" Name="Fld_traction" NumberOfComponents="3" format="ascii" RangeMin="0" RangeMax="38.40085959095565">
          24.386586561252667 -0.29897243455430617 0 37.92351523334638 6.035976281467249 0
          37.30960675903872 3.5592329078480165 0 14.83493475019424 -3.6059690219984755 0
          36.32245005244584 2.216383948071112 0 0 0 0
          35.88161798829656 1.4013502739613128 0 0 0 0
          12.340543306942157 -1.6145159785472911 0 35.46933827524219 0.8141317932256623 0
          0 0 0 9.922447027149651 -1.0278693720138803 0
          0 0 0 34.99278884137123 0.42138318912161327 0
          6.254757102340997 0.3757902611873634 0 0 0 0
          4.105890802325867 0.6690744584677797 0 34.57665864967708 0.19068060472832515 0
          0 0 0 2.662618091787306 0.7473343797283333 0
          34.34842706451744 0.05866246577862528 0 1.7412292290000386 0.7053838161067436 0
          0 0 0 34.15941989261642 0.0044785084600582606 0
          1.0192723085509288 0.5911523363901803 0 0 0 0
          17.314876277355957 -16.773011133362946 0 0.5689374647878692 0.41788849323540644 0
          0 0 0 0.3321574661366687 0.2377142869206255 0
          0 0 0 0.3142748955078114 0.06535384511943708 0
          0.20067625034709297 0.20302029180229142 0
          <InformationKey name="L2_NORM_RANGE" location="vtkDataArray" length="2">
            <Value index="0">
              0
            </Value>
            <Value index="1">
              38.400859591
            </Value>
          </InformationKey>
        </DataArray>
        <DataArray type="Float64" Name="Velocity" NumberOfComponents="3" format="ascii" RangeMin="0" RangeMax="0.0002075465777142743">
          -0.0002056412698415174 -0.000028057976742372657 0 -0.000178371292217239 -0.000027769250977481322 0
          -0.00015150926373663532 -0.000027129809385313672 0 -0.000205448650378405 -9.728769444911756e-7 0
          -0.00012531044894364713 -0.000026139699597680814 0 -0.00017808031832653457 -9.260276174452071e-7 0
          -0.00010008920451908698 -0.000024759337447373387 0 -0.00015108585757281627 -8.579508479515432e-7 0
          -0.00020547967954884694 0.000026089609744297005 0 -0.00007620643746174103 -0.000022888363188571233 0
          -0.00012476321780780848 -7.698894847058228e-7 0 -0.00017816890096408874 0.000025885364757829884 0
          -0.00009939302751682771 -6.685310105376475e-7 0 -0.00005415495734525889 -0.000020370939581812998 0
          -0.00015125738387558986 0.000025386597589634627 0 -0.00007532062873120515 -5.575771136876172e-7 0
          -0.00012503178084914766 0.000024578283865826523 0 -0.000034630225275767725 -0.000016991382295630408 0
          -0.00005302084468241088 -4.4030368585726497e-7 0 -0.0000997899104539391 0.000023405903268072667 0
          -0.00001851600671500431 -0.000012518974561870471 0 -0.00007589432391326699 0.000021761054370834573 0
          -0.00003315945246949179 -3.1878422121095606e-7 0 -0.000007411848650640268 -0.000006441764554463256 0
          -0.000053834239512678625 0.000019481537602365015 0 -0.000016684557073449115 -1.9238176130409157e-7 0
          0 0 0 -0.000034304901952334627 0.000016346447376410036 0
          -0.000004596522991713919 -5.69749032581276e-8 0 -0.00001818390704423122 0.000012120000554557579 0
          0 0 0 -0.000007083633137122049 0.00000627440245463966 0
          0 0 0
          <InformationKey name="L2_NORM_RANGE" location="vtkDataArray" length="2">
            <Value index="0">
              0
            </Value>
            <Value index="1">
              0.00020754657771
            </Value>
          </InformationKey>
        </DataArray>
      </PointData>
      <CellData>
        <DataArray type="UInt8" Name="vtkGhostType" format="ascii" RangeMin="0" RangeMax="0">
          0 0 0 0 0 0
          0 0 0 0 0 0
          0 0 0 0 0 0
          0 0
        </DataArray>
        <DataArray type="Float64" Name="Gauss Stress" NumberOfComponents="6" format="ascii" RangeMin="34.27562530137236" RangeMax="1760.9206372234503">
          558.8527335560467 1653.955009495616 0 230.12592066243445 0 0
          -571.6696225300963 -1641.8335786403493 0 224.86227010997342 0 0
          -108.0733502186564 1216.3282868945305 0 209.47851851512308 0 0
          74.02006537013273 -1204.2806768790351 0 210.64097325815302 0 0
          -17.21839218050758 1004.4813837696711 0 191.92460438088793 0 0
          -16.976160880966518 -992.7428471357786 0 192.4126062838257 0 0
          -29.999185945453775 785.4275887095816 0 173.3244163733842 0 0
          -3.901992197237462 -774.3108636462127 0 173.72778885779417 0 0
          -28.54700912752287 592.575591628935 0 153.50167927926964 0 0
          -5.126983249371619 -582.486250506409 0 154.10026547854542 0 0
          -29.070844810703505 422.6991509639698 0 132.2874098395136 0 0
          -4.1796150336206495 -414.1459204274007 0 133.16954188921585 0 0
          -29.218997672967227 277.87887812900243 0 109.5425560051693 0 0
          -3.2387355916009 -271.49283432979587 0 110.79623062527662 0 0
          -29.56403780209288 159.64882763209755 0 84.98274153732537 0 0
          -1.7465788817258812 -156.16866623873767 0 86.61654464491161 0 0
          -29.38534016020702 70.06208813300205 0 57.81793802700214 0 0
          0.11674379258854373 -70.53912112760597 0 60.108290400926165 0 0
          -32.20710363587764 10.244643075370412 0 28.055597694435853 0 0
          4.62094137974989 -15.753310387780255 0 30.088180443344307 0 0
          <InformationKey name="L2_NORM_RANGE" location="vtkDataArray" length="2">
            <Value index="0">
              34.275625301
            </Value>
            <Value index="1">
              1760.9206372
            </Value>
          </InformationKey>
        </DataArray>
        <DataArray type="Float64" Name="Gauss Strain" NumberOfComponents="6" format="ascii" RangeMin="4.3327841074257015e-7" RangeMax="0.000007264849056810381">
          -0.0000022839001074803633 0.000005381784290214853 0 0.000003221744769393035 0 0
          0.0000021961148256310903 -0.000005295063948307366 0 0.0000031480893425908636 0 0
          -0.000003859647167564484 0.000005411140595004693 0 0.0000029326972263161447 0 0
          0.000003682851921357755 -0.000005265276783295025 0 0.000002948975764591576 0 0
          -0.0000028848767429645594 0.000004267005965091775 0 0.000002686941492622388 0 0
          0.0000027083697161922604 -0.000004122012586732506 0 0.0000026937795541420886 0 0
          -0.000002325201787972686 0.0000033827759693821897 0 0.0000024265399097919777 0 0
          0.0000021516750666056295 -0.0000032411965364687037 0 0.0000024321910498474728 0 0
          -0.0000017791141209422268 0.0000025687385874495483 0 0.0000021490222346854013 0 0
          0.000001609423862444781 -0.00000243209639524955 0 0.0000021574050736126534 0 0
          -0.0000013056581754378183 0.0000018567289969267928 0 0.0000018520229805197629 0 0
          0.0000011420516824595106 -0.0000017277151901640144 0 0.0000018643744194077203 0 0
          -9.007823053852615e-7 0.0000012489016154720867 0 0.0000015335953965966418 0 0
          7.465758952857061e-7 -0.0000011312039788768937 0 0.0000015511476836030372 0 0
          -5.71186489689568e-7 7.533031693290891e-7 0 0.000001189758232869584 0 0
          4.299359824683213e-7 -6.510190255493152e-7 0 0.0000012126318286536158 0 0
          -3.195925964705193e-7 3.765393276899953e-7 0 8.094511102371649e-7 0 0
          1.9799960468414032e-7 -2.965915330832569e-7 0 8.415161275368619e-7 0 0
          -1.639549134235807e-7 1.332073198412331e-7 0 3.927783832467018e-7 0 0
          6.351716461128198e-8 -7.910260330090679e-8 0 4.2123452988373355e-7 0 0
          <InformationKey name="L2_NORM_RANGE" location="vtkDataArray" length="2">
            <Value index="0">
              4.3327841074e-07
            </Value>
            <Value index="1">
              7.2648490568e-06
            </Value>
          </InformationKey>
        </DataArray>
        <DataArray type="Float64" Name="Btraction" NumberOfComponents="3" format="ascii" RangeMin="0.14517217363913135" RangeMax="18.960634687603118">
          12.868574042493094 -4.192133156225721 0 0.12873778646372608 0.06709353423043213 0
          17.12696173928346 0.015785243559670883 0 0.16160809041112 0.07576703301001564 0
          17.231271428548627 0.06233576762673759 0 0.2252737327311345 0.16390069503900795 0
          17.392361872762073 0.15301594846248456 0 0.39705244333469947 0.25226020740639665 0
          17.615531779153354 0.30887874558681894 0 0.6901253843877417 0.3241340381242309 0
          17.837739065884687 0.5538705167967437 0 1.100961830196836 0.36317954895876914 0
          18.051017010185596 0.904433555508106 0 1.692127223528293 0.35410220954902816 0
          18.40801420287114 1.4439042139797817 0 2.5901619761667156 0.26121617991378576 0
          18.808280498096273 2.3988022973288166 0 4.044301032372662 -0.16301977770662918 0
          15.577525448649762 1.4342509617282357 0 6.793869514284099 -1.3051212501364415 0
          <InformationKey name="L2_NORM_RANGE" location="vtkDataArray" length="2">
            <Value index="0">
              0.14517217364
            </Value>
            <Value index="1">
              18.960634688
            </Value>
          </InformationKey>
        </DataArray>
      </CellData>
      <Points>
        <DataArray type="Float32" Name="Points" NumberOfComponents="3" format="ascii" RangeMin="1.4500000476837158" RangeMax="1.6286497021092299">
          1.4500000476837158 0.5 0 1.4500000476837158 0.44999998807907104 0
          1.4500000476837158 0.4000000059604645 0 1.5 0.5 0
          1.4500000476837158 0.3499999940395355 0 1.5 0.44999998807907104 0
          1.4500000476837158 0.30000001192092896 0 1.5 0.4000000059604645 0
          1.5499999523162842 0.5 0 1.4500000476837158 0.25 0
          1.5 0.3499999940395355 0 1.5499999523162842 0.44999998807907104 0
          1.5 0.30000001192092896 0 1.4500000476837158 0.20000000298023224 0
          1.5499999523162842 0.4000000059604645 0 1.5 0.25 0
          1.5499999523162842 0.3499999940395355 0 1.4500000476837158 0.15000000596046448 0
          1.5 0.20000000298023224 0 1.5499999523162842 0.30000001192092896 0
          1.4500000476837158 0.10000000149011612 0 1.5499999523162842 0.25 0
          1.5 0.15000000596046448 0 1.4500000476837158 0.05000000074505806 0
          1.5499999523162842 0.20000000298023224 0 1.5 0.10000000149011612 0
          1.4500000476837158 0 0 1.5499999523162842 0.15000000596046448 0
          1.5 0.05000000074505806 0 1.5499999523162842 0.10000000149011612 0
          1.5 0 0 1.5499999523162842 0.05000000074505806 0
          1.5499999523162842 0 0
          <InformationKey name="L2_NORM_RANGE" location="vtkDataArray" length="2">
            <Value index="0">
              1.4500000477
            </Value>
            <Value index="1">
              1.6286497021
            </Value>
          </InformationKey>
        </DataArray>
      </Points>
      <Cells>
        <DataArray type="Int64" Name="connectivity" format="ascii" RangeMin="0" RangeMax="32">
          30 28 23 26 32 31
          28 30 28 25 20 23
          31 29 25 28 25 22
          17 20 29 27 22 25
          22 18 13 17 27 24
          18 22 18 15 9 13
          24 21 15 18 15 12
          6 9 21 19 12 15
          12 10 4 6 19 16
          10 12 10 7 2 4
          16 14 7 10 7 5
          1 2 14 11 5 7
          5 3 0 1 11 8
          3 5
        </DataArray>
        <DataArray type="Int64" Name="offsets" format="ascii" RangeMin="4" RangeMax="80">
          4 8 12 16 20 24
          28 32 36 40 44 48
          52 56 60 64 68 72
          76 80
        </DataArray>
        <DataArray type="UInt8" Name="types" format="ascii" RangeMin="9" RangeMax="9">
          9 9 9 9 9 9
          9 9 9 9 9 9
          9 9 9 9 9 9
          9 9
        </DataArray>
      </Cells>
    </Piece>
  </UnstructuredGrid>
</VTKFile>
