<?xml version="1.0"?>
<VTKFile type="UnstructuredGrid" version="0.1" byte_order="LittleEndian" header_type="UInt32" compressor="vtkZLibDataCompressor">
  <UnstructuredGrid>
    <Piece NumberOfPoints="8" NumberOfCells="6">
      <PointData>
        <DataArray type="Float64" Name="Disp" NumberOfComponents="3" format="ascii" RangeMin="0.002817796699834323" RangeMax="0.008850492137450698">
          0.0001351100285310087 -0.008837729970349675 0 -0.00044339436614923176 -0.008839378513851737 0
          0.00014039168105479765 -0.00680672348371429 0 -0.00043501199257332617 -0.006809304408390932 0
          0.00015012972700150081 -0.0047948200404743565 0 -0.0004142976084413386 -0.00480084414532794 0
          -0.00036310320774974133 -0.0028277855063017134 0 0.00016449077810777018 -0.0028129914727056497 0
          <InformationKey name="L2_NORM_RANGE" location="vtkDataArray" length="2">
            <Value index="0">
              0.0028177966998
            </Value>
            <Value index="1">
              0.0088504921375
            </Value>
          </InformationKey>
        </DataArray>
        <DataArray type="Float64" Name="Sld_traction" NumberOfComponents="3" format="ascii" RangeMin="19.938481484742425" RangeMax="3600.965297955502">
          -138.16243445378927 175.31127669866092 0 -13.704917693132941 -14.4816530459015 0
          -191.07642188195314 430.8100937598714 0 -0.5138234124222002 98.45785385276179 0
          -613.0620944907521 1217.0875686811007 0 -28.17724878269226 381.89113985573965 0
          -164.30686030495005 1005.0278456621252 0 -2140.0010260054696 2896.0916224759353 0
          <InformationKey name="L2_NORM_RANGE" location="vtkDataArray" length="2">
            <Value index="0">
              19.938481485
            </Value>
            <Value index="1">
              3600.965298
            </Value>
          </InformationKey>
        </DataArray>
        <DataArray type="Float64" Name="Velocity" NumberOfComponents="3" format="ascii" RangeMin="0.033939710160490855" RangeMax="0.08484501741466535">
          0.0033353841962060187 0.0564199312156976 0 -0.0040304649935533786 0.05563605939163205 0
          0.002850052956646627 0.084797135436518 0 -0.0003008934685245911 0.08425886312054225 0
          -0.002036601047394521 0.08033136069744365 0 0.0047632683000559985 0.08082516493295532 0
          0.005311576851844091 0.03431281265429164 0 -0.0057228020980491295 0.03345375108899883 0
          <InformationKey name="L2_NORM_RANGE" location="vtkDataArray" length="2">
            <Value index="0">
              0.03393971016
            </Value>
            <Value index="1">
              0.084845017415
            </Value>
          </InformationKey>
        </DataArray>
        <DataArray type="Float64" Name="Acceleration" NumberOfComponents="3" format="ascii" RangeMin="0.12469713007635551" RangeMax="1.1157550983128723">
          0.2283036360931806 -0.24554336560945433 0 0.30410702412846125 -0.22523240415141377 0
          0.2337112634640358 -0.5683748094474201 0 0.2074134034527357 -0.5564444855030177 0
          0.31410080862206413 -0.06402476371732702 0 0.09735857658875374 -0.0779145802394603 0
          0.1248871268354313 1.0749018695865218 0 0.2789314875924367 1.0803271100183673 0
          <InformationKey name="L2_NORM_RANGE" location="vtkDataArray" length="2">
            <Value index="0">
              0.12469713008
            </Value>
            <Value index="1">
              1.1157550983
            </Value>
          </InformationKey>
        </DataArray>
      </PointData>
      <CellData>
        <DataArray type="UInt8" Name="vtkGhostType" format="ascii" RangeMin="0" RangeMax="0">
          0 0 0 0 0 0
        </DataArray>
        <DataArray type="Float64" Name="Gauss Stress" NumberOfComponents="6" format="ascii" RangeMin="198.20710326994268" RangeMax="2225.170112222559">
          -1591.6352585672346 -559.0814345795214 0 17.407393026504238 0 0
          863.9297407662758 1808.7892935161763 0 -966.0686947672634 0 0
          -629.6668522781529 -204.70084513195798 0 38.947104538880275 0 0
          185.065659071085 625.3858438460254 0 -260.0554942142411 0 0
          -194.3902316182238 7.785137426434517 0 -37.91945771403592 0 0
          31.735930930359956 236.2343436737172 0 -122.0973495496651 0 0
          <InformationKey name="L2_NORM_RANGE" location="vtkDataArray" length="2">
            <Value index="0">
              198.20710327
            </Value>
            <Value index="1">
              2225.1701122
            </Value>
          </InformationKey>
        </DataArray>
        <DataArray type="Float64" Name="Gauss Strain" NumberOfComponents="6" format="ascii" RangeMin="0.00016396771097092455" RangeMax="0.0020790390135764602">
          -0.0007313485813085323 0.00030120524267918114 0 0.00003481478605300847 0 0
          -0.000205157872946705 0.0007397016798031951 0 -0.0019321373895345266 0 0
          -0.00029591977331410845 0.00012904623383208635 0 0.00007789420907776054 0 0
          -0.00013911494209575912 0.00030120524267918114 0 -0.0005201109884284821 0 0
          -0.00011974819394150807 0.00008242717510315023 0 -0.00007583891542807183 0 0
          -0.00007545217891127094 0.00012904623383208635 0 -0.00024419469909933017 0 0
          <InformationKey name="L2_NORM_RANGE" location="vtkDataArray" length="2">
            <Value index="0">
              0.00016396771097
            </Value>
            <Value index="1">
              0.0020790390136
            </Value>
          </InformationKey>
        </DataArray>
        <DataArray type="Float64" Name="Btraction" NumberOfComponents="3" format="ascii" RangeMin="0" RangeMax="0">
          0 0 0 0 0 0
          0 0 0 0 0 0
          0 0 0 0 0 0
          <InformationKey name="L2_NORM_RANGE" location="vtkDataArray" length="2">
            <Value index="0">
              0
            </Value>
            <Value index="1">
              0
            </Value>
          </InformationKey>
        </DataArray>
      </CellData>
      <Points>
        <DataArray type="Float32" Name="Points" NumberOfComponents="3" format="ascii" RangeMin="0.14000000059604645" RangeMax="0.35057095688290196">
          0.3499999940395355 0.019999999552965164 0 0.3499999940395355 0 0
          0.2800000011920929 0.019999999552965164 0 0.2800000011920929 0 0
          0.20999999344348907 0.019999999552965164 0 0.20999999344348907 0 0
          0.14000000059604645 0 0 0.14000000059604645 0.019999999552965164 0
          <InformationKey name="L2_NORM_RANGE" location="vtkDataArray" length="2">
            <Value index="0">
              0.1400000006
            </Value>
            <Value index="1">
              0.35057095688
            </Value>
          </InformationKey>
        </DataArray>
      </Points>
      <Cells>
        <DataArray type="Int64" Name="connectivity" format="ascii" RangeMin="0" RangeMax="7">
          5 4 6 4 7 6
          3 2 5 2 4 5
          1 0 3 0 2 3
        </DataArray>
        <DataArray type="Int64" Name="offsets" format="ascii" RangeMin="3" RangeMax="18">
          3 6 9 12 15 18
        </DataArray>
        <DataArray type="UInt8" Name="types" format="ascii" RangeMin="5" RangeMax="5">
          5 5 5 5 5 5
        </DataArray>
      </Cells>
    </Piece>
  </UnstructuredGrid>
</VTKFile>
