<?xml version="1.0"?>
<VTKFile type="UnstructuredGrid" version="0.1" byte_order="LittleEndian" header_type="UInt32" compressor="vtkZLibDataCompressor">
  <UnstructuredGrid>
    <Piece NumberOfPoints="13" NumberOfCells="11">
      <PointData>
        <DataArray type="Float64" Name="Disp" NumberOfComponents="3" format="ascii" RangeMin="0" RangeMax="0.08999900007878114">
          0 0 0 0 0 0
          0.0007869498606415005 -0.0025131766365724608 0 -0.0015380060356040724 -0.002408090035323358 0
          0.002650443006294322 -0.010447297164104398 0 -0.0030380003939961984 -0.010308182494387799 0
          0.00403590608794143 -0.02554382119911025 0 -0.004939603693187298 -0.02575377884205477 0
          0.004872832474681428 -0.04533581063085636 0 -0.005628379893953029 -0.045451050689718615 0
          0.005182610464684335 -0.06735253866753571 0 -0.00601584812807422 -0.0674488775967525 0
          0.005145680040401312 -0.08985177790173249 0
          <InformationKey name="L2_NORM_RANGE" location="vtkDataArray" length="2">
            <Value index="0">
              0
            </Value>
            <Value index="1">
              0.089999000079
            </Value>
          </InformationKey>
        </DataArray>
        <DataArray type="Float64" Name="Nodal Stress" NumberOfComponents="6" format="ascii" RangeMin="22015.654417563088" RangeMax="2929767.594258408">
          -2550932.8972625863 -445052.8036024562 0 -1370477.1110951847 0 0
          -168948.48263914368 170647.44840606576 0 -22140.053563253954 0 0
          202472.67869612263 49325.21122474475 0 42606.76862484724 0 0
          -85037.87910758784 -21953.19201842171 0 42081.34796099673 0 0
          -26020.40868179551 -60435.80244384617 0 -60819.363623856145 0 0
          -105354.59825964968 -16054.818912137862 0 24640.999590583062 0 0
          93271.28998446676 31918.57470284799 0 -26230.143313342433 0 0
          -38927.681617964445 35761.17443155208 0 6742.132450856206 0 0
          56192.223675204594 30586.907778290497 0 -24859.087391428562 0 0
          -20254.369535969938 27688.997093742313 0 2966.0509441323115 0 0
          35584.189917640586 25960.65901647826 0 -13459.481641188202 0 0
          -4003.434928027959 22447.0641863066 0 -2921.062303300681 0 0
          14998.327369879345 15390.722099054634 0 -4781.724459770194 0 0
          <InformationKey name="L2_NORM_RANGE" location="vtkDataArray" length="2">
            <Value index="0">
              22015.654418
            </Value>
            <Value index="1">
              2929767.5943
            </Value>
          </InformationKey>
        </DataArray>
        <DataArray type="Float64" Name="Nodal Strain" NumberOfComponents="6" format="ascii" RangeMin="0.0009232153525835367" RangeMax="0.2296518053359646">
          -0.16631474967581136 0.05931526035920264 0 -0.14683683333162695 0 0
          -0.0181623004887269 0.01822297783754554 0 -0.0023721485960629166 0 0
          0.012700719505982167 -0.00370793772309404 0 0.004565010924090773 0 0
          -0.005290091649884071 0.0014689819668123006 0 0.0045087158529639355 0 0
          0.00029982089572339765 -0.003387542721639174 0 -0.0065163603882703 0 0
          -0.006951942057398627 0.002615891444120498 0 0.002640107098991043 0 0
          0.005522285902360199 -0.00105121930638467 0 -0.0028103724978581174 0 0
          -0.0040577334881243205 0.003944643945752451 0 0.0007223713340203073 0 0
          0.0029213406990042405 0.00017791399576344303 0 -0.0026634736490816317 0 0
          -0.00243563343448865 0.002701155847266235 0 0.0003177911725856047 0 0
          0.0016145614578143902 0.000583468861261284 0 -0.001442087318698736 0 0
          -0.0010876405015129472 0.00174634154645147 0 -0.0003129709610679301 0 0
          0.0005216404514537167 0.0005636827438653543 0 -0.0005123276206896637 0 0
          <InformationKey name="L2_NORM_RANGE" location="vtkDataArray" length="2">
            <Value index="0">
              0.00092321535258
            </Value>
            <Value index="1">
              0.22965180534
            </Value>
          </InformationKey>
        </DataArray>
        <DataArray type="Float64" Name="Sld_traction" NumberOfComponents="3" format="ascii" RangeMin="15586.790746816805" RangeMax="329278.9243360218">
          -42744.2846551844 135900.10985710114 0 329173.49599926866 8331.839143133644 0
          -226261.6152097618 -109944.62928503564 0 -22693.255721985915 12171.531127722374 0
          -59656.22721130087 -29396.448502774485 0 -87467.88567546557 19561.873078374745 0
          -89924.9626851756 28791.28101829258 0 -46436.767566544055 -29930.51809609241 0
          -49801.351698973434 31562.280649256252 0 -22515.298369848595 -28629.392982348218 0
          -27423.008034258808 25168.942594265118 0 -4290.70952899841 -22759.131508431503 0
          -6230.09272507087 14287.546690109992 0
          <InformationKey name="L2_NORM_RANGE" location="vtkDataArray" length="2">
            <Value index="0">
              15586.790747
            </Value>
            <Value index="1">
              329278.92434
            </Value>
          </InformationKey>
        </DataArray>
        <DataArray type="Float64" Name="Velocity" NumberOfComponents="3" format="ascii" RangeMin="0" RangeMax="3.1030208599539866">
          0 0 0 0 0 0
          -0.27530334469641843 1.0282504531914116 0 0.4360997010537439 1.0989568442504223 0
          -0.19835656837386056 2.519910769521556 0 0.33334830929131354 2.5555891630100454 0
          0.11376221789712276 3.0989614370135303 0 0.12799219130678435 3.1003800502961028 0
          0.37607907994344636 2.5921393830001755 0 -0.21529836750399617 2.627480137101763 0
          0.8058692680308448 0.5977006302937449 0 -0.5905405448167547 0.535867940702698 0
          0.9197180109509034 -2.6688391234711055 0
          <InformationKey name="L2_NORM_RANGE" location="vtkDataArray" length="2">
            <Value index="0">
              0
            </Value>
            <Value index="1">
              3.10302086
            </Value>
          </InformationKey>
        </DataArray>
        <DataArray type="Float64" Name="Acceleration" NumberOfComponents="3" format="ascii" RangeMin="0" RangeMax="3623.1820928785182">
          0 0 0 0 0 0
          357.1833820484382 -1147.9968373865672 0 -413.87953571048854 -1214.0980787829124 0
          55.71353824318521 -2443.0990041666932 0 54.37359825057479 -2533.2590918686674 0
          -778.6823385417637 -798.5196872528359 0 699.5729425218415 -554.973676274235 0
          -407.2141520837912 2256.9429913931945 0 543.8733061047734 2286.9837427858483 0
          71.8623347128555 3100.933620228291 0 361.5550084498831 3113.936631898716 0
          205.23602477495092 3617.3646004087195 0
          <InformationKey name="L2_NORM_RANGE" location="vtkDataArray" length="2">
            <Value index="0">
              0
            </Value>
            <Value index="1">
              3623.1820929
            </Value>
          </InformationKey>
        </DataArray>
        <DataArray type="Float64" Name="Sigma" NumberOfComponents="6" format="ascii" RangeMin="40696.772959670394" RangeMax="7152785.619815991">
          -6213280.011387592 -1342560.904353261 0 -3279485.3012690875 0 0
          607504.601699615 571872.0697909463 0 545438.6286136257 0 0
          1416748.656157625 134463.34863815416 0 531623.5295438091 0 0
          -753591.6494590496 -200442.56545808856 0 -142636.70077906555 0 0
          -102579.1201478205 -152389.09590644698 0 -204578.5081647212 0 0
          -148053.63275388975 -10108.793224799074 0 161267.70883455238 0 0
          298466.2558632936 84438.84572981177 0 -71246.86015272941 0 0
          -141495.48910063907 76958.51367821432 0 22373.179493649382 0 0
          142214.40173309937 27158.57029730342 0 -49983.82733541494 0 0
          -61603.4146550744 44160.484875468406 0 27860.1785901145 0 0
          90031.63149280881 38694.43485930465 0 -27625.94069945147 0 0
          -15224.606166093778 39844.44956694323 0 1277.8963649841644 0 0
          34791.156250787346 20721.88614650076 0 -4050.4580723320196 0 0
          <InformationKey name="L2_NORM_RANGE" location="vtkDataArray" length="2">
            <Value index="0">
              40696.77296
            </Value>
            <Value index="1">
              7152785.6198
            </Value>
          </InformationKey>
        </DataArray>
        <DataArray type="Float64" Name="Press" format="ascii" RangeMin="-40163.0500137459" RangeMax="52963.81428947415">
          52963.81428947415 43132.20840454812 49515.33888410019 27244.75494391549 46403.66017100226 14866.570319663118
          -20854.481326934005 -40163.0500137459 -2762.906063614356 -16517.008051651697 -10487.772301401137 -15437.462632589206
          -6930.545046213176
        </DataArray>
        <DataArray type="Float64" Name="Dev strain" NumberOfComponents="6" format="ascii" RangeMin="0.0012909878034397973" RangeMax="0.2304900373428867">
          -0.16808774231748635 0.05754226771752767 0 -0.14683683333162695 0 0
          -0.019732693705779493 0.01665258462049294 0 -0.0023721485960629166 0 0
          0.011101869998654765 -0.005306787230421435 0 0.004565010924090773 0 0
          -0.006520166966842134 0.00023890664985423766 0 0.0045087158529639355 0 0
          -0.0008647787147240326 -0.004552142332086605 0 -0.0065163603882703 0 0
          -0.00733104766613757 0.0022367858353815554 0 0.002640107098991043 0 0
          0.005915378441772049 -0.0006581267669728195 0 -0.0028103724978581174 0 0
          -0.0031950444625422946 0.0048073329713344765 0 0.0007223713340203073 0 0
          0.003401340122042385 0.0006579134188015873 0 -0.0026634736490816317 0 0
          -0.001896336060422351 0.0032404532213325334 0 0.0003177911725856047 0 0
          0.0020208978455724743 0.0009898052490193681 0 -0.001442087318698736 0 0
          -0.0006405430916498349 0.002193438956314583 0 -0.0003129709610679301 0 0
          0.0008166202270957774 0.0008586625195074149 0 -0.0005123276206896637 0 0
          <InformationKey name="L2_NORM_RANGE" location="vtkDataArray" length="2">
            <Value index="0">
              0.0012909878034
            </Value>
            <Value index="1">
              0.23049003734
            </Value>
          </InformationKey>
        </DataArray>
        <DataArray type="Float64" Name="J2 Stresses" format="ascii" RangeMin="824012112.0165498" RangeMax="22892415101213.223">
          22892415101213.223 422425577042.5725 1083284467716.8652 309125105193.1998 27335547721.46837 17512851414.22919
          49375041049.02363 13096932921.858252 11105857749.22262 3066611948.569023 4992275129.05135 910092651.8825816
          824012112.0165498
        </DataArray>
      </PointData>
      <CellData>
        <DataArray type="UInt8" Name="vtkGhostType" format="ascii" RangeMin="0" RangeMax="0">
          0 0 0 0 0 0
          0 0 0 0 0
        </DataArray>
        <DataArray type="Float64" Name="Gauss Stress" NumberOfComponents="6" format="ascii" RangeMin="28476.87267106174" RangeMax="1543465.7233424694">
          463517.97021025117 208595.05173452516 0 311475.1524594563 0 0
          -1347805.130650743 -163538.0414486793 0 -734141.0477038838 0 0
          -305236.4723087263 -91475.15638491788 0 -61982.50003641142 0 0
          227913.88018325757 -31734.852909121146 0 61469.44020000741 0 0
          -12411.275670750692 35045.86838740341 0 37464.67605849079 0 0
          29416.417375104953 -12547.764745900946 0 -38185.88649429942 0 0
          -40109.155383875346 29611.53490732473 0 83.1769161163229 0 0
          78468.2436971532 41591.83076701174 0 -32952.502664831656 0 0
          -9746.210771333801 26752.375438691415 0 504.0447518824003 0 0
          46958.31071805554 26748.601205136427 0 -16583.196481583967 0 0
          25580.800532432957 22134.996864181703 0 -10132.83413559977 0 0
          <InformationKey name="L2_NORM_RANGE" location="vtkDataArray" length="2">
            <Value index="0">
              28476.872671
            </Value>
            <Value index="1">
              1543465.7233
            </Value>
          </InformationKey>
        </DataArray>
        <DataArray type="Float64" Name="Gauss Strain" NumberOfComponents="6" format="ascii" RangeMin="0.0016428177954582195" RangeMax="0.12527492835551396">
          0.02565860316735633 -0.001654566669328601 0 0.03337233776351318 0 0
          -0.09043115070902882 0.036454608848335145 0 -0.07865796939684469 0 0
          -0.0185356352940191 0.004367362840674658 0 -0.006640982146758366 0 0
          0.01741295047412986 -0.010406556642910708 0 0.006586011450000795 0 0
          -0.0021381578474608844 0.002946536158769911 0 0.004014072434838298 0 0
          0.002549307124861101 -0.0019468552452466732 0 -0.004091344981532079 0 0
          -0.003922494488395552 0.0035475794713758866 0 0.000008911812441034055 0 0
          0.004119452022403383 0.00016840777988822494 0 -0.0035306252855176784 0 0
          -0.0016515998921913934 0.0022589629160255946 0 0.0000540047948445428 0 0
          0.002398857865391952 0.00023353184615061912 0 -0.0017767710515982822 0 0
          0.001036664435738722 0.0006674711855689452 0 -0.0010856608002428325 0 0
          <InformationKey name="L2_NORM_RANGE" location="vtkDataArray" length="2">
            <Value index="0">
              0.0016428177955
            </Value>
            <Value index="1">
              0.12527492836
            </Value>
          </InformationKey>
        </DataArray>
      </CellData>
      <Points>
        <DataArray type="Float32" Name="Points" NumberOfComponents="3" format="ascii" RangeMin="0" RangeMax="0.6020797527609908">
          0 0.05000000074505806 0 0 0 0
          0.10000000149011612 0.05000000074505806 0 0.10000000149011612 0 0
          0.20000000298023224 0.05000000074505806 0 0.20000000298023224 0 0
          0.30000001192092896 0.05000000074505806 0 0.30000001192092896 0 0
          0.4000000059604645 0.05000000074505806 0 0.4000000059604645 0 0
          0.5 0.05000000074505806 0 0.5 0 0
          0.6000000238418579 0.05000000074505806 0
          <InformationKey name="L2_NORM_RANGE" location="vtkDataArray" length="2">
            <Value index="0">
              0
            </Value>
            <Value index="1">
              0.60207975276
            </Value>
          </InformationKey>
        </DataArray>
      </Points>
      <Cells>
        <DataArray type="Int64" Name="connectivity" format="ascii" RangeMin="0" RangeMax="12">
          3 2 1 2 0 1
          5 4 3 4 2 3
          7 6 5 6 4 5
          9 8 7 8 6 7
          11 10 9 10 8 9
          12 10 11
        </DataArray>
        <DataArray type="Int64" Name="offsets" format="ascii" RangeMin="3" RangeMax="33">
          3 6 9 12 15 18
          21 24 27 30 33
        </DataArray>
        <DataArray type="UInt8" Name="types" format="ascii" RangeMin="5" RangeMax="5">
          5 5 5 5 5 5
          5 5 5 5 5
        </DataArray>
      </Cells>
    </Piece>
  </UnstructuredGrid>
</VTKFile>
