<?xml version="1.0"?>
<VTKFile type="UnstructuredGrid" version="0.1" byte_order="LittleEndian" header_type="UInt32" compressor="vtkZLibDataCompressor">
  <UnstructuredGrid>
    <Piece NumberOfPoints="13" NumberOfCells="11">
      <PointData>
        <DataArray type="Float64" Name="Disp" NumberOfComponents="3" format="ascii" RangeMin="0" RangeMax="0.021219656254388354">
          0 0 0 0 0 0
          -0.000022681648780709693 0.00003973778193907954 0 -0.000036820416754826304 0.00007412377525713165 0
          0.0001836831639465044 -0.00027239302541887936 0 -0.00024336210586054115 -0.00020628232125187353 0
          0.0006000976358926735 -0.001886165467134009 0 -0.0006815786689104062 -0.0018574403834125553 0
          0.0011509102675570416 -0.005452024470712994 0 -0.0012322969357904533 -0.005405664897952207 0
          0.001894025003350586 -0.011585380571772434 0 -0.0019699021954898716 -0.011550823136053677 0
          0.0027947952976442878 -0.021034802846679312 0
          <InformationKey name="L2_NORM_RANGE" location="vtkDataArray" length="2">
            <Value index="0">
              0
            </Value>
            <Value index="1">
              0.021219656254
            </Value>
          </InformationKey>
        </DataArray>
        <DataArray type="Float64" Name="Nodal Stress" NumberOfComponents="6" format="ascii" RangeMin="15032.293165380806" RangeMax="164684.51983490586">
          -148535.19350973837 8275.968470221065 0 -70638.48602679695 0 0
          -14433.357699106009 34047.3930913159 0 7774.955102362966 0 0
          14057.113352510149 3056.714864526581 0 7115.154784437841 0 0
          -15210.071659633933 -12720.66698419787 0 4835.796210148956 0 0
          988.0286829631293 -14820.005234089016 0 -2315.4010437008164 0 0
          -24319.87231470774 -11290.665354632662 0 7498.027939128208 0 0
          15230.763326081014 -9347.447969251523 0 -2962.068128673545 0 0
          -28428.690258327413 -9487.712144648543 0 9221.62496005482 0 0
          21606.94860116662 -9443.8490235515 0 -5568.478721911581 0 0
          -35495.76861048934 -9668.478378376058 0 11892.931828262004 0 0
          28670.484330910316 -9422.581898388671 0 -8194.867035685586 0 0
          -40493.53591066872 -8659.930831905256 0 13838.412649785389 0 0
          34949.7160087776 -5228.5906645874065 0 -12024.47517680038 0 0
          <InformationKey name="L2_NORM_RANGE" location="vtkDataArray" length="2">
            <Value index="0">
              15032.293165
            </Value>
            <Value index="1">
              164684.51983
            </Value>
          </InformationKey>
        </DataArray>
        <DataArray type="Float64" Name="Nodal Strain" NumberOfComponents="6" format="ascii" RangeMin="0.0008952927606925483" RangeMax="0.014524711473851898">
          -0.01090522698177492 0.005895968944649302 0 -0.007568409217156815 0 0
          -0.002246932446054568 0.002947433710062065 0 0.0008330309038246033 0 0
          0.0008949111371604903 -0.00028370298655203526 0 0.0007623380126183402 0 0
          -0.0006321241548239284 -0.0003654022253129221 0 0.0005181210225159594 0 0
          0.0005998593785719741 -0.0010938585411121844 0 -0.0002480786832536589 0 0
          -0.001333895688385101 0.00006209077162294326 0 0.0008033601363351654 0 0
          0.0014217490936219129 -0.0012116306880208595 0 -0.00031736444235787976 0 0
          -0.0016917738704287962 0.00033761664175108294 0 0.000988031245720159 0 0
          0.001880633793781598 -0.0014462373802953436 0 -0.0005966227202048123 0 0
          -0.002190109244378665 0.0005771004233477579 0 0.0012742426958852148 0 0
          0.0023844125200074753 -0.0016969874331317018 0 -0.0008780214681091701 0 0
          -0.0025831121781940067 0.0008276312231020784 0 0.0014826870696198627 0 0
          0.0026831436672193794 -0.0016216749049268715 0 -0.0012883366260857552 0 0
          <InformationKey name="L2_NORM_RANGE" location="vtkDataArray" length="2">
            <Value index="0">
              0.00089529276069
            </Value>
            <Value index="1">
              0.014524711474
            </Value>
          </InformationKey>
        </DataArray>
        <DataArray type="Float64" Name="Sld_traction" NumberOfComponents="3" format="ascii" RangeMin="9972.45074905132" RangeMax="38699.89923312448">
          3851.5248625948266 23782.002545766452 0 15237.737447488342 -20554.242748164437 0
          -9507.72174032238 -9690.63380193962 0 -5338.571936415619 8423.148082633348 0
          -4886.359443784481 -11710.694127023859 0 -16713.085330713693 12295.906609999554 0
          -15494.471169307299 -9748.600132813426 0 -23243.643158918992 9624.904832448874 0
          -21524.57508025026 -9263.374460491927 0 -30418.067430106443 9750.699831902275 0
          -29543.199631252897 -9010.795699225118 0 -37647.03152922516 8965.66883681945 0
          -38091.26913380414 -3964.6485701011134 0
          <InformationKey name="L2_NORM_RANGE" location="vtkDataArray" length="2">
            <Value index="0">
              9972.4507491
            </Value>
            <Value index="1">
              38699.899233
            </Value>
          </InformationKey>
        </DataArray>
        <DataArray type="Float64" Name="Velocity" NumberOfComponents="3" format="ascii" RangeMin="0" RangeMax="8.84799896115519">
          0 0 0 0 0 0
          0.04853444901278016 -0.08273474816738108 0 -0.12031281022702484 -0.0494760503308338 0
          0.39027482247190687 -0.9784460149979891 0 -0.4097121691337081 -0.9712426947650499 0
          0.5954189956700024 -3.2303937696663256 0 -0.6835753290227964 -3.3117410077631892 0
          0.46441921238259704 -5.7017000864599225 0 -0.5887424252624917 -5.723315649445553 0
          0.2921472487910862 -7.471496689996152 0 -0.4617328402374189 -7.460781894035927 0
          0.2371636533556563 -8.844819897438857 0
          <InformationKey name="L2_NORM_RANGE" location="vtkDataArray" length="2">
            <Value index="0">
              0
            </Value>
            <Value index="1">
              8.8479989612
            </Value>
          </InformationKey>
        </DataArray>
        <DataArray type="Float64" Name="Acceleration" NumberOfComponents="3" format="ascii" RangeMin="0" RangeMax="3227.4109535190105">
          0 0 0 0 0 0
          27.354063113795462 14.27835575992674 0 19.382868734254885 33.4857394816363 0
          54.78002447997733 -50.19863202244005 0 40.1822703527896 -64.52177031343399 0
          -65.87346779890072 98.61562170847355 0 101.45060558093883 123.34133935972477 0
          118.56802143520594 326.25934612435776 0 -88.44060611124513 374.1872172233161 0
          519.1405230101923 -1038.4759794761221 0 -596.1874900122774 -1181.0773279956757 0
          180.6805648691079 -3222.349452864023 0
          <InformationKey name="L2_NORM_RANGE" location="vtkDataArray" length="2">
            <Value index="0">
              0
            </Value>
            <Value index="1">
              3227.4109535
            </Value>
          </InformationKey>
        </DataArray>
        <DataArray type="Float64" Name="Sigma" NumberOfComponents="6" format="ascii" RangeMin="25933.62837557537" RangeMax="408586.33188038564">
          -365053.7064264987 -27954.000887713744 0 -181375.73117182474 0 0
          23339.748771994316 79447.81718595597 0 46081.87991333628 0 0
          91291.27621981007 -11771.555351883733 0 34115.63832312537 0 0
          -70416.26233106368 -37976.57205893234 0 -8983.424308867397 0 0
          5596.473140289265 -22226.54219632176 0 -12133.152562611125 0 0
          -52894.75110641288 -11996.41123132027 0 21883.24894062706 0 0
          50357.67337632178 -16013.870331391947 0 -14901.184735387753 0 0
          -77430.67274481445 -10520.800657951044 0 21728.940530641317 0 0
          65489.71298286946 -19012.96890213964 0 -21228.93551168164 0 0
          -96158.09952179242 -9475.483368473382 0 30662.847890321624 0 0
          86688.83769812917 -19718.075261084887 0 -29330.52369938726 0 0
          -111698.77188420923 -6957.668417181223 0 38128.07248871082 0 0
          103179.58046297876 -13840.493889009773 0 -38708.16747828672 0 0
          <InformationKey name="L2_NORM_RANGE" location="vtkDataArray" length="2">
            <Value index="0">
              25933.628376
            </Value>
            <Value index="1">
              408586.33188
            </Value>
          </InformationKey>
        </DataArray>
        <DataArray type="Float64" Name="Press" format="ascii" RangeMin="-3000.9612268228125" RangeMax="9802.565516923327">
          4930.227911232847 4971.836454135879 6503.321545637953 6237.342818064636 8179.447586148039 3994.786058899178
          7206.317816189452 491.0909285057769 9798.672776242765 -153.48153601770355 9802.565516923327 -3000.9612268228125
          8652.054796202177
        </DataArray>
        <DataArray type="Float64" Name="Dev strain" NumberOfComponents="6" format="ascii" RangeMin="0.0011356707348883187" RangeMax="0.014592748680061092">
          -0.011095723533759202 0.005705472392665021 0 -0.007568409217156815 0 0
          -0.0024436358372916973 0.002750730318824935 0 0.0008330309038246033 0 0
          0.0006730421987211758 -0.0005055719249913494 0 0.0007623380126183402 0 0
          -0.0008575890884102226 -0.0005908671588992164 0 0.0005181210225159594 0 0
          0.0003520897874033928 -0.0013416281322807654 0 -0.0002480786832536589 0 0
          -0.0015168381910774828 -0.00012085173106943909 0 0.0008033601363351654 0 0
          0.001212856887567337 -0.0014205228940754352 0 -0.00031736444235787976 0 0
          -0.0018131959873299286 0.00021619452484995016 0 0.000988031245720159 0 0
          0.0016530262379019986 -0.0016738449361749434 0 -0.0005966227202048123 0 0
          -0.0022965726880450604 0.0004706369796813622 0 0.0012742426958852148 0 0
          0.002173230272542285 -0.0019081696805968921 0 -0.0008780214681091701 0 0
          -0.0026193179238744565 0.0007914254774216288 0 0.0014826870696198627 0 0
          0.002540316175005865 -0.0017645023971403855 0 -0.0012883366260857552 0 0
          <InformationKey name="L2_NORM_RANGE" location="vtkDataArray" length="2">
            <Value index="0">
              0.0011356707349
            </Value>
            <Value index="1">
              0.01459274868
            </Value>
          </InformationKey>
        </DataArray>
        <DataArray type="Float64" Name="J2 Stresses" format="ascii" RangeMin="299473192.58432466" RangeMax="75247106335.20581">
          75247106335.20581 3959234678.2632318 4527302509.170636 3220510491.090516 299473192.58432466 1590603434.5695207
          1451680982.0630097 3171134878.2454844 2437864672.2659593 4903135004.540826 4166948441.8472733 6625949873.048122
          5793373105.185786
        </DataArray>
      </PointData>
      <CellData>
        <DataArray type="UInt8" Name="vtkGhostType" format="ascii" RangeMin="0" RangeMax="0">
          0 0 0 0 0 0
          0 0 0 0 0
        </DataArray>
        <DataArray type="Float64" Name="Gauss Stress" NumberOfComponents="6" format="ascii" RangeMin="12833.092928372005" RangeMax="87019.43468671538">
          20642.42115952637 15804.063530992782 0 23738.03130919808 0 0
          -78005.76517456253 18709.21561912172 0 -33726.07097845436 0 0
          -33100.98794469182 -17929.316341154172 0 255.55735638284932 0 0
          15797.199659628757 -17018.185885762403 0 4333.020483882282 0 0
          -22758.518557103722 -8946.295805689619 0 9570.33491196021 0 0
          7479.982290478285 -10285.424099265769 0 -1717.0294524572746 0 0
          -32654.259038335535 -9624.323586611077 0 10387.617636427103 0 0
          18637.598378438277 -9350.519456848211 0 -4800.393238809362 0 0
          -38173.30365126324 -9834.368097552227 0 13153.465559881732 0 0
          25156.069305451543 -9586.256924849838 0 -6632.203773582432 0 0
          31207.768454400466 -8354.192826991062 0 -9970.206229654388 0 0
          <InformationKey name="L2_NORM_RANGE" location="vtkDataArray" length="2">
            <Value index="0">
              12833.092928
            </Value>
            <Value index="1">
              87019.434687
            </Value>
          </InformationKey>
        </DataArray>
        <DataArray type="Float64" Name="Gauss Strain" NumberOfComponents="6" format="ascii" RangeMin="0.0013602935476284275" RangeMax="0.00830594167108183">
          0.0009100278138592851 0.0003916323536592569 0 0.0025433604974140793 0 0
          -0.006240026641723098 0.004122292729028783 0 -0.0036135076048343954 0 0
          -0.0017240235552939097 -0.00009848731205773324 0 0.000027381145326733816 0 0
          0.0017361637573221394 -0.0017797704082554843 0 0.0004642521947016728 0 0
          -0.001306097903875637 0.0001737831052044459 0 0.0010253930262814513 0 0
          0.0009016210242936554 -0.0010018153746074938 0 -0.00018396744133470787 0 0
          -0.0019887212317878564 0.0004787718523254777 0 0.0011129590324743322 0 0
          0.0016652041504901702 -0.001333522760433382 0 -0.0005143278470152886 0 0
          -0.002375437114463366 0.0006608774091485276 0 0.0014092998814159 0 0
          0.002139228411991176 -0.0015831636841125432 0 -0.0007105932614552607 0 0
          0.0025274903477068575 -0.001711291218156521 0 -0.001068236381748685 0 0
          <InformationKey name="L2_NORM_RANGE" location="vtkDataArray" length="2">
            <Value index="0">
              0.0013602935476
            </Value>
            <Value index="1">
              0.0083059416711
            </Value>
          </InformationKey>
        </DataArray>
      </CellData>
      <Points>
        <DataArray type="Float32" Name="Points" NumberOfComponents="3" format="ascii" RangeMin="0" RangeMax="0.6020797527609908">
          0 0.05000000074505806 0 0 0 0
          0.10000000149011612 0.05000000074505806 0 0.10000000149011612 0 0
          0.20000000298023224 0.05000000074505806 0 0.20000000298023224 0 0
          0.30000001192092896 0.05000000074505806 0 0.30000001192092896 0 0
          0.4000000059604645 0.05000000074505806 0 0.4000000059604645 0 0
          0.5 0.05000000074505806 0 0.5 0 0
          0.6000000238418579 0.05000000074505806 0
          <InformationKey name="L2_NORM_RANGE" location="vtkDataArray" length="2">
            <Value index="0">
              0
            </Value>
            <Value index="1">
              0.60207975276
            </Value>
          </InformationKey>
        </DataArray>
      </Points>
      <Cells>
        <DataArray type="Int64" Name="connectivity" format="ascii" RangeMin="0" RangeMax="12">
          3 2 1 2 0 1
          5 4 3 4 2 3
          7 6 5 6 4 5
          9 8 7 8 6 7
          11 10 9 10 8 9
          12 10 11
        </DataArray>
        <DataArray type="Int64" Name="offsets" format="ascii" RangeMin="3" RangeMax="33">
          3 6 9 12 15 18
          21 24 27 30 33
        </DataArray>
        <DataArray type="UInt8" Name="types" format="ascii" RangeMin="5" RangeMax="5">
          5 5 5 5 5 5
          5 5 5 5 5
        </DataArray>
      </Cells>
    </Piece>
  </UnstructuredGrid>
</VTKFile>
