<?xml version="1.0"?>
<VTKFile type="UnstructuredGrid" version="0.1" byte_order="LittleEndian" header_type="UInt32" compressor="vtkZLibDataCompressor">
  <UnstructuredGrid>
    <Piece NumberOfPoints="13" NumberOfCells="11">
      <PointData>
        <DataArray type="Float64" Name="Disp" NumberOfComponents="3" format="ascii" RangeMin="0" RangeMax="0.008051262726975265">
          0 0 0 0 0 0
          -0.000290497516424416 0.0009082899350185732 0 0.0004172713445505377 0.0009488357007922019 0
          -0.0003997952197267486 0.0026943410021117347 0 0.0004317588448052448 0.002767169734561935 0
          0.0000035738213923939763 0.003927158798690128 0 0.00015994195213838184 0.003995950315623878 0
          0.0006186312985252723 0.0030930494831316567 0 -0.0004995134057341234 0.0031426801394048437 0
          0.0014216378127392352 -0.0006425911913364758 0 -0.0012857926950766312 -0.0006330556865045099 0
          0.002247651461082599 -0.007731163845649272 0
          <InformationKey name="L2_NORM_RANGE" location="vtkDataArray" length="2">
            <Value index="0">
              0
            </Value>
            <Value index="1">
              0.008051262727
            </Value>
          </InformationKey>
        </DataArray>
        <DataArray type="Float64" Name="Nodal Stress" NumberOfComponents="6" format="ascii" RangeMin="18589.528737963505" RangeMax="597785.7939635392">
          497721.7124392508 161862.18299192112 0 288827.9525050311 0 0
          24646.66511028707 19339.612374931232 0 25401.828528432874 0 0
          -34631.33754990207 -9330.965261953874 0 2310.8640731228998 0 0
          -3338.9937103369084 -20488.740221645978 0 -3090.1438395398286 0 0
          8933.876045345749 -9992.388102074769 0 13186.140694626542 0 0
          -10437.968070152705 -13900.605990719769 0 6587.302509890469 0 0
          -801.8718139900408 -20263.581118188922 0 -287.5330213662458 0 0
          -28468.042812361033 -18607.145970544574 0 11682.384113839033 0 0
          18394.19565419352 -12452.62684742779 0 -4949.3113732605025 0 0
          -33992.334566785794 -9619.038145964201 0 12650.213899258833 0 0
          28977.462671902205 -6355.004877938274 0 -9936.406381573366 0 0
          -35802.88881112575 -3800.2808212321816 0 12749.752028637246 0 0
          34860.12902318569 1379.897329404369 0 -13041.451810327771 0 0
          <InformationKey name="L2_NORM_RANGE" location="vtkDataArray" length="2">
            <Value index="0">
              18589.528738
            </Value>
            <Value index="1">
              597785.79396
            </Value>
          </InformationKey>
        </DataArray>
        <DataArray type="Float64" Name="Nodal Strain" NumberOfComponents="6" format="ascii" RangeMin="0.0009719736253388715" RangeMax="0.04338847771452513">
          0.029770758638806454 -0.0062141909448360155 0 0.030945852054110465 0 0
          0.0010697756373443893 0.0005011628442705505 0 0.002721624485189236 0 0
          -0.0021404182084946537 0.0005703359652140829 0 0.0002475925792631683 0 0
          0.0004932411714632915 -0.0013442316690341093 0 -0.0003310868399506958 0 0
          0.0009950050068845097 -0.0010328090089105461 0 0.001412800788709987 0 0
          -0.00024911893391377297 -0.0006201158539745297 0 0.0007057824117739787 0 0
          0.0006664227675074583 -0.0014187603722281357 0 -0.00003080710943209785 0 0
          -0.0013688907019349108 -0.0003123660403117186 0 0.0012516840121970393 0 0
          0.001758607791279101 -0.0015464089053231823 0 -0.000530283361420768 0 0
          -0.002084486820985978 0.0005269377955306208 0 0.0013553800606348752 0 0
          0.0022967832222050965 -0.0014888383009920981 0 -0.0010646149694542892 0 0
          -0.0024216248857506896 0.0010072259703093347 0 0.0013660448602111335 0 0
          0.002440727168463108 -0.0011464405130134625 0 -0.0013972984082494038 0 0
          <InformationKey name="L2_NORM_RANGE" location="vtkDataArray" length="2">
            <Value index="0">
              0.00097197362534
            </Value>
            <Value index="1">
              0.043388477715
            </Value>
          </InformationKey>
        </DataArray>
        <DataArray type="Float64" Name="Sld_traction" NumberOfComponents="3" format="ascii" RangeMin="14101.329400109913" RangeMax="88519.5146044091">
          22886.621343941948 7799.741688169329 0 -74329.75326838718 -48070.7004823196 0
          52310.50437916718 14510.360677202183 0 -4723.820594098585 14435.202038058163 0
          6769.950540205001 -12369.933731980223 0 -6218.871403871031 15621.207554631466 0
          -5279.803955810764 -19306.13667682533 0 -24865.55844160892 17882.032126681188 0
          -23086.592024498215 -11785.445688958986 0 -33254.67563610429 10799.890991437307 0
          -32483.48184458963 -5475.5297248604675 0 -36812.518958964225 4563.829848323195 0
          -37619.68351786452 2380.5676580897566 0
          <InformationKey name="L2_NORM_RANGE" location="vtkDataArray" length="2">
            <Value index="0">
              14101.3294
            </Value>
            <Value index="1">
              88519.514604
            </Value>
          </InformationKey>
        </DataArray>
        <DataArray type="Float64" Name="Velocity" NumberOfComponents="3" format="ascii" RangeMin="0" RangeMax="4.819587375432634">
          0 0 0 0 0 0
          0.1773198617645403 -0.5778931892374941 0 -0.24336421080452425 -0.59483358352537 0
          0.20107853744278417 -1.5532217786926577 0 -0.20708233345078597 -1.564839704616573 0
          0.03532699088174002 -2.122816889718521 0 -0.11235710197760988 -2.0921722753687346 0
          0.09094038168079585 -2.3246353372327264 0 -0.10915826447965155 -2.286885113542913 0
          0.3180404516544772 -3.116707658681654 0 -0.3260301652902265 -3.120085046572663 0
          0.4731984881033088 -4.796301247866564 0
          <InformationKey name="L2_NORM_RANGE" location="vtkDataArray" length="2">
            <Value index="0">
              0
            </Value>
            <Value index="1">
              4.8195873754
            </Value>
          </InformationKey>
        </DataArray>
        <DataArray type="Float64" Name="Acceleration" NumberOfComponents="3" format="ascii" RangeMin="0" RangeMax="2535.189982928616">
          0 0 0 0 0 0
          195.20029057933885 -817.4185069385468 0 -342.27609236100477 -888.1234272338297 0
          23.280119514225134 -1790.463567382309 0 -193.12352197237817 -1814.0003960421764 0
          -202.76215600475274 -1741.838804048688 0 -80.90215461258845 -1674.5683242583118 0
          26.24552130871143 -1748.6947744836505 0 -227.9719673679919 -1778.3898802510248 0
          -32.061516326658136 -2456.8161065087324 0 -181.57346955465766 -2528.679363757983 0
          -472.19265471999734 -1872.4208757625029 0
          <InformationKey name="L2_NORM_RANGE" location="vtkDataArray" length="2">
            <Value index="0">
              0
            </Value>
            <Value index="1">
              2535.1899829
            </Value>
          </InformationKey>
        </DataArray>
        <DataArray type="Float64" Name="Sigma" NumberOfComponents="6" format="ascii" RangeMin="45352.19777250642" RangeMax="1424487.661044954">
          1204641.3544725575 372951.3051634153 0 662504.0585088904 0 0
          -140949.2750332743 -9922.407673540525 0 -73263.39729250324 0 0
          -257817.1339942827 -68902.02052505102 0 -96432.90970515338 0 0
          94191.68204103922 -18512.386910063637 0 26629.978298892274 0 0
          40781.28776069859 5939.526892567388 0 37090.60658672641 0 0
          -46981.798797648386 -15727.915788674783 0 -4913.592338474395 0 0
          160.28110955750162 -43919.06503567467 0 -11309.813400522307 0 0
          -70992.31192710882 -29520.982049925497 0 30337.619478231507 0 0
          60628.185744537506 -19044.913938638594 0 -23530.176719501746 0 0
          -94454.45748148755 -8700.66599494703 0 32756.465075201857 0 0
          86750.19226653173 -15743.976236082935 0 -33089.03186846 0 0
          -101819.59508914343 -999.5804641293071 0 38164.57403758683 0 0
          99378.3154454504 -3120.79667688059 0 -39014.58687419603 0 0
          <InformationKey name="L2_NORM_RANGE" location="vtkDataArray" length="2">
            <Value index="0">
              45352.197773
            </Value>
            <Value index="1">
              1424487.661
            </Value>
          </InformationKey>
        </DataArray>
        <DataArray type="Float64" Name="Press" format="ascii" RangeMin="-6781.276781943565" RangeMax="15598.030363687538">
          -6781.276781943565 -3600.0578181759047 -2466.8387784916267 3886.8381019927965 428.0460033447125 1141.3642843256002
          15598.030363687538 8765.49154760427 10124.659669723085 -983.0132515060077 9033.353849978186 -4309.557996361151
          6030.362141052294
        </DataArray>
        <DataArray type="Float64" Name="Dev strain" NumberOfComponents="6" format="ascii" RangeMin="0.0011218506860985777" RangeMax="0.04348423414959435">
          0.029946021586668547 -0.006038927996973923 0 0.030945852054110465 0 0
          0.0011690093315838426 0.0006003965385100045 0 0.002721624485189236 0 0
          -0.0020791661165841923 0.0006315880571245436 0 0.0002475925792631683 0 0
          0.00044328655977337304 -0.0013941862807240275 0 -0.0003310868399506958 0 0
          0.0009183506248074234 -0.0011094633909876322 0 0.001412800788709987 0 0
          -0.00040254949370429444 -0.000773546413765051 0 0.0007057824117739787 0 0
          0.000297510268938849 -0.0017876728707967454 0 -0.00003080710943209785 0 0
          -0.0016789998697482038 -0.0006224752081250116 0 0.0012516840121970393 0 0
          0.0014581783304927895 -0.0018468383661094938 0 -0.000530283361420768 0 0
          -0.002194230514681245 0.0004171941018353542 0 0.0013553800606348752 0 0
          0.0021188963102559584 -0.0016667252129412356 0 -0.0010646149694542892 0 0
          -0.0024080396261425326 0.001020811229917492 0 0.0013660448602111335 0 0
          0.002369924620356514 -0.001217243061120057 0 -0.0013972984082494038 0 0
          <InformationKey name="L2_NORM_RANGE" location="vtkDataArray" length="2">
            <Value index="0">
              0.0011218506861
            </Value>
            <Value index="1">
              0.04348423415
            </Value>
          </InformationKey>
        </DataArray>
        <DataArray type="Float64" Name="J2 Stresses" format="ascii" RangeMin="996432951.6096097" RangeMax="904854641349.4745">
          904854641349.4745 11324457498.93256 37933408025.28081 4784679653.463933 1193123979.8070462 1233364224.076359
          996432951.6096097 3185791155.875464 2157660130.9148912 4766919564.494613 4160455330.4992733 5548248230.478308
          5323428973.577983
        </DataArray>
      </PointData>
      <CellData>
        <DataArray type="UInt8" Name="vtkGhostType" format="ascii" RangeMin="0" RangeMax="0">
          0 0 0 0 0 0
          0 0 0 0 0
        </DataArray>
        <DataArray type="Float64" Name="Gauss Stress" NumberOfComponents="6" format="ascii" RangeMin="14508.340360896646" RangeMax="325041.6469477813">
          -102251.59516039744 -33172.29120110997 0 -47688.77623292143 0 0
          264342.25735546305 93759.56786207088 0 164269.25050374458 0 0
          31149.1397979175 -7614.842472169308 0 19602.330849048092 0 0
          -40332.03962189965 -26542.27840523379 0 -10904.108273178226 0 0
          -30769.647806527442 -21221.025559552516 0 4704.737913078274 0 0
          3709.0702413218532 -12180.004426808073 0 6955.733615909901 0 0
          -28970.481899412513 -13119.80800589659 0 13187.96927797721 0 0
          8094.778836000369 -19332.259814407957 0 -1500.7902139308535 0 0
          -35261.02590066276 -7234.480031016081 0 12610.6690814429 0 0
          23699.640265925664 -8438.185300491095 0 -7954.24783758663 0 0
          31687.690205836014 -3036.7317941411666 0 -11313.014901689741 0 0
          <InformationKey name="L2_NORM_RANGE" location="vtkDataArray" length="2">
            <Value index="0">
              14508.340361
            </Value>
            <Value index="1">
              325041.64695
            </Value>
          </InformationKey>
        </DataArray>
        <DataArray type="Float64" Name="Gauss Strain" NumberOfComponents="6" format="ascii" RangeMin="0.001431871436851074" RangeMax="0.0236341422586869">
          -0.006118960682845892 0.0012823933127920533 0 -0.005109511739241582 0 0
          0.01553303381603055 -0.0027436829154043312 0 0.017600276839686915 0 0
          0.0024968972167144403 -0.0016563865979377186 0 0.0021002497338265813 0 0
          -0.0019329214585201977 -0.00045544704244885443 0 -0.0011682973149833812 0 0
          -0.001439938216196513 -0.00041687154687777156 0 0.000504079062115529 0 0
          0.0006999337467661351 -0.0010024671105335003 0 0.0007452571731332038 0 0
          -0.001600755564033159 0.00009753092455783331 0 0.0014129967083547012 0 0
          0.0012686363388003106 -0.00166997494517201 0 -0.0001607989514925913 0 0
          -0.002260270420368194 0.0007425737799510924 0 0.0013511431158688822 0 0
          0.001994195208297943 -0.001449143245246709 0 -0.0008522408397414248 0 0
          0.002371861150207614 -0.0013486126355042268 0 -0.0012121087394667577 0 0
          <InformationKey name="L2_NORM_RANGE" location="vtkDataArray" length="2">
            <Value index="0">
              0.0014318714369
            </Value>
            <Value index="1">
              0.023634142259
            </Value>
          </InformationKey>
        </DataArray>
      </CellData>
      <Points>
        <DataArray type="Float32" Name="Points" NumberOfComponents="3" format="ascii" RangeMin="0" RangeMax="0.6020797527609908">
          0 0.05000000074505806 0 0 0 0
          0.10000000149011612 0.05000000074505806 0 0.10000000149011612 0 0
          0.20000000298023224 0.05000000074505806 0 0.20000000298023224 0 0
          0.30000001192092896 0.05000000074505806 0 0.30000001192092896 0 0
          0.4000000059604645 0.05000000074505806 0 0.4000000059604645 0 0
          0.5 0.05000000074505806 0 0.5 0 0
          0.6000000238418579 0.05000000074505806 0
          <InformationKey name="L2_NORM_RANGE" location="vtkDataArray" length="2">
            <Value index="0">
              0
            </Value>
            <Value index="1">
              0.60207975276
            </Value>
          </InformationKey>
        </DataArray>
      </Points>
      <Cells>
        <DataArray type="Int64" Name="connectivity" format="ascii" RangeMin="0" RangeMax="12">
          3 2 1 2 0 1
          5 4 3 4 2 3
          7 6 5 6 4 5
          9 8 7 8 6 7
          11 10 9 10 8 9
          12 10 11
        </DataArray>
        <DataArray type="Int64" Name="offsets" format="ascii" RangeMin="3" RangeMax="33">
          3 6 9 12 15 18
          21 24 27 30 33
        </DataArray>
        <DataArray type="UInt8" Name="types" format="ascii" RangeMin="5" RangeMax="5">
          5 5 5 5 5 5
          5 5 5 5 5
        </DataArray>
      </Cells>
    </Piece>
  </UnstructuredGrid>
</VTKFile>
