<?xml version="1.0"?>
<VTKFile type="UnstructuredGrid" version="0.1" byte_order="LittleEndian" header_type="UInt32" compressor="vtkZLibDataCompressor">
  <UnstructuredGrid>
    <Piece NumberOfPoints="13" NumberOfCells="11">
      <PointData>
        <DataArray type="Float64" Name="Disp" NumberOfComponents="3" format="ascii" RangeMin="0" RangeMax="0.013617537437474628">
          0 0 0 0 0 0
          -0.0001243932294146228 0.0003502242482112981 0 0.00015946261375348084 0.00037514035472603277 0
          -0.00015535509914740278 0.0010672800474227605 0 0.00014485582839308237 0.00113204445419215 0
          0.00016181272744546812 0.0012973908857650106 0 -0.00011801380162471554 0.0013741471492042748 0
          0.0007914010753657067 -0.00033522130648386966 0 -0.0007460091305665783 -0.00027238474529802173 0
          0.0016643047087607583 -0.005025288623725831 0 -0.0015939217765464533 -0.005006765199413277 0
          0.0025802320880503565 -0.013370853683771219 0
          <InformationKey name="L2_NORM_RANGE" location="vtkDataArray" length="2">
            <Value index="0">
              0
            </Value>
            <Value index="1">
              0.013617537437
            </Value>
          </InformationKey>
        </DataArray>
        <DataArray type="Float64" Name="Nodal Stress" NumberOfComponents="6" format="ascii" RangeMin="10479.359761493122" RangeMax="206155.10600943535">
          168533.97416678866 66099.5084785299 0 98625.9715501272 0 0
          6617.244634452267 15136.581081118667 0 10053.279170156999 0 0
          -10002.792760479546 -2615.6600960037217 0 1708.6369608178868 0 0
          -5212.814368198711 -10514.010321388849 0 -254.96648539916103 0 0
          5511.301973250579 -9288.694092330004 0 5890.532271026619 0 0
          -14694.535580676687 -12358.306013003343 0 5537.085614055654 0 0
          5442.557592935762 -17917.091967587898 0 726.871564418392 0 0
          -29586.76441644778 -18574.173249380336 0 10992.604345842674 0 0
          18574.289363330005 -15870.31450736743 0 -4215.274613094107 0 0
          -37121.469396436376 -13360.057549136409 0 13988.711016468935 0 0
          30809.709959143554 -8413.047314313077 0 -10271.808962303658 0 0
          -38837.57653172996 -5207.535651457997 0 14257.66536849799 0 0
          38986.41899119055 -133.60833280481722 0 -13918.524682753567 0 0
          <InformationKey name="L2_NORM_RANGE" location="vtkDataArray" length="2">
            <Value index="0">
              10479.359761
            </Value>
            <Value index="1">
              206155.10601
            </Value>
          </InformationKey>
        </DataArray>
        <DataArray type="Float64" Name="Nodal Strain" NumberOfComponents="6" format="ascii" RangeMin="0.0005654978301512659" RangeMax="0.014387488580944147">
          0.00967744428053741 -0.0012976770432046013 0 0.010567068380370772 0 0
          -0.00006793185043621892 0.0008448541974208953 0 0.0010771370539453928 0 0
          -0.0006210687651769779 0.0001704097345882893 0 0.00018306824580191657 0 0
          0.000003156485178265094 -0.000564828795520678 0 -0.000027317837721338664 0 0
          0.0007254035013868272 -0.000860310362782521 0 0.0006311284576099948 0 0
          -0.0006082416124410728 -0.0003579313016189286 0 0.0005932591729345344 0 0
          0.0010286502554806931 -0.0014741693402896985 0 0.00007787909618768484 0 0
          -0.0014499769851255442 -0.0002700565029397464 0 0.0011777790370545724 0 0
          0.0018935319012152656 -0.001796961370645174 0 -0.00045163656568865434 0 0
          -0.002174388615847727 0.00037147693922012705 0 0.0014987904660502432 0 0
          0.0025011595440214353 -0.0017012787352774891 0 -0.0011005509602468203 0 0
          -0.002588129193285784 0.0010150894724576414 0 0.001527607003767642 0 0
          0.0027895159398280693 -0.0014019155591714352 0 -0.0014912705017235963 0 0
          <InformationKey name="L2_NORM_RANGE" location="vtkDataArray" length="2">
            <Value index="0">
              0.00056549783015
            </Value>
            <Value index="1">
              0.014387488581
            </Value>
          </InformationKey>
        </DataArray>
        <DataArray type="Float64" Name="Sld_traction" NumberOfComponents="3" format="ascii" RangeMin="7396.243579732526" RangeMax="41070.8634627467">
          8583.245881336587 8684.064492552812 0 -25212.199839071087 -23013.917704306772 0
          18573.650011596026 3836.8639282066724 0 -2460.4223007879173 6975.008329207937 0
          3182.2420732758987 -10358.607992600306 0 -7514.573867022584 12616.89879088443 0
          -5621.8195681869 -17876.458598243382 0 -23103.25012023086 17896.28098936324 0
          -21521.484807449215 -15011.03379754208 0 -35144.96219065509 14260.5436006874 0
          -34557.7679094131 -7366.484059144213 0 -40595.709729996044 6229.299887907686 0
          -41055.32186749905 877.4009347484428 0
          <InformationKey name="L2_NORM_RANGE" location="vtkDataArray" length="2">
            <Value index="0">
              7396.2435797
            </Value>
            <Value index="1">
              41070.863463
            </Value>
          </InformationKey>
        </DataArray>
        <DataArray type="Float64" Name="Velocity" NumberOfComponents="3" format="ascii" RangeMin="0" RangeMax="6.485919796910645">
          0 0 0 0 0 0
          0.15488871225504608 -0.538238184377056 0 -0.27225325078958945 -0.5525571086069684 0
          0.28780170371590746 -1.7009001306852907 0 -0.366723699373539 -1.705410856122997 0
          0.28115082122440826 -3.1367189361317136 0 -0.44355440554858494 -3.151434057470471 0
          0.2545991720000728 -4.5319062419983265 0 -0.3838331851852583 -4.543244655862818 0
          0.1672933403885691 -5.648687206097056 0 -0.29022799764941776 -5.627333979244872 0
          0.19196276583220623 -6.48307842837733 0
          <InformationKey name="L2_NORM_RANGE" location="vtkDataArray" length="2">
            <Value index="0">
              0
            </Value>
            <Value index="1">
              6.4859197969
            </Value>
          </InformationKey>
        </DataArray>
        <DataArray type="Float64" Name="Acceleration" NumberOfComponents="3" format="ascii" RangeMin="0" RangeMax="2753.1509104838306">
          0 0 0 0 0 0
          -240.0625895983273 896.728516659423 0 284.49801239087435 972.676377070633 0
          150.16621303202146 1495.106863397043 0 -126.15920987312779 1532.8580930293283 0
          694.4098166900892 -285.9652887776974 0 -581.4924525293616 -443.95523994516134 0
          301.0720593298425 -2665.847035047549 0 -321.37787404322154 -2734.329204388785 0
          -269.432706205158 -2607.142988322071 0 253.1778048362752 -2485.8185015864346 0
          -90.27878982220773 -1501.133485259029 0
          <InformationKey name="L2_NORM_RANGE" location="vtkDataArray" length="2">
            <Value index="0">
              0
            </Value>
            <Value index="1">
              2753.1509105
            </Value>
          </InformationKey>
        </DataArray>
        <DataArray type="Float64" Name="Sigma" NumberOfComponents="6" format="ascii" RangeMin="26328.510966191487" RangeMax="484087.7070909314">
          405163.61080012796 141065.73617809237 0 224240.52871078113 0 0
          -53639.460951911664 11487.468531128892 0 -22183.997929295467 0 0
          -83412.71226464992 -30081.75525665425 0 -31793.173291757877 0 0
          20195.14170151687 -14721.924051269816 0 8508.042951172523 0 0
          21041.53389621347 -6620.4690165227 0 14374.064525826645 0 0
          -44032.720782301556 -14609.51537742265 0 2914.359929332866 0 0
          19550.578422221923 -34420.5932005082 0 -6609.6323718933345 0 0
          -76371.59168027191 -26692.65447374595 0 24921.96053363152 0 0
          59967.75668176001 -27063.29061821667 0 -21666.452447374704 0 0
          -102415.67906904464 -15756.975862856361 0 36017.298657526175 0 0
          91208.93608237916 -18644.135768828288 0 -35853.46668330313 0 0
          -111919.90758539308 -2645.8835590806448 0 41878.61798019432 0 0
          109602.62748544457 -6786.435853814921 0 -42266.28827589138 0 0
          <InformationKey name="L2_NORM_RANGE" location="vtkDataArray" length="2">
            <Value index="0">
              26328.510966
            </Value>
            <Value index="1">
              484087.70709
            </Value>
          </InformationKey>
        </DataArray>
        <DataArray type="Float64" Name="Press" format="ascii" RangeMin="-3394.2594619030206" RangeMax="12061.729411608721">
          -622.4753705672629 683.7454203697125 1422.0536042250678 4005.859391558013 3837.198387954406 3452.5100895236355
          12061.729411608721 6335.347539747221 12023.264812922582 965.5229505708576 11096.899993651643 -3394.2594619030206
          7816.500404950304
        </DataArray>
        <DataArray type="Float64" Name="Dev strain" NumberOfComponents="6" format="ascii" RangeMin="0.0006896794121981608" RangeMax="0.014383015316749542">
          0.00966975813514937 -0.0013053631885926388 0 0.010567068380370772 0 0
          -0.00010794289021711083 0.0008048431576400037 0 0.0010771370539453928 0 0
          -0.0006839445219227901 0.00010753397784247682 0 0.00018306824580191657 0 0
          -0.00011199207388006947 -0.0006799773545790126 0 -0.000027317837721338664 0 0
          0.0005723567385721739 -0.0010133571255971743 0 0.0006311284576099948 0 0
          -0.0007953074549040886 -0.0005449971440819444 0 0.0005932591729345344 0 0
          0.0007077974134298867 -0.0017950221823405052 0 0.00007787909618768484 0 0
          -0.0017196201599101882 -0.0005396996777243906 0 0.0011777790370545724 0 0
          0.0015664486891217183 -0.0021240445827387217 0 -0.00045163656568865434 0 0
          -0.002338003364045399 0.00020786219102245505 0 0.0014987904660502432 0 0
          0.0022584104602204873 -0.0019440278190784373 0 -0.0011005509602468203 0 0
          -0.0026202661538217748 0.0009829525119216505 0 0.001527607003767642 0 0
          0.0026692542086403075 -0.001522177290359197 0 -0.0014912705017235963 0 0
          <InformationKey name="L2_NORM_RANGE" location="vtkDataArray" length="2">
            <Value index="0">
              0.0006896794122
            </Value>
            <Value index="1">
              0.014383015317
            </Value>
          </InformationKey>
        </DataArray>
        <DataArray type="Float64" Name="J2 Stresses" format="ascii" RangeMin="294941812.1002757" RangeMax="104599500399.15504">
          104599500399.15504 1627609293.2644126 4183997750.3231997 330386096.7726003 294941812.1002757 1078282592.9770653
          794422986.4820554 3427834938.5264554 2281635560.678001 5692938254.404451 4654704678.2256975 6704987867.848334
          6476005612.810724
        </DataArray>
      </PointData>
      <CellData>
        <DataArray type="UInt8" Name="vtkGhostType" format="ascii" RangeMin="0" RangeMax="0">
          0 0 0 0 0 0
          0 0 0 0 0
        </DataArray>
        <DataArray type="Float64" Name="Gauss Stress" NumberOfComponents="6" format="ascii" RangeMin="12227.631491913076" RangeMax="114034.9517406042">
          -36915.1243662973 -9068.18412021413 0 -15156.37608996027 0 0
          89864.92041253127 41318.257702198156 0 56754.45249657591 0 0
          2833.1742281549396 -8218.780192059705 0 8598.822468777344 0 0
          -10970.308427727365 -14053.012313569758 0 -2970.3552715862334 0 0
          -26334.71566649066 -17957.72533693241 0 7075.562697023687 0 0
          5303.609808406867 -12099.713235122263 0 3559.5973610887236 0 0
          -33165.12625477197 -16729.59521719277 0 13090.935581261001 0 0
          11189.028395996189 -19252.065509397435 0 -1118.04142854551 0 0
          -38152.829029913024 -9459.610569481938 0 14014.149984805794 0 0
          24282.23381741323 -12459.571497585413 0 -7167.540157717223 0 0
          34803.5989730432 -4185.7714150083075 0 -12080.37899300007 0 0
          <InformationKey name="L2_NORM_RANGE" location="vtkDataArray" length="2">
            <Value index="0">
              12227.631492
            </Value>
            <Value index="1">
              114034.95174
            </Value>
          </InformationKey>
        </DataArray>
        <DataArray type="Float64" Name="Gauss Strain" NumberOfComponents="6" format="ascii" RangeMin="0.0007450980700337456" RangeMax="0.00784086195390022">
          -0.002312930879013588 0.0006706698616381797 0 -0.0016238974382100286 0 0
          0.0049432708258165875 -0.0002581573217191053 0 0.006080834196061704 0 0
          0.0004958974517274851 -0.000688240521866941 0 0.0009213024073690009 0 0
          -0.00028170016221017744 -0.00061198986426472 0 -0.00031825235052709643 0 0
          -0.001239703785573176 -0.0003421691074062199 0 0.0007580960032525381 0 0
          0.0008109618875691428 -0.001053679867094693 0 0.0003813854315452204 0 0
          -0.0017714520461553991 -0.000010502292129056692 0 0.0014026002408493929 0 0
          0.0014867900821924937 -0.0017747556933853954 0 -0.00011979015305844747 0 0
          -0.0023873588389408625 0.000686914567533898 0 0.001501516069800621 0 0
          0.00217942996901471 -0.0017571920290208587 0 -0.0007679507311839885 0 0
          0.002635463191467669 -0.0015419693501092795 0 -0.0012943263206785791 0 0
          <InformationKey name="L2_NORM_RANGE" location="vtkDataArray" length="2">
            <Value index="0">
              0.00074509807003
            </Value>
            <Value index="1">
              0.0078408619539
            </Value>
          </InformationKey>
        </DataArray>
      </CellData>
      <Points>
        <DataArray type="Float32" Name="Points" NumberOfComponents="3" format="ascii" RangeMin="0" RangeMax="0.6020797527609908">
          0 0.05000000074505806 0 0 0 0
          0.10000000149011612 0.05000000074505806 0 0.10000000149011612 0 0
          0.20000000298023224 0.05000000074505806 0 0.20000000298023224 0 0
          0.30000001192092896 0.05000000074505806 0 0.30000001192092896 0 0
          0.4000000059604645 0.05000000074505806 0 0.4000000059604645 0 0
          0.5 0.05000000074505806 0 0.5 0 0
          0.6000000238418579 0.05000000074505806 0
          <InformationKey name="L2_NORM_RANGE" location="vtkDataArray" length="2">
            <Value index="0">
              0
            </Value>
            <Value index="1">
              0.60207975276
            </Value>
          </InformationKey>
        </DataArray>
      </Points>
      <Cells>
        <DataArray type="Int64" Name="connectivity" format="ascii" RangeMin="0" RangeMax="12">
          3 2 1 2 0 1
          5 4 3 4 2 3
          7 6 5 6 4 5
          9 8 7 8 6 7
          11 10 9 10 8 9
          12 10 11
        </DataArray>
        <DataArray type="Int64" Name="offsets" format="ascii" RangeMin="3" RangeMax="33">
          3 6 9 12 15 18
          21 24 27 30 33
        </DataArray>
        <DataArray type="UInt8" Name="types" format="ascii" RangeMin="5" RangeMax="5">
          5 5 5 5 5 5
          5 5 5 5 5
        </DataArray>
      </Cells>
    </Piece>
  </UnstructuredGrid>
</VTKFile>
