<?xml version="1.0"?>
<VTKFile type="UnstructuredGrid" version="0.1" byte_order="LittleEndian" header_type="UInt32" compressor="vtkZLibDataCompressor">
  <UnstructuredGrid>
    <Piece NumberOfPoints="13" NumberOfCells="11">
      <PointData>
        <DataArray type="Float64" Name="Disp" NumberOfComponents="3" format="ascii" RangeMin="0" RangeMax="0.08780384925768062">
          0 0 0 0 0 0
          0.0005964133002389685 -0.0018885464286392123 0 -0.001173933591485475 -0.0017694558277310474 0
          0.0021562704699738724 -0.008093371995326028 0 -0.0024213011453154184 -0.00792253951052527 0
          0.0035205707330172847 -0.0205697941460959 0 -0.004165985329339646 -0.02066408216652566 0
          0.004747790895617138 -0.03827453704480363 0 -0.0052388995215225664 -0.03827559321533138 0
          0.0059267821277188305 -0.06067936183711353 0 -0.006419246626563582 -0.06071276704446672 0
          0.006967028784593401 -0.08752700414375067 0
          <InformationKey name="L2_NORM_RANGE" location="vtkDataArray" length="2">
            <Value index="0">
              0
            </Value>
            <Value index="1">
              0.087803849258
            </Value>
          </InformationKey>
        </DataArray>
        <DataArray type="Float64" Name="Nodal Stress" NumberOfComponents="6" format="ascii" RangeMin="47502.279521327524" RangeMax="2345829.116982346">
          -2048097.2164703864 -324043.61399493116 0 -1096908.2797561209 0 0
          -133580.79877290432 162513.08103759604 0 -11756.504600145636 0 0
          169731.25699482937 42146.4336073822 0 37589.68095884005 0 0
          -70911.30905297816 -25662.44367551163 0 35453.30258906761 0 0
          -14167.560317440235 -57210.774158316905 0 -47473.01660743556 0 0
          -96825.14124945736 -21904.28738022224 0 24494.601672523037 0 0
          86801.81686306493 12262.847871248896 0 -20376.73602660015 0 0
          -56729.47910304477 12544.150152471759 0 14687.416135093226 0 0
          64866.801672440815 6133.78019411086 0 -22176.021005293427 0 0
          -53926.15374530936 4079.8172806756843 0 16972.02154875275 0 0
          59886.21953827145 6749.968490115337 0 -19883.773456606777 0 0
          -44632.25774600177 8099.591062220223 0 14100.523140706482 0 0
          54346.34191078691 10732.991252002035 0 -19207.080089509625 0 0
          <InformationKey name="L2_NORM_RANGE" location="vtkDataArray" length="2">
            <Value index="0">
              47502.279521
            </Value>
            <Value index="1">
              2345829.117
            </Value>
          </InformationKey>
        </DataArray>
        <DataArray type="Float64" Name="Nodal Strain" NumberOfComponents="6" format="ascii" RangeMin="0.004225382897322976" RangeMax="0.18563878869455228">
          -0.13471967210520866 0.05000035673144728 0 -0.11752588711672723 0 0
          -0.015345524235121592 0.016378820030289155 0 -0.0012596254928727512 0 0
          0.010618431442224168 -0.0030513710635737524 0 0.0040274658170185735 0 0
          -0.004148577658230167 0.000699515060784103 0 0.0037985681345429575 0 0
          0.001031273340122729 -0.0035804995713997717 0 -0.005086394636510953 0 0
          -0.006133785539953304 0.0018934488031790318 0 0.002624421607770325 0 0
          0.0057621709233886065 -0.0022241471828773974 0 -0.0021832217171357305 0 0
          -0.004500111012805761 0.002922063550285296 0 0.0015736517287599885 0 0
          0.004414279398241815 -0.0018785443315792536 0 -0.0023760022505671533 0 0
          -0.003997575884689088 0.002217349582380741 0 0.0018184308802235089 0 0
          0.004036516806658128 -0.0016566529485014558 0 -0.002130404298922155 0 0
          -0.0034772895197937065 0.002172551423944365 0 0.0015107703365042661 0 0
          0.0034985604489132806 -0.0011742985502422446 0 -0.0020579014381617447 0 0
          <InformationKey name="L2_NORM_RANGE" location="vtkDataArray" length="2">
            <Value index="0">
              0.0042253828973
            </Value>
            <Value index="1">
              0.18563878869
            </Value>
          </InformationKey>
        </DataArray>
        <DataArray type="Float64" Name="Sld_traction" NumberOfComponents="3" format="ascii" RangeMin="24898.42836187652" RangeMax="260923.06622424163">
          -31824.35575079347 126503.92578038128 0 260553.32013953666 -13885.742764580911 0
          -179228.81524956267 -89662.77393060566 0 -20542.030232583194 14069.709620853413 0
          -47675.9508963728 -31611.556249071622 0 -78386.45360650388 25102.42049571768 0
          -77930.6900453793 8808.741348904434 0 -56590.78084040384 -8818.976307636169 0
          -57006.34116342581 7274.791573387197 0 -52375.49929198073 -4725.757825998416 0
          -55893.010247596205 7548.91521911856 0 -48306.97717137723 -7105.083826151262 0
          -50836.9401201732 11503.324620750556 0
          <InformationKey name="L2_NORM_RANGE" location="vtkDataArray" length="2">
            <Value index="0">
              24898.428362
            </Value>
            <Value index="1">
              260923.06622
            </Value>
          </InformationKey>
        </DataArray>
        <DataArray type="Float64" Name="Velocity" NumberOfComponents="3" format="ascii" RangeMin="0" RangeMax="1.6391160826476316">
          0 0 0 0 0 0
          -0.1311138147137156 0.42272138434117795 0 0.13447552086566888 0.43033481589279937 0
          -0.10934776707036373 0.9350244738547692 0 0.06268535824844146 0.9162354568437775 0
          -0.09365449541504149 1.1638961751242078 0 -0.006500026557045402 1.1470500314450496 0
          -0.14207396161125613 1.343668830359861 0 -0.03742980172971494 1.339464452759675 0
          -0.15622438604686795 1.5855637384660737 0 -0.0433198492533553 1.6132816897812332 0
          -0.01424609291736767 1.639054172756565 0
          <InformationKey name="L2_NORM_RANGE" location="vtkDataArray" length="2">
            <Value index="0">
              0
            </Value>
            <Value index="1">
              1.6391160826
            </Value>
          </InformationKey>
        </DataArray>
        <DataArray type="Float64" Name="Acceleration" NumberOfComponents="3" format="ascii" RangeMin="0" RangeMax="2141.930493283844">
          0 0 0 0 0 0
          33.124633163932 -995.9773849572146 0 -263.3284325947876 -1178.458060383533 0
          -788.0071100828593 -226.83764184622123 0 310.77667101812415 -51.912284747765625 0
          -215.67369075887336 1983.3659014286832 0 -39.313784902378075 2141.569673014591 0
          788.4934063265947 103.21143720851705 0 -570.2621732608886 -192.12021845627623 0
          -47.002054178459105 -1623.993156196103 0 -55.30379098962638 -1483.6402279506128 0
          -120.45229709336161 -802.9548744805993 0
          <InformationKey name="L2_NORM_RANGE" location="vtkDataArray" length="2">
            <Value index="0">
              0
            </Value>
            <Value index="1">
              2141.9304933
            </Value>
          </InformationKey>
        </DataArray>
        <DataArray type="Float64" Name="Sigma" NumberOfComponents="6" format="ascii" RangeMin="144005.53238685493" RangeMax="5746915.785374274">
          -5002209.094720544 -1034802.204052012 0 -2633273.5549821197 0 0
          483444.18625428586 503539.4955388113 0 448541.4978697351 0 0
          1147864.2262072116 89169.54548744377 0 430372.49307002017 0 0
          -623393.0725322312 -185040.8004153265 0 -115689.45943802623 0 0
          -71330.65226249257 -134482.5020646458 0 -163589.3087953381 0 0
          -156179.60116722327 -19709.097579736735 0 137468.52127786927 0 0
          270281.1994060413 41722.861439426066 0 -62070.96326690445 0 0
          -186201.5657385284 39093.76258800614 0 36134.095965572305 0 0
          171760.49424758283 -11736.919880407133 0 -55710.97840932004 0 0
          -155785.03562641493 11367.546082299848 0 57539.77990226462 0 0
          163017.79006217647 2868.5349862731214 0 -57123.17007637026 0 0
          -134150.24347310825 21003.928667675857 0 47959.7801772536 0 0
          144906.11004987525 7050.534356414164 0 -51154.40277077617 0 0
          <InformationKey name="L2_NORM_RANGE" location="vtkDataArray" length="2">
            <Value index="0">
              144005.53239
            </Value>
            <Value index="1">
              5746915.7854
            </Value>
          </InformationKey>
        </DataArray>
        <DataArray type="Float64" Name="Press" format="ascii" RangeMin="-25896.209183854346" RangeMax="47511.39131925198">
          47511.39131925198 40021.188517000104 45676.93994253977 28500.554365641914 44410.729493837105 17891.139997543403
          -5951.594080604409 -25896.209183854346 11576.07110935574 -9425.944270896693 5652.3421794339765 -13613.342361449775
          4320.297066520197
        </DataArray>
        <DataArray type="Float64" Name="Dev strain" NumberOfComponents="6" format="ascii" RangeMin="0.004258522922554635" RangeMax="0.1863876869801646">
          -0.13633325166858404 0.04838677716807188 0 -0.11752588711672723 0 0
          -0.016807357179933972 0.014916987085476771 0 -0.0012596254928727512 0 0
          0.00912132654271937 -0.00454847596307855 0 0.0040274658170185735 0 0
          -0.005366110377221681 -0.0005180176582074125 0 0.0037985681345429575 0 0
          -0.0001561466347324152 -0.004767919546254917 0 -0.005086394636510953 0 0
          -0.006689944635172095 0.001337289707960241 0 0.002624421607770325 0 0
          0.005749471227713176 -0.0022368468785528275 0 -0.0021832217171357305 0 0
          -0.004096351770784996 0.0033258227923060597 0 0.0015736517287599885 0 0
          0.004418705386796987 -0.001874118343024081 0 -0.0023760022505671533 0 0
          -0.003814217579352466 0.0024007078877173625 0 0.0018184308802235089 0 0
          0.004025410116218286 -0.001667759638941298 0 -0.002130404298922155 0 0
          -0.003227731153423699 0.002422109790314372 0 0.0015107703365042661 0 0
          0.0035575465168493896 -0.0011153124823061347 0 -0.0020579014381617447 0 0
          <InformationKey name="L2_NORM_RANGE" location="vtkDataArray" length="2">
            <Value index="0">
              0.0042585229226
            </Value>
            <Value index="1">
              0.18638768698
            </Value>
          </InformationKey>
        </DataArray>
        <DataArray type="Float64" Name="J2 Stresses" format="ascii" RangeMin="9793761550.34814" RangeMax="14779988118249.96">
          14779988118249.96 293932521223.081 709076865522.185 214775523106.02585 18277168144.914165 17114656759.661255
          38359563079.75127 18426090901.195747 15595639615.057446 13026805782.328556 14107278324.755138 9793761550.34814
          11177938612.957466
        </DataArray>
      </PointData>
      <CellData>
        <DataArray type="UInt8" Name="vtkGhostType" format="ascii" RangeMin="0" RangeMax="0">
          0 0 0 0 0 0
          0 0 0 0 0
        </DataArray>
        <DataArray type="Float64" Name="Gauss Stress" NumberOfComponents="6" format="ascii" RangeMin="48018.61132480665" RangeMax="1231793.211749763">
          374038.00758481584 173955.6411453701 0 254408.17716724292 0 0
          -1079230.3874934178 -102961.21441565498 0 -584786.5213474547 0 0
          -253366.96736830822 -82809.9920675622 0 -47270.082318498324 0 0
          190576.24173816887 -37255.177730169926 0 50364.57494555189 0 0
          -28685.543588875276 15716.954393593373 0 37177.217992179045 0 0
          33040.4071290339 -18706.15426472679 0 -29397.250261457768 0 0
          -64657.39648758528 4992.768814834519 0 12654.299152838968 0 0
          78522.79858666424 16269.32399730735 0 -27215.948570217395 0 0
          -48101.47783008642 5951.021761112112 0 16125.463334382655 0 0
          62265.239233745815 3433.8767353529533 0 -18431.45619447524 0 0
          56710.98450781596 9094.098298289182 0 -20105.930889964286 0 0
          <InformationKey name="L2_NORM_RANGE" location="vtkDataArray" length="2">
            <Value index="0">
              48018.611325
            </Value>
            <Value index="1">
              1231793.2117
            </Value>
          </InformationKey>
        </DataArray>
        <DataArray type="Float64" Name="Gauss Strain" NumberOfComponents="6" format="ascii" RangeMin="0.004518463526420011" RangeMax="0.10142808547492875">
          0.02050429907229506 -0.0009330973319312723 0 0.0272580189822046 0 0
          -0.07341069859182792 0.031189569952218135 0 -0.06265569871579871 0 0
          -0.015140140809609083 0.0031338208297565636 0 -0.005064651676981964 0 0
          0.014943130757375273 -0.009467378471375309 0 0.005396204458451992 0 0
          -0.0026102871989765694 0.002147123299145072 0 0.003983273356304897 0 0
          0.003028106018671235 -0.002516168416374553 0 -0.003149705385156191 0 0
          -0.004796698635357325 0.0026658190756162258 0 0.0013558177663756036 0 0
          0.005027724042000757 -0.0016422910925731962 0 -0.0029159944896661495 0 0
          -0.0036483563364744626 0.002142982905439666 0 0.001727728214398142 0 0
          0.004324878633290666 -0.001978481634394282 0 -0.0019747988779794897 0 0
          0.003725995382762242 -0.0013758138539727719 0 -0.0021542068810676018 0 0
          <InformationKey name="L2_NORM_RANGE" location="vtkDataArray" length="2">
            <Value index="0">
              0.0045184635264
            </Value>
            <Value index="1">
              0.10142808547
            </Value>
          </InformationKey>
        </DataArray>
      </CellData>
      <Points>
        <DataArray type="Float32" Name="Points" NumberOfComponents="3" format="ascii" RangeMin="0" RangeMax="0.6020797527609908">
          0 0.05000000074505806 0 0 0 0
          0.10000000149011612 0.05000000074505806 0 0.10000000149011612 0 0
          0.20000000298023224 0.05000000074505806 0 0.20000000298023224 0 0
          0.30000001192092896 0.05000000074505806 0 0.30000001192092896 0 0
          0.4000000059604645 0.05000000074505806 0 0.4000000059604645 0 0
          0.5 0.05000000074505806 0 0.5 0 0
          0.6000000238418579 0.05000000074505806 0
          <InformationKey name="L2_NORM_RANGE" location="vtkDataArray" length="2">
            <Value index="0">
              0
            </Value>
            <Value index="1">
              0.60207975276
            </Value>
          </InformationKey>
        </DataArray>
      </Points>
      <Cells>
        <DataArray type="Int64" Name="connectivity" format="ascii" RangeMin="0" RangeMax="12">
          3 2 1 2 0 1
          5 4 3 4 2 3
          7 6 5 6 4 5
          9 8 7 8 6 7
          11 10 9 10 8 9
          12 10 11
        </DataArray>
        <DataArray type="Int64" Name="offsets" format="ascii" RangeMin="3" RangeMax="33">
          3 6 9 12 15 18
          21 24 27 30 33
        </DataArray>
        <DataArray type="UInt8" Name="types" format="ascii" RangeMin="5" RangeMax="5">
          5 5 5 5 5 5
          5 5 5 5 5
        </DataArray>
      </Cells>
    </Piece>
  </UnstructuredGrid>
</VTKFile>
