<?xml version="1.0"?>
<VTKFile type="UnstructuredGrid" version="0.1" byte_order="LittleEndian" header_type="UInt32" compressor="vtkZLibDataCompressor">
  <UnstructuredGrid>
    <Piece NumberOfPoints="48" NumberOfCells="30">
      <PointData>
        <DataArray type="Float64" Name="sld_BC" NumberOfComponents="3" format="ascii" RangeMin="0" RangeMax="0">
          0 0 0 0 0 0
          0 0 0 0 0 0
          0 0 0 0 0 0
          0 0 0 0 0 0
          0 0 0 0 0 0
          0 0 0 0 0 0
          0 0 0 0 0 0
          0 0 0 0 0 0
          0 0 0 0 0 0
          0 0 0 0 0 0
          0 0 0 0 0 0
          0 0 0 0 0 0
          0 0 0 0 0 0
          0 0 0 0 0 0
          0 0 0 0 0 0
          0 0 0 0 0 0
          0 0 0 0 0 0
          0 0 0 0 0 0
          0 0 0 0 0 0
          0 0 0 0 0 0
          0 0 0 0 0 0
          0 0 0 0 0 0
          0 0 0 0 0 0
          0 0 0 0 0 0
          <InformationKey name="L2_NORM_RANGE" location="vtkDataArray" length="2">
            <Value index="0">
              0
            </Value>
            <Value index="1">
              0
            </Value>
          </InformationKey>
        </DataArray>
        <DataArray type="Float64" Name="sld_FIXNO" NumberOfComponents="3" format="ascii" RangeMin="1.4142135623730951" RangeMax="1.4142135623730951">
          -1 -1 0 -1 -1 0
          -1 -1 0 -1 -1 0
          -1 -1 0 -1 -1 0
          -1 -1 0 -1 -1 0
          -1 -1 0 -1 -1 0
          -1 -1 0 -1 -1 0
          -1 -1 0 -1 -1 0
          -1 -1 0 -1 -1 0
          -1 -1 0 -1 -1 0
          -1 -1 0 -1 -1 0
          -1 -1 0 -1 -1 0
          -1 -1 0 -1 -1 0
          -1 -1 0 -1 -1 0
          -1 -1 0 -1 -1 0
          -1 -1 0 -1 -1 0
          -1 -1 0 -1 -1 0
          -1 -1 0 -1 -1 0
          -1 -1 0 -1 -1 0
          -1 -1 0 -1 -1 0
          -1 -1 0 -1 -1 0
          -1 -1 0 -1 -1 0
          -1 -1 0 -1 -1 0
          -1 -1 0 1 1 0
          1 1 0 1 1 0
          <InformationKey name="L2_NORM_RANGE" location="vtkDataArray" length="2">
            <Value index="0">
              1.4142135624
            </Value>
            <Value index="1">
              1.4142135624
            </Value>
          </InformationKey>
        </DataArray>
        <DataArray type="Float64" Name="Disp" NumberOfComponents="3" format="ascii" RangeMin="0" RangeMax="0.002095024940733815">
          0.000394460824285255 -0.0020575544125006565 0 -0.00003325217589669028 -0.0020413027661190623 0
          -0.0004529404649929521 -0.002031251966208453 0 0.00038931850618573063 -0.0010496685188685858 0
          -0.000012636781890923459 -0.0010362135794448385 0 -0.0004117880042785797 -0.0010387268179103703 0
          0.0002984501166680375 -0.00014826923866361364 0 0.000014626163354151056 -0.00012038645781333696 0
          -0.0002719310370823279 -0.000141795351144574 0 0.00009466004873356847 0.000288877398244463 0
          0.000009515924986498315 0.0003204649690382044 0 -0.00007640307000945346 0.0002965584361106246 0
          -0.000052679921172808715 0.00022982125064484977 0 0.0000031962012801277016 0.0002395504169529632 0
          0.00006015847941498754 0.00022898190631324218 0 -0.00005232856607395569 -9.546223218874414e-7 0
          0.000006714679448188566 -0.000007219105414508089 0 0.0000648096510974331 -5.2126368883860495e-8 0
          -0.000001457353192460583 -0.00005710558360474984 0 0.0000012917449609715077 -0.00006115187381154712 0
          0.000004014846355147811 -0.00005301069657995431 0 0.000009729837973556504 -0.000004126744583526337 0
          -0.0000033428855150803668 -0.0000029785135140622362 0 -0.000015679167764119955 -0.000003294177527182151 0
          -0.0000012434164776488903 0.000009054966304359188 0 -0.000002615527192452197 0.000009941848775096243 0
          -0.0000038890339788617075 0.000008001965414993918 0 -0.0000030102043925516614 4.386629021930632e-7 0
          -9.890387195263341e-7 -4.848341316678021e-8 0 9.081324027716538e-7 -2.3348583672402051e-7 0
          -3.8148920683872915e-7 -8.630771752384183e-7 0 -2.6266422797607707e-7 -0.0000011748205489111444 0
          -2.077054948395284e-7 -0.0000010776930372023366 0 1.6652793114105815e-7 1.0010341057547103e-7 0
          -5.784639853237395e-8 1.1243454208772636e-7 0 -2.999612532920007e-7 4.810785931799341e-8 0
          -2.558985775616779e-8 8.639028213603955e-8 0 -1.1070242448316603e-8 9.986806499031549e-8 0
          -6.223659032011866e-10 7.565036416350287e-8 0 -2.2816234691226222e-8 -1.378369545575756e-8 0
          -1.8982802442198e-9 -2.091116382493044e-8 0 1.8232472315782617e-8 -1.5712269576510594e-8 0
          2.571557505474872e-9 -4.5464708169557295e-9 0 -2.805763278885667e-10 -5.359446227233124e-9 0
          -3.2759306022223515e-9 -4.8943622390952204e-9 0 0 0 0
          0 0 0 0 0 0
          <InformationKey name="L2_NORM_RANGE" location="vtkDataArray" length="2">
            <Value index="0">
              0
            </Value>
            <Value index="1">
              0.0020950249407
            </Value>
          </InformationKey>
        </DataArray>
        <DataArray type="Float64" Name="Sld_traction" NumberOfComponents="3" format="ascii" RangeMin="0" RangeMax="7568.538971282419">
          -96.16299955551368 208.01255351607668 0 -616.2896124003395 -219.9279612043865 0
          -139.53719497337443 554.9182779548037 0 -872.2366848514116 3142.5697964306432 0
          0 0 0 1188.8096960377163 2786.536265846827 0
          -498.4435529185607 6754.859054297714 0 0 0 0
          968.5703622970639 6717.570215861325 0 817.5269352626177 7067.293455576988 0
          0 0 0 -699.0611300823382 7536.185752502969 0
          1437.106026697388 3123.350391880526 0 0 0 0
          -1518.4253214499533 3026.22094509312 0 612.5344228572939 -1138.824432691312 0
          0 0 0 -576.1075385838398 -1165.7586281453237 0
          -437.04395136110503 -1582.639858607089 0 0 0 0
          441.0053341162316 -1470.9585068464078 0 -283.47652094941714 -78.04404021279245 0
          0 0 0 251.32575488149473 -92.96205269271782 0
          89.28047358762466 334.22905403593796 0 0 0 0
          -96.58802844425152 295.72539118849437 0 48.999939453787945 31.88504520621864 0
          0 0 0 -43.97512147226466 28.154497381196546 0
          -15.313106021819953 -49.66652203320394 0 0 0 0
          18.634197636060218 -44.669282371103385 0 -3.776395085514689 -2.7616167942093455 0
          0 0 0 4.795964009275902 -0.3712331874721174 0
          2.428185075941918 5.13563798217617 0 0 0 0
          -2.1834289264182685 5.797773845813423 0 0.17702596120628603 -0.41118262053566534 0
          0 0 0 -0.1273695090631598 -0.26125260666976385 0
          -0.22650293090489287 -0.45605582603589256 0 0 0 0
          0.23577176688159437 -0.42618009934390244 0 -0.09696843987628045 0.24175768808659856 0
          0.039030430368059504 0.10996329830831957 0 0.12570749807407172 0.26104505816900475 0
          <InformationKey name="L2_NORM_RANGE" location="vtkDataArray" length="2">
            <Value index="0">
              0
            </Value>
            <Value index="1">
              7568.5389713
            </Value>
          </InformationKey>
        </DataArray>
        <DataArray type="Float64" Name="Velocity" NumberOfComponents="3" format="ascii" RangeMin="0" RangeMax="0.11827600168224452">
          -0.017516657311710426 -0.1155780484833977 0 0.0060886685847866846 -0.10844575403952603 0
          0.025307222484523245 -0.09868394559403217 0 -0.013877249472313016 -0.11596445440336155 0
          -0.009400237791085701 -0.11790185793026907 0 -0.0021050323475110093 -0.1134702825007196 0
          0.017033554855327558 -0.07490322914124561 0 -0.0038028171002355213 -0.08230449763749978 0
          -0.022591335571194898 -0.08308887106803496 0 0.03794769491626073 0.007264337922421468 0
          0.009146567597581435 0.009798692119702815 0 -0.022561096823706363 0.010171107411169136 0
          0.0040162711914961055 0.05950398472808532 0 -0.0029456651836523838 0.06608937495332777 0
          -0.008399629847960562 0.06377624067514992 0 -0.015259682647492424 0.03203282409252546 0
          0.0005918010763826687 0.03063106737342662 0 0.016866159836731735 0.02730214923309996 0
          -0.004070277214350734 -0.018739271634479023 0 0.004600912205172848 -0.02042972534291289 0
          0.012067294214529092 -0.01770008429851509 0 0.0047584826444066666 -0.009577544763928372 0
          0.0005394166333884194 -0.009183842563246539 0 -0.003337158620185363 -0.007394691723998684 0
          0.0011114183597960708 0.004028791964685986 0 -0.0011570138595959733 0.00469355134393947 0
          -0.003129726685222323 0.004028642365503967 0 -0.0015009185340839478 0.001160887233129917 0
          -0.0006312437240041743 0.0011001343695845728 0 0.0002152388227984794 0.0007951603414311368 0
          -0.0004751723970622922 -0.0005504463653131757 0 -0.0001882889018530459 -0.0007597413121324659 0
          0.00005899116693756751 -0.0006959270760166192 0 0.00009101914046213765 -0.000018285537962372537 0
          -0.00004457941309075294 -0.000037663189905636675 0 -0.00019254855729856503 -0.000056813793036297106 0
          0.0000035590582342504374 0.00007041487079706539 0 -0.000008956436099977878 0.00008358727126332651 0
          -0.000024584341795602418 0.00006188576046409436 0 -0.000018205456909930944 -0.000004034107566440347 0
          -0.000001578136489284236 -0.00000746971601656853 0 0.00001441003858933617 -0.000005616255815630584 0
          1.9192708960726855e-7 -0.000004738219730871884 0 -2.3917852189252824e-7 -0.0000059539459812237265 0
          -7.888610203318273e-7 -0.000005032221280585487 0 0 0 0
          0 0 0 0 0 0
          <InformationKey name="L2_NORM_RANGE" location="vtkDataArray" length="2">
            <Value index="0">
              0
            </Value>
            <Value index="1">
              0.11827600168
            </Value>
          </InformationKey>
        </DataArray>
      </PointData>
      <CellData>
        <DataArray type="UInt8" Name="vtkGhostType" format="ascii" RangeMin="0" RangeMax="0">
          0 0 0 0 0 0
          0 0 0 0 0 0
          0 0 0 0 0 0
          0 0 0 0 0 0
          0 0 0 0 0 0
        </DataArray>
        <DataArray type="Float64" Name="Gauss Stress" NumberOfComponents="6" format="ascii" RangeMin="0.3187135308849863" RangeMax="8311.147530385846">
          0.22815096052136719 0.21984861569749678 0 -0.034525934574563356 0 0
          -0.27448274779732845 -0.2217454703836038 0 -0.034662098734036084 0 0
          -0.93702659063525 0.03701846613572879 0 -0.7164768749652305 0 0
          0.7086078556551919 0.0004063738281893381 0 -0.7101031895158152 0 0
          -1.4007381619108636 -1.4630034840978978 0 1.4746119321237952 0 0
          0.10534868737120062 1.6551454231502276 0 1.5019464366894266 0 0
          6.735619130196468 2.3396055278749226 0 5.527108546717763 0 0
          -13.331783148966371 -1.5092363741156674 0 5.631722485521596 0 0
          -18.3161126010019 12.74131914968936 0 -21.403260846265113 0 0
          -10.494499111916125 -9.7281920274675 0 -21.10086947659429 0 0
          -135.16657410071383 -23.538133991621685 0 -27.564417900363008 0 0
          33.764254055889666 29.831345942954112 0 -27.750738277186365 0 0
          -30.96099360682568 -53.87181976202292 0 182.56054291543188 0 0
          -199.28281953544905 44.28959496749677 0 179.09964993560033 0 0
          454.22265358431395 133.41016394094967 0 82.1522255775647 0 0
          -576.0503748135706 -195.92305339317963 0 81.64816453257774 0 0
          -127.7579825036047 159.74441926820936 0 -929.1882792738119 0 0
          778.6663885710915 -129.9377122820857 0 -912.8809534416981 0 0
          -1864.8324361633427 -380.9651849965479 0 -370.83808964102855 0 0
          2728.5626234569354 545.9496009352717 0 -375.4567573581013 0 0
          -461.50061290728803 -516.5892493372837 0 2229.3605647710215 0 0
          -50.83621309588216 328.80218029283367 0 2205.2936395633965 0 0
          5690.361841852704 340.931210095363 0 2227.807163464393 0 0
          -4924.19444910672 -418.1599848081106 0 2309.644191598061 0 0
          8266.557075409772 829.8037755314076 0 -225.0179658276486 0 0
          -6828.403188949398 -501.06998148173443 0 -22.047913686051288 0 0
          3184.482902593486 -77.08150609746917 0 -2330.3163258962277 0 0
          -5087.261201617478 -162.84021651343687 0 -2136.551889745426 0 0
          467.3962359500686 -621.9987736234007 0 -787.5262615032079 0 0
          -378.4672524622355 636.1805324864811 0 -849.9211066389754 0 0
          <InformationKey name="L2_NORM_RANGE" location="vtkDataArray" length="2">
            <Value index="0">
              0.31871353088
            </Value>
            <Value index="1">
              8311.1475304
            </Value>
          </InformationKey>
        </DataArray>
        <DataArray type="Float64" Name="Gauss Strain" NumberOfComponents="6" format="ascii" RangeMin="9.389726606407315e-8" RangeMax="0.005896901382306318">
          4.895112720726402e-8 4.064878381115911e-8 0 -6.905186524721291e-8 0 0
          -7.59914664250072e-8 -2.325418263504631e-8 0 -6.9324202975286e-8 0 0
          -5.770245040670474e-7 3.970207807790782e-7 0 -0.0000014329538599433437 0 0
          4.25001186021845e-7 -2.832001326780187e-7 0 -0.0000014202062855318082 0 0
          -2.552439224423608e-7 -3.175096278812406e-7 0 0.0000029492256833441793 0 0
          -5.988518698152312e-7 9.509436134230721e-7 0 0.000003003891535006373 0 0
          0.000003105464002214897 -0.0000012905329373480434 0 0.000011054196759859182 0 0
          -0.000007395492424122629 0.000004427097809747704 0 0.000011263468420270612 0 0
          -0.000016087061366465427 0.000014970335430936066 0 -0.00004280645982858053 0 0
          -0.000002405978031222444 -0.0000016396761412240666 0 -0.00004220195692099116 0 0
          -0.00007169213770594206 0.00003994037093775493 0 -0.000055130256750287815 0 0
          0.000008323957285422128 0.000004391549333515599 0 -0.000055500258372289974 0 0
          0.000002928844381897 -0.00001998219305664184 0 0.00036513188497451027 0 0
          -0.00013734795203709793 0.00010623098313307376 0 0.0003582049303200638 0 0
          0.0002190677880375136 -0.00010168623602052618 0 0.0001642881074398674 0 0
          -0.00026737798568479687 0.00011282446725084659 0 0.00016333921564692393 0 0
          -0.0001416901964936268 0.00014582619972967892 0 -0.0018582848642556406 0 0
          0.0005178151298140116 -0.0003906967710857745 0 -0.0018256517833303068 0 0
          -0.0009687152888891437 0.0005162983178312042 0 -0.0007418816334071044 0 0
          0.0014154897200065882 -0.0007652307245285817 0 -0.0007503645960888431 0 0
          -0.00007614717614903844 -0.00013145857048917076 0 0.0044596538362269966 0 0
          -0.00016780071001429309 0.0002115555665282571 0 0.004410332994442735 0 0
          0.003253795822842964 -0.002086613978391077 0 0.0044533471413172815 0 0
          -0.002808908085163153 0.0017049464822868204 0 0.0046224214938804355 0 0
          0.004591999303888178 -0.0028253281932162644 0 -0.000450445615337261 0 0
          -0.00392674758131506 0.0024160782014885362 0 -0.000044184274933105425 0 0
          0.0019262175783955476 -0.0013313835982303734 0 -0.004659813846045082 0 0
          -0.0030066368693416334 0.0019246399728721775 0 -0.004275860991179296 0 0
          0.0005279292723262274 -0.0005614046184818089 0 -0.0015750506373359962 0 0
          -0.00048280340286832596 0.0005317262980946008 0 -0.0016995179314415018 0 0
          <InformationKey name="L2_NORM_RANGE" location="vtkDataArray" length="2">
            <Value index="0">
              9.3897266064e-08
            </Value>
            <Value index="1">
              0.0058969013823
            </Value>
          </InformationKey>
        </DataArray>
        <DataArray type="Float64" Name="Btraction" NumberOfComponents="3" format="ascii" RangeMin="0" RangeMax="0">
          0 0 0 0 0 0
          0 0 0 0 0 0
          0 0 0 0 0 0
          0 0 0 0 0 0
          0 0 0 0 0 0
          0 0 0 0 0 0
          0 0 0 0 0 0
          0 0 0 0 0 0
          0 0 0 0 0 0
          0 0 0 0 0 0
          0 0 0 0 0 0
          0 0 0 0 0 0
          0 0 0 0 0 0
          0 0 0 0 0 0
          0 0 0 0 0 0
          <InformationKey name="L2_NORM_RANGE" location="vtkDataArray" length="2">
            <Value index="0">
              0
            </Value>
            <Value index="1">
              0
            </Value>
          </InformationKey>
        </DataArray>
      </CellData>
      <Points>
        <DataArray type="Float32" Name="Points" NumberOfComponents="3" format="ascii" RangeMin="0.31320268577451565" RangeMax="0.6356886233499035">
          0.6000000238418579 0.20999999344348907 0 0.6000000238418579 0.20000000298023224 0
          0.6000000238418579 0.1899999976158142 0 0.5765992999076843 0.20999999344348907 0
          0.5765992999076843 0.20000000298023224 0 0.5765992999076843 0.1899999976158142 0
          0.5531985759735107 0.20999999344348907 0 0.5531985759735107 0.20000000298023224 0
          0.5531985759735107 0.1899999976158142 0 0.5297979712486267 0.20999999344348907 0
          0.5297979712486267 0.20000000298023224 0 0.5297979712486267 0.1899999976158142 0
          0.5063973069190979 0.20999999344348907 0 0.5063973069190979 0.20000000298023224 0
          0.5063973069190979 0.1899999976158142 0 0.4829966127872467 0.20999999344348907 0
          0.4829966127872467 0.20000000298023224 0 0.4829966127872467 0.1899999976158142 0
          0.4595958888530731 0.20999999344348907 0 0.4595958888530731 0.20000000298023224 0
          0.4595958888530731 0.1899999976158142 0 0.4361951947212219 0.20999999344348907 0
          0.4361951947212219 0.20000000298023224 0 0.4361951947212219 0.1899999976158142 0
          0.4127945899963379 0.20999999344348907 0 0.4127945899963379 0.20000000298023224 0
          0.4127945899963379 0.1899999976158142 0 0.3893938958644867 0.20999999344348907 0
          0.3893938958644867 0.20000000298023224 0 0.3893938958644867 0.1899999976158142 0
          0.3659932017326355 0.20999999344348907 0 0.3659932017326355 0.20000000298023224 0
          0.3659932017326355 0.1899999976158142 0 0.3425925076007843 0.20999999344348907 0
          0.3425925076007843 0.20000000298023224 0 0.3425925076007843 0.1899999976158142 0
          0.3191918134689331 0.20999999344348907 0 0.3191918134689331 0.20000000298023224 0
          0.3191918134689331 0.1899999976158142 0 0.2957912087440491 0.20999999344348907 0
          0.2957912087440491 0.20000000298023224 0 0.2957912087440491 0.1899999976158142 0
          0.2723905146121979 0.20999999344348907 0 0.2723905146121979 0.20000000298023224 0
          0.2723905146121979 0.1899999976158142 0 0.24898980557918549 0.20999999344348907 0
          0.24898980557918549 0.20000000298023224 0 0.24898980557918549 0.1899999976158142 0
          <InformationKey name="L2_NORM_RANGE" location="vtkDataArray" length="2">
            <Value index="0">
              0.31320268577
            </Value>
            <Value index="1">
              0.63568862335
            </Value>
          </InformationKey>
        </DataArray>
      </Points>
      <Cells>
        <DataArray type="Int64" Name="connectivity" format="ascii" RangeMin="0" RangeMax="47">
          46 43 42 45 47 44
          43 46 43 40 39 42
          44 41 40 43 40 37
          36 39 41 38 37 40
          37 34 33 36 38 35
          34 37 34 31 30 33
          35 32 31 34 31 28
          27 30 32 29 28 31
          28 25 24 27 29 26
          25 28 25 22 21 24
          26 23 22 25 22 19
          18 21 23 20 19 22
          19 16 15 18 20 17
          16 19 16 13 12 15
          17 14 13 16 13 10
          9 12 14 11 10 13
          10 7 6 9 11 8
          7 10 7 4 3 6
          8 5 4 7 4 1
          0 3 5 2 1 4
        </DataArray>
        <DataArray type="Int64" Name="offsets" format="ascii" RangeMin="4" RangeMax="120">
          4 8 12 16 20 24
          28 32 36 40 44 48
          52 56 60 64 68 72
          76 80 84 88 92 96
          100 104 108 112 116 120
        </DataArray>
        <DataArray type="UInt8" Name="types" format="ascii" RangeMin="9" RangeMax="9">
          9 9 9 9 9 9
          9 9 9 9 9 9
          9 9 9 9 9 9
          9 9 9 9 9 9
          9 9 9 9 9 9
        </DataArray>
      </Cells>
    </Piece>
  </UnstructuredGrid>
</VTKFile>
