<?xml version="1.0"?>
<VTKFile type="UnstructuredGrid" version="0.1" byte_order="LittleEndian" header_type="UInt32" compressor="vtkZLibDataCompressor">
  <UnstructuredGrid>
    <Piece NumberOfPoints="33" NumberOfCells="20">
      <PointData>
        <DataArray type="Float64" Name="sld_BC" NumberOfComponents="3" format="ascii" RangeMin="0" RangeMax="0">
          0 0 0 0 0 0
          0 0 0 0 0 0
          0 0 0 0 0 0
          0 0 0 0 0 0
          0 0 0 0 0 0
          0 0 0 0 0 0
          0 0 0 0 0 0
          0 0 0 0 0 0
          0 0 0 0 0 0
          0 0 0 0 0 0
          0 0 0 0 0 0
          0 0 0 0 0 0
          0 0 0 0 0 0
          0 0 0 0 0 0
          0 0 0 0 0 0
          0 0 0 0 0 0
          0 0 0
          <InformationKey name="L2_NORM_RANGE" location="vtkDataArray" length="2">
            <Value index="0">
              0
            </Value>
            <Value index="1">
              0
            </Value>
          </InformationKey>
        </DataArray>
        <DataArray type="Float64" Name="sld_FIXNO" NumberOfComponents="3" format="ascii" RangeMin="1.4142135623730951" RangeMax="1.4142135623730951">
          -1 -1 0 -1 -1 0
          -1 -1 0 -1 -1 0
          -1 -1 0 -1 -1 0
          -1 -1 0 -1 -1 0
          -1 -1 0 -1 -1 0
          -1 -1 0 -1 -1 0
          -1 -1 0 -1 -1 0
          -1 -1 0 -1 -1 0
          -1 -1 0 -1 -1 0
          -1 -1 0 -1 -1 0
          -1 -1 0 -1 -1 0
          -1 -1 0 -1 -1 0
          -1 -1 0 -1 -1 0
          1 1 0 -1 -1 0
          -1 -1 0 -1 -1 0
          1 1 0 -1 -1 0
          1 1 0
          <InformationKey name="L2_NORM_RANGE" location="vtkDataArray" length="2">
            <Value index="0">
              1.4142135624
            </Value>
            <Value index="1">
              1.4142135624
            </Value>
          </InformationKey>
        </DataArray>
        <DataArray type="Float64" Name="Disp" NumberOfComponents="3" format="ascii" RangeMin="0" RangeMax="0.043815698112271685">
          0.04342985038773876 0.005802025195081131 0 0.0376663828667161 0.00578397648344352 0
          0.03190821142274972 0.005716030052415383 0 0.04342338239601741 0.00005611345950546579 0
          0.02622413999024193 0.005565606061094429 0 0.03767187345659817 0.000024881250533381836 0
          0.020711908252553268 0.005303377391300296 0 0.03188405787418515 0.00003398743972376421 0
          0.043424820378635945 -0.005689368235184192 0 0.015500629301077913 0.004901161494907961 0
          0.0261983850667234 -0.00001222547845846462 0 0.03765994603934121 -0.005673852513736236 0
          0.02063677676061856 0.000020812741499036803 0 0.010742052129358137 0.004333382358876986 0
          0.031900315209712586 -0.005611981649377788 0 0.01537281552624475 0.00000875762467688224 0
          0.02621433544917541 -0.005470336535736047 0 0.00661632385428852 0.003573349807436463 0
          0.010555217064818578 0.0000132794430757472 0 0.02070219413418489 -0.005218087298126514 0
          0.003323101549531843 0.0026005561218574013 0 0.015489311779018869 -0.004828018091966766 0
          0.006427591219169982 0.00003155834372304433 0 0.0011418738816019321 0.0013761084760267766 0
          0.010729646734807046 -0.004273101330147545 0 0.0030974972999782556 0.000007053381232360135 0
          0 0 0 0.006606443068712058 -0.003527239702909815 0
          0.0007906811840580296 0.000005129193086659655 0 0.00330873596215551 -0.0025705326986730165 0
          0 0 0 0.0011289665503203727 -0.0013606244913496948 0
          0 0 0
          <InformationKey name="L2_NORM_RANGE" location="vtkDataArray" length="2">
            <Value index="0">
              0
            </Value>
            <Value index="1">
              0.043815698112
            </Value>
          </InformationKey>
        </DataArray>
        <DataArray type="Float64" Name="Sld_traction" NumberOfComponents="3" format="ascii" RangeMin="0" RangeMax="3640.2216612169627">
          17.630647158373254 8.27897164097097 0 -22.164718069016963 -60.926610193915614 0
          -97.83544805432462 -108.51667475137249 0 34.449067899027085 0.9220536217367062 0
          -209.47995333960472 -151.32872309587958 0 0 0 0
          -355.509887797351 -191.38266633527633 0 0 0 0
          6.857960875632779 -5.891687529995442 0 -531.0818845601841 -231.0843334997777 0
          0 0 0 -46.42183484722363 63.845685039631846 0
          0 0 0 -733.1657496984153 -268.32429149808274 0
          -122.21815436950119 110.85718030017154 0 0 0 0
          -234.67701355121548 152.02741656753173 0 -968.2599527859359 -299.7569086783389 0
          0 0 0 -379.64306546971835 192.04152975481946 0
          -1223.8116467503412 -296.4651842379302 0 -556.8990086817322 232.20325191490483 0
          0 0 0 -1533.21098609106 -486.8690679804463 0
          -761.007486481179 268.7519369145728 0 0 0 0
          -2060.321047235028 -3001.048304361918 0 -993.67339306519 300.9983769455722 0
          0 0 0 -1255.3865359587503 297.7018772593898 0
          -1392.8563579337383 -32.19113290566466 0 -1554.4275396591706 479.6334569185012 0
          -2047.4586546094822 2955.2894450371346 0
          <InformationKey name="L2_NORM_RANGE" location="vtkDataArray" length="2">
            <Value index="0">
              0
            </Value>
            <Value index="1">
              3640.2216612
            </Value>
          </InformationKey>
        </DataArray>
        <DataArray type="Float64" Name="Fld_traction" NumberOfComponents="3" format="ascii" RangeMin="0" RangeMax="38.50313759996636">
          24.46276985078665 -0.3400662499085872 0 38.032964558546006 5.99876753427958 0
          37.39113158243843 3.5119594641988434 0 14.857162213431918 -3.638131128137167 0
          36.37935481389704 2.1671856137180705 0 0 0 0
          35.91846952686037 1.3564891628230649 0 0 0 0
          12.301393728188012 -1.5761868007535835 0 35.4913636107835 0.7778798355866823 0
          0 0 0 9.840590455109353 -0.9360711442639665 0
          0 0 0 35.00798583097983 0.3960528729443643 0
          6.187154823678782 0.4627980856571861 0 0 0 0
          4.043883309420586 0.7516830529467935 0 34.5937805770646 0.17535674584794364 0
          0 0 0 2.601131657861584 0.8208473712753764 0
          34.367742562409035 0.05127314030395581 0 1.6778056550827658 0.7635417467347094 0
          0 0 0 34.18456026784856 0.0026965862504002517 0
          0.9621594075520353 0.631056502614376 0 0 0 0
          17.3298122433263 -16.787757352234113 0 0.5177265528375483 0.4372592225282289 0
          0 0 0 0.30216598484373924 0.24247902867957905 0
          0 0 0 0.3031526625521133 0.06490214076940169 0
          0.19802433821218804 0.20076307007885452 0
          <InformationKey name="L2_NORM_RANGE" location="vtkDataArray" length="2">
            <Value index="0">
              0
            </Value>
            <Value index="1">
              38.5031376
            </Value>
          </InformationKey>
        </DataArray>
        <DataArray type="Float64" Name="Velocity" NumberOfComponents="3" format="ascii" RangeMin="0" RangeMax="0.05770892963499868">
          0.05620809832571337 0.013075558964119514 0 0.043118317786974295 0.012938551791250115 0
          0.03022919267083153 0.01194312903415437 0 0.05598560690117488 0.00017107696557751057 0
          0.018735060998560052 0.010086813620262114 0 0.04277502088615276 0.00019814861489685694 0
          0.009585075831222686 0.0077034598635242 0 0.029625445961770094 0.00017068196630724754 0
          0.055881403238610294 -0.01276424434615608 0 0.0031629151957947646 0.005235054410389463 0
          0.017996650921465247 -0.000009175948371454223 0 0.04271557534884446 -0.012444967343927575 0
          0.008748052319466862 -0.000031884391309045315 0 -0.0007256191979736239 0.0030215816782920195 0
          0.029753733907289963 -0.011548325506206686 0 0.002332132184353977 -0.00009295073182187378 0
          0.01824430649836325 -0.009887239117017636 0 -0.0025015106657927284 0.0012181310669502968 0
          -0.0014815749760216691 -0.00009951858797757618 0 0.009130031828933467 -0.007685859651833847 0
          -0.0025318184706545187 -0.00006333059896494048 0 0.002736373332220137 -0.005341395614985367 0
          -0.0031266269642403824 -0.00007445357233278906 0 -0.0012881261145207628 -0.0005489063324811121 0
          -0.001120429035169502 -0.003177732548910105 0 -0.0030339572379093176 -0.00005005347595193259 0
          0 0 0 -0.0028676498179151175 -0.0013667041868520823 0
          -0.001586626413454658 -0.00005037416109989829 0 -0.0028983145927247815 -0.000043588051814052835 0
          0 0 0 -0.0017084636588182945 0.0005047964642939011 0
          0 0 0
          <InformationKey name="L2_NORM_RANGE" location="vtkDataArray" length="2">
            <Value index="0">
              0
            </Value>
            <Value index="1">
              0.057708929635
            </Value>
          </InformationKey>
        </DataArray>
      </PointData>
      <CellData>
        <DataArray type="UInt8" Name="vtkGhostType" format="ascii" RangeMin="0" RangeMax="0">
          0 0 0 0 0 0
          0 0 0 0 0 0
          0 0 0 0 0 0
          0 0
        </DataArray>
        <DataArray type="Float64" Name="Stress" NumberOfComponents="6" format="ascii" RangeMin="55.29006502231486" RangeMax="3404.585573097251">
          5.329238443252025 -29.02367722103234 0 46.756995929551536 0 0
          -30.07999960269696 29.642772190276204 0 44.90181878931303 0 0
          -27.745101277275083 142.82972279314595 0 105.78374172388405 0 0
          2.6915564595953168 -129.19147436746442 0 107.39945075342365 0 0
          -650.8593018970971 -3256.4172989401745 0 424.8968828475848 0 0
          648.109063414445 3314.270285624316 0 432.16899505830577 0 0
          0.6794505173205039 -304.92192115674686 0 160.8894673868275 0 0
          -28.651378815090276 325.1951479894752 0 160.14024855835487 0 0
          -141.92120218350533 2644.2633871583207 0 406.9020441956808 0 0
          107.1415814855309 -2597.0643729447465 0 407.5993637362742 0 0
          -26.856227218175164 571.2456238972077 0 209.65880241214998 0 0
          -2.135091409962797 -547.3567061032975 0 209.05451206015755 0 0
          -7.007696253760457 2150.6732764842627 0 376.7009079780976 0 0
          -22.582585646924542 -2097.679383442421 0 378.32785607238463 0 0
          -3.9518327912680036 -849.6710258023604 0 254.94895676591815 0 0
          -25.326578891965298 880.2386983944333 0 254.86202689662002 0 0
          7.964679958805789 -1626.9163696346081 0 339.53701281106714 0 0
          -35.46550267733261 1674.928786424009 0 340.3608125139515 0 0
          -23.938915140434773 1245.0706390908797 0 298.34796266579235 0 0
          -8.79085583004371 -1211.7380034878033 0 298.7901981704957 0 0
          <InformationKey name="L2_NORM_RANGE" location="vtkDataArray" length="2">
            <Value index="0">
              55.290065022
            </Value>
            <Value index="1">
              3404.5855731
            </Value>
          </InformationKey>
        </DataArray>
        <DataArray type="Float64" Name="Strain" NumberOfComponents="6" format="ascii" RangeMin="0.000629522305197676" RangeMax="0.015323085167262133">
          0.0000808442054978098 -0.00014244974632003865 0 0.0006078409470841698 0 0
          -0.00019466740396330978 0.00019353061269101581 0 0.0005837236442610694 0 0
          -0.00040475817025823613 0.0007039781861995003 0 0.0013751886424104925 0 0
          0.0002641699569077144 -0.0005930697434681741 0 0.0013961928597945074 0 0
          0.003388603909301549 -0.013547523071478456 0 0.005523659477018602 0 0
          -0.003513930818431691 0.013816117125932469 0 0.005618196935757975 0 0
          0.0005976892461094646 -0.001388719669771973 0 0.0020915630760287574 0 0
          -0.0007644943121881374 0.001535508112041538 0 0.002081823231258613 0 0
          -0.005802055074893673 0.01230814475582819 0 0.00528972657454385 0 0
          0.0055517697230014216 -0.012025568980795381 0 0.005298791728571565 0 0
          -0.0012361248004422523 0.002651537231807737 0 0.0027255644313579487 0 0
          0.0010576309109860994 -0.002486309584520576 0 0.002717708656782048 0 0
          -0.0042256979070989225 0.009799228415698228 0 0.004897111803715268 0 0
          0.003987724033019216 -0.009500405152651515 0 0.004918262128940999 0 0
          0.0016388776611143338 -0.0038582970934577677 0 0.0033143364379569357 0 0
          -0.0018317013958275875 0.004054472906534003 0 0.00331320634965606 0 0
          0.003208726214600053 -0.00741800060775714 0 0.004413981166543873 0 0
          -0.003427479170708682 0.00769008370845004 0 0.004424690562681368 0 0
          -0.0025368098101161943 0.005711752292387349 0 0.003878523514655299 0 0
          0.0023228907127745176 -0.00549626574700092 0 0.0038842725762164433 0 0
          <InformationKey name="L2_NORM_RANGE" location="vtkDataArray" length="2">
            <Value index="0">
              0.0006295223052
            </Value>
            <Value index="1">
              0.015323085167
            </Value>
          </InformationKey>
        </DataArray>
        <DataArray type="Float64" Name="Btraction" NumberOfComponents="3" format="ascii" RangeMin="0.14180893623775725" RangeMax="19.005341694383006">
          6.789638985404983 -1.3035794822226876 0 15.623933602333162 1.4146753210927479 0
          18.856024035246108 2.3776817496196054 0 4.006936319697034 -0.1183182646516951 0
          0.12529425019107532 0.06641630271206404 0 12.878593127793716 -4.196265191495927 0
          2.557759533274842 0.3036202846509949 0 18.442621599083864 1.4197862694792285 0
          17.138075707564397 0.013492431638589014 0 0.15132966184896313 0.07684529236224519 0
          18.07445608518935 0.8809186941352839 0 1.6612537418205426 0.39313260605554246 0
          17.240380784868407 0.05665747153797486 0 0.2049731344203219 0.169934562801952 0
          1.0697343282360874 0.39609727950252144 0 17.852458284410968 0.5335922496024367 0
          0.36997149009739594 0.26707893128565124 0 17.400441602011103 0.14285240469807697 0
          17.62483736044083 0.2934831771327616 0 0.6599912656587001 0.3486495623372714 0
          <InformationKey name="L2_NORM_RANGE" location="vtkDataArray" length="2">
            <Value index="0">
              0.14180893624
            </Value>
            <Value index="1">
              19.005341694
            </Value>
          </InformationKey>
        </DataArray>
      </CellData>
      <Points>
        <DataArray type="Float32" Name="Points" NumberOfComponents="3" format="ascii" RangeMin="1.4500000476837158" RangeMax="1.6286497021092299">
          1.4500000476837158 0.5 0 1.4500000476837158 0.44999998807907104 0
          1.4500000476837158 0.4000000059604645 0 1.5 0.5 0
          1.4500000476837158 0.3499999940395355 0 1.5002609491348267 0.45016080141067505 0
          1.4500000476837158 0.30000001192092896 0 1.5001590251922607 0.4000298082828522 0
          1.5499999523162842 0.5 0 1.4500000476837158 0.25 0
          1.5005459785461426 0.35020819306373596 0 1.5499999523162842 0.44999998807907104 0
          1.5002089738845825 0.30000561475753784 0 1.4500000476837158 0.20000000298023224 0
          1.5499999523162842 0.4000000059604645 0 1.5002909898757935 0.24981409311294556 0
          1.5499999523162842 0.3499999940395355 0 1.4500000476837158 0.15000000596046448 0
          1.5001939535140991 0.19956040382385254 0 1.5499999523162842 0.30000001192092896 0
          1.4500000476837158 0.10000000149011612 0 1.5499999523162842 0.25 0
          1.499879002571106 0.15004639327526093 0 1.4500000476837158 0.05000000074505806 0
          1.5499999523162842 0.20000000298023224 0 1.5001660585403442 0.10008130222558975 0
          1.4500000476837158 0 0 1.5499999523162842 0.15000000596046448 0
          1.5000410079956055 0.050020311027765274 0 1.5499999523162842 0.10000000149011612 0
          1.5 0 0 1.5499999523162842 0.05000000074505806 0
          1.5499999523162842 0 0
          <InformationKey name="L2_NORM_RANGE" location="vtkDataArray" length="2">
            <Value index="0">
              1.4500000477
            </Value>
            <Value index="1">
              1.6286497021
            </Value>
          </InformationKey>
        </DataArray>
      </Points>
      <Cells>
        <DataArray type="Int64" Name="connectivity" format="ascii" RangeMin="0" RangeMax="32">
          11 8 3 5 3 0
          1 5 1 2 7 5
          11 5 7 14 32 31
          28 30 26 30 28 23
          16 14 7 10 7 2
          4 10 20 23 28 25
          28 31 29 25 4 6
          12 10 16 10 12 19
          17 20 25 22 25 29
          27 22 21 19 12 15
          12 6 9 15 27 24
          18 22 17 22 18 13
          9 13 18 15 15 18
          24 21
        </DataArray>
        <DataArray type="Int64" Name="offsets" format="ascii" RangeMin="4" RangeMax="80">
          4 8 12 16 20 24
          28 32 36 40 44 48
          52 56 60 64 68 72
          76 80
        </DataArray>
        <DataArray type="UInt8" Name="types" format="ascii" RangeMin="9" RangeMax="9">
          9 9 9 9 9 9
          9 9 9 9 9 9
          9 9 9 9 9 9
          9 9
        </DataArray>
      </Cells>
    </Piece>
  </UnstructuredGrid>
</VTKFile>
