<?xml version="1.0"?>
<VTKFile type="UnstructuredGrid" version="0.1" byte_order="LittleEndian" header_type="UInt32" compressor="vtkZLibDataCompressor">
  <UnstructuredGrid>
    <Piece NumberOfPoints="24" NumberOfCells="15">
      <PointData>
        <DataArray type="Float64" Name="Disp" NumberOfComponents="3" format="ascii" RangeMin="0" RangeMax="2.970355658959587">
          0 0 0 -0.017864198124617085 -0.3561896430538201 0
          0 0 0 0.06972093592249064 -0.4241540726690607 0
          0.1795450611261983 -0.878825043972956 0 0 0 0
          0.4611702997835239 -0.9734514590821141 0 0.5927530635189628 -0.6652873613976389 0
          0.49003248935595833 -1.4834812484551176 0 0.7585820532138114 -1.0385680638374064 0
          0.7399301676948293 -1.5333190659139861 0 1.0595213367544702 -1.5784526999131052 0
          0.794656314945957 -2.078210267970081 0 1.026125195911526 -2.102135874811692 0
          1.2409701310844108 -2.114266583930079 0 1.0735414502137457 -2.60759933886698 0
          1.2361853032731416 -2.6160881884617355 0 1.3974634033240345 -2.621089234856999 0
          0 0 0 -0.05094040292384283 -0.3575450260909831 0
          0.01609476398114355 -0.8223794972035989 0 0.2621680538912404 -1.4307753605765658 0
          0.5792563246165543 -2.053328016127696 0 0.9124667332034332 -2.595706331656084 0
          <InformationKey name="L2_NORM_RANGE" location="vtkDataArray" length="2">
            <Value index="0">
              0
            </Value>
            <Value index="1">
              2.970355659
            </Value>
          </InformationKey>
        </DataArray>
        <DataArray type="Float64" Name="Nodal Stress" NumberOfComponents="6" format="ascii" RangeMin="103731.47685273614" RangeMax="9110618.123934962">
          -149595.6185637831 453179.1982656746 0 -2402296.3793142526 0 0
          582439.4157354651 -575269.8449355903 0 -2317063.4682239424 0 0
          3936992.067311496 2366470.1283440744 0 -1961949.3105745036 0 0
          3544986.548721316 -119786.74181507713 0 -1339398.7628846504 0 0
          1110039.2410045622 -1205802.7613590125 0 -1518793.1024091223 0 0
          8401697.647245096 3473125.3685102183 0 -593497.615040871 0 0
          2561450.600663097 -713859.1236387647 0 -496998.72552489565 0 0
          6157486.537124153 324637.38125298097 0 146474.18432866773 0 0
          892131.261454376 -1177450.2337593671 0 -978768.6743580217 0 0
          3197385.0786083317 -180929.43424395382 0 434160.5559600039 0 0
          1396585.6249380712 -606646.367269831 0 -316409.842501185 0 0
          1558566.3273118727 -141008.330893257 0 147746.88898499563 0 0
          434938.0097684855 -735923.3814268248 0 -529021.3097731093 0 0
          549602.5524727772 -386997.47427765455 0 -192576.01754571396 0 0
          492927.0855471544 -122274.50338756775 0 12845.495753167208 0 0
          149873.67085041935 -494663.4588912496 0 -234128.13041737486 0 0
          121830.09074096158 -276799.68481878133 0 -80259.8893881703 0 0
          30811.155207116433 -99049.22956430391 0 376.9981041609646 0 0
          -2535740.664544128 -1477376.7292533491 0 -2646414.6602940215 0 0
          -1824970.4086955665 -1260820.857212835 0 -2741981.324059976 0 0
          -836590.493971936 -1635163.5903483985 0 -2263593.0287037618 0 0
          -207475.7463210637 -1624646.0171363805 0 -1606296.5025046011 0 0
          28545.071799174213 -1002567.3090921985 0 -869530.0940983517 0 0
          63492.16649459273 -617700.5186338717 0 -392260.9340567905 0 0
          <InformationKey name="L2_NORM_RANGE" location="vtkDataArray" length="2">
            <Value index="0">
              103731.47685
            </Value>
            <Value index="1">
              9110618.1239
            </Value>
          </InformationKey>
        </DataArray>
        <DataArray type="Float64" Name="Nodal Strain" NumberOfComponents="6" format="ascii" RangeMin="0" RangeMax="0">
          0 0 0 0 0 0
          0 0 0 0 0 0
          0 0 0 0 0 0
          0 0 0 0 0 0
          0 0 0 0 0 0
          0 0 0 0 0 0
          0 0 0 0 0 0
          0 0 0 0 0 0
          0 0 0 0 0 0
          0 0 0 0 0 0
          0 0 0 0 0 0
          0 0 0 0 0 0
          0 0 0 0 0 0
          0 0 0 0 0 0
          0 0 0 0 0 0
          0 0 0 0 0 0
          0 0 0 0 0 0
          0 0 0 0 0 0
          0 0 0 0 0 0
          0 0 0 0 0 0
          0 0 0 0 0 0
          0 0 0 0 0 0
          0 0 0 0 0 0
          0 0 0 0 0 0
          <InformationKey name="L2_NORM_RANGE" location="vtkDataArray" length="2">
            <Value index="0">
              0
            </Value>
            <Value index="1">
              0
            </Value>
          </InformationKey>
        </DataArray>
        <DataArray type="Float64" Name="Sigma" NumberOfComponents="6" format="ascii" RangeMin="115996.94981396873" RangeMax="6008577.889348314">
          -948223.9395575534 948223.9395575606 0 -2184162.156520615 0 0
          734073.798694016 -734073.7986940247 0 -2638838.432436376 0 0
          -549523.548732814 549523.5487328224 0 -2813622.8219816927 0 0
          2336699.1923569087 -2336699.1923569115 0 -1710552.6945692294 0 0
          1345632.5647129554 -1345632.5647129419 0 -1395573.4142060764 0 0
          3180894.3323261514 -3180894.3323261454 0 -209428.05996549423 0 0
          1746452.446918607 -1746452.4469186147 0 -357922.3527711503 0 0
          4126000.6432905365 -4126000.6432905365 0 1433612.7913413749 0 0
          1170678.843204443 -1170678.8432044566 0 -980734.4702822266 0 0
          1204757.655785987 -1204757.655785974 0 974390.2111833241 0 0
          971238.9550294252 -971238.9550294114 0 -342384.75206259225 0 0
          765875.6627126343 -765875.6627126486 0 279146.3749092926 0 0
          544621.8369565213 -544621.8369565115 0 -493782.4764398807 0 0
          441601.64632244164 -441601.6463224599 0 -167795.15292763087 0 0
          125238.73035548416 -125238.73035546331 0 81855.41457833542 0 0
          225289.5661933395 -225289.56619332856 0 -87163.56665494996 0 0
          93852.68743179733 -93852.68743176566 0 -18205.097205379585 0 0
          -81648.11097098027 81648.11097100993 0 11066.359648977592 0 0
          -620003.7188738029 620003.7188737952 0 -2487939.9666690966 0 0
          -519452.75374460773 519452.75374461885 0 -2933062.6374340537 0 0
          498590.2273810756 -498590.227381094 0 -2285241.5345176975 0 0
          866039.4954228537 -866039.4954228641 0 -1620870.946548644 0 0
          530149.7727049404 -530149.7727049276 0 -823738.6027259771 0 0
          272720.0142176485 -272720.0142176484 0 -180812.56543950076 0 0
          <InformationKey name="L2_NORM_RANGE" location="vtkDataArray" length="2">
            <Value index="0">
              115996.94981
            </Value>
            <Value index="1">
              6008577.8893
            </Value>
          </InformationKey>
        </DataArray>
        <DataArray type="Float64" Name="Press" format="ascii" RangeMin="-2535561.803605394" RangeMax="9568269.24805777">
          100642.26849221329 3486.502503689852 3634623.8414600063 1079137.0670423694 33187.546360364104 9568269.24805777
          1033028.9425278682 3152003.382059641 -114146.62249734093 1659564.750526222 295805.28559905686 791695.4770669045
          -123447.82399113639 103281.31884329313 139210.92190711878 -196651.32660466325 -161195.44957059924 -99149.2391965137
          -2535561.803605394 -1474235.448154746 -1261452.6717082895 -908584.0312136221 -400256.22666511143 -217006.1792884308
        </DataArray>
        <DataArray type="Float64" Name="Dev strain" NumberOfComponents="6" format="ascii" RangeMin="0" RangeMax="0">
          0 0 0 0 0 0
          0 0 0 0 0 0
          0 0 0 0 0 0
          0 0 0 0 0 0
          0 0 0 0 0 0
          0 0 0 0 0 0
          0 0 0 0 0 0
          0 0 0 0 0 0
          0 0 0 0 0 0
          0 0 0 0 0 0
          0 0 0 0 0 0
          0 0 0 0 0 0
          0 0 0 0 0 0
          0 0 0 0 0 0
          0 0 0 0 0 0
          0 0 0 0 0 0
          0 0 0 0 0 0
          0 0 0 0 0 0
          0 0 0 0 0 0
          0 0 0 0 0 0
          0 0 0 0 0 0
          0 0 0 0 0 0
          0 0 0 0 0 0
          0 0 0 0 0 0
          <InformationKey name="L2_NORM_RANGE" location="vtkDataArray" length="2">
            <Value index="0">
              0
            </Value>
            <Value index="1">
              0
            </Value>
          </InformationKey>
        </DataArray>
        <DataArray type="Float64" Name="J2 Stresses" format="ascii" RangeMin="6697030104.10206" RangeMax="17537692717308.32">
          2091769721044.2493 2279731410054.8867 2281094476705.9653 6191660745785.948 2297633287825.6494 10129053781499.844
          3082123252001.3125 17537692717308.32 1610948979226.4487 1688800080087.4023 972611937377.877 606046205391.7777
          357568228799.66565 202050817371.20068 17359816804.998848 52654760473.5836 8891183329.232006 6697030104.10206
          1931865930854.6978 2420545272150.7637 1554174432611.1218 1406830063973.654 450695102904.3295 82549502110.07779
        </DataArray>
      </PointData>
      <CellData>
        <DataArray type="UInt8" Name="vtkGhostType" format="ascii" RangeMin="0" RangeMax="1">
          0 0 1 0 0 1
          0 1 1 0 0 0
          0 0 1
        </DataArray>
        <DataArray type="Float64" Name="Gauss Stress" NumberOfComponents="6" format="ascii" RangeMin="206138.17240932825" RangeMax="7000826.874775027">
          6632026.039465142 2084990.7298447532 0 -824997.6962937603 0 0
          1597728.7955647088 811216.0441844312 0 -2336794.026376978 0 0
          -1314818.773561546 -638015.4668205718 0 -2561000.798265035 0 0
          4084411.020127035 -622543.9490489841 0 84881.98879607976 0 0
          2077924.5152791948 -1003504.4860620503 0 -1525721.7234957078 0 0
          -160042.5584888855 -1189464.4770106056 0 -2313179.004648551 0 0
          1620469.490463845 -996531.9144688691 0 -769153.7473305113 0 0
          407486.33791560994 -1532984.227445061 0 -1570605.0913886612 0 0
          391263.81098038686 -1164481.1631639926 0 -979781.6239991821 0 0
          2117104.7940416764 -227057.5661816494 0 138307.3703147185 0 0
          908486.9994590897 -243490.4977509025 0 -37294.528875648786 0 0
          822408.3598666759 -741662.2808897416 0 -496174.2129280826 0 0
          140298.12628051045 -149224.350288845 0 -23269.61897642436 0 0
          231838.1138952485 -420844.7545567928 0 -191736.5733069603 0 0
          158854.90838077693 -627535.6866554394 0 -396374.3028150771 0 0
          <InformationKey name="L2_NORM_RANGE" location="vtkDataArray" length="2">
            <Value index="0">
              206138.17241
            </Value>
            <Value index="1">
              7000826.8748
            </Value>
          </InformationKey>
        </DataArray>
        <DataArray type="Float64" Name="Gauss Strain" NumberOfComponents="6" format="ascii" RangeMin="0" RangeMax="0">
          0 0 0 0 0 0
          0 0 0 0 0 0
          0 0 0 0 0 0
          0 0 0 0 0 0
          0 0 0 0 0 0
          0 0 0 0 0 0
          0 0 0 0 0 0
          0 0 0 0 0 0
          0 0 0 0 0 0
          0 0 0 0 0 0
          0 0 0 0 0 0
          0 0 0 0 0 0
          0 0 0 0 0 0
          0 0 0 0 0 0
          0 0 0 0 0 0
          <InformationKey name="L2_NORM_RANGE" location="vtkDataArray" length="2">
            <Value index="0">
              0
            </Value>
            <Value index="1">
              0
            </Value>
          </InformationKey>
        </DataArray>
      </CellData>
      <Points>
        <DataArray type="Float32" Name="Points" NumberOfComponents="3" format="ascii" RangeMin="0" RangeMax="50.59644256269407">
          0 -17.600000381469727 0 9.600000381469727 -12.289024353027344 0
          0 -8.800000190734863 0 9.600000381469727 -4.738048076629639 0
          19.200000762939453 -6.784512042999268 0 0 0 0
          19.200000762939453 -0.2890239953994751 0 9.600000381469727 3.200000047683716 0
          28.799999237060547 -1.2154879570007324 0 19.200000762939453 6.400000095367432 0
          28.799999237060547 4.2890238761901855 0 28.799999237060547 9.600000381469727 0
          38.400001525878906 4.2890238761901855 0 38.400001525878906 8.73804759979248 0
          38.400001525878906 12.800000190734863 0 48 9.600000381469727 0
          48 12.800000190734863 0 48 16 0
          0 -26.399999618530273 0 9.600000381469727 -19.710975646972656 0
          19.200000762939453 -13.21548843383789 0 28.799999237060547 -6.784512042999268 0
          38.400001525878906 -0.2890239953994751 0 48 6.400000095367432 0
          <InformationKey name="L2_NORM_RANGE" location="vtkDataArray" length="2">
            <Value index="0">
              0
            </Value>
            <Value index="1">
              50.596442563
            </Value>
          </InformationKey>
        </DataArray>
      </Points>
      <Cells>
        <DataArray type="Int64" Name="connectivity" format="ascii" RangeMin="0" RangeMax="23">
          2 3 7 5 0 1
          3 2 18 19 1 0
          3 6 9 7 1 4
          6 3 19 20 4 1
          4 8 10 6 20 21
          8 4 21 22 12 8
          6 10 11 9 10 13
          14 11 8 12 13 10
          13 16 17 14 12 15
          16 13 22 23 15 12
        </DataArray>
        <DataArray type="Int64" Name="offsets" format="ascii" RangeMin="4" RangeMax="60">
          4 8 12 16 20 24
          28 32 36 40 44 48
          52 56 60
        </DataArray>
        <DataArray type="UInt8" Name="types" format="ascii" RangeMin="9" RangeMax="9">
          9 9 9 9 9 9
          9 9 9 9 9 9
          9 9 9
        </DataArray>
      </Cells>
    </Piece>
  </UnstructuredGrid>
</VTKFile>
