<?xml version="1.0"?>
<VTKFile type="UnstructuredGrid" version="0.1" byte_order="LittleEndian" header_type="UInt32" compressor="vtkZLibDataCompressor">
  <UnstructuredGrid>
    <Piece NumberOfPoints="32" NumberOfCells="44">
      <PointData>
        <DataArray type="Float64" Name="proc" format="ascii" RangeMin="0" RangeMax="1">
          0 0 0 0 0 0
          0 0 0 0 0 0
          0 0 0 0 0 0
          0 0 0 0 0 0
          0 0 0 1 1 1
          1 1
        </DataArray>
        <DataArray type="Float64" Name="Displacement" NumberOfComponents="3" format="ascii" RangeMin="2.929419034586634e-10" RangeMax="1.1191131700964828e-8">
          7.057091614029474e-9 0 0 5.229705819077363e-9 -2.8409081089567473e-11 0
          7.026732407030583e-9 -2.329274075896545e-9 0 4.78608411219804e-9 -2.743297862059552e-9 0
          3.6182293961892393e-9 -1.8226188110623855e-10 0 5.844489454375063e-9 -3.920395706283312e-9 0
          3.1504968645951065e-9 -1.915542813836123e-9 0 7.0004790611632e-9 -4.52905608483044e-9 0
          4.584794343975673e-9 -4.528715183472646e-9 0 5.7993848125167355e-9 -5.18249367167453e-9 0
          1.90414829883024e-9 -2.1272554849574386e-10 0 3.150470202670253e-9 -3.618449224045237e-9 0
          1.7140555706171482e-9 -2.625092112054804e-9 0 6.972664336646859e-9 -6.662495094158239e-9 0
          3.129674492194211e-9 -5.3828767207024345e-9 0 4.597796202669666e-9 -6.236812279178833e-9 0
          2.0138316270643213e-10 -2.1274346189798537e-10 0 1.6761332082473696e-9 -4.469827196776231e-9 0
          2.0140107610863572e-10 -1.9155751335155173e-9 0 2.0149419985937629e-10 -3.6183729334974977e-9 0
          3.141140496122723e-9 -7.081367756493593e-9 0 4.96228709056486e-9 -7.86948235417321e-9 0
          1.7692496641749592e-9 -6.235341398448964e-9 0 2.0233276860607266e-10 -5.320897962675552e-9 0
          1.9020030878385797e-9 -7.938904220211103e-9 0 3.9798655146979983e-10 -7.0540895962118266e-9 0
          6.336336392691726e-10 -8.733259661292228e-9 0 2.109451053078994e-9 -9.631902792565192e-9 0
          3.158587185533523e-9 -8.764335365646697e-9 0 4.958118908947747e-9 -9.660615904080366e-9 0
          6.952768949405702e-9 -8.769289177836472e-9 0 9.681640196073504e-10 -1.0423908986727308e-8 0
          <InformationKey name="L2_NORM_RANGE" location="vtkDataArray" length="2">
            <Value index="0">
              2.9294190346e-10
            </Value>
            <Value index="1">
              1.1191131701e-08
            </Value>
          </InformationKey>
        </DataArray>
        <DataArray type="Float64" Name="TopologicalDerivative1" format="ascii" RangeMin="-0.0011051579021763111" RangeMax="0.0009046320140753735">
          0.0009046320140753735 0.00009439690311487787 0.0004965981819522749 -0.00022267616071225394 -0.0010089249057984029 -0.00010619916641342229
          -0.0010492767255815844 0.000105828050230897 -0.00038539017961168164 -0.0005865164892987672 -0.001100006971319322 -0.0010839663263529427
          -0.001105084950223383 -0.0005618495080440364 -0.0008448680549970344 -0.0007993481896239191 -0.0011051579021763111 -0.0010676265918507673
          -0.0011051480129816594 -0.0011048325415513387 -0.0007720643589342662 -0.0007986876300964038 -0.0009435181495496015 -0.0009867086579996552
          -0.0007142573469606961 -0.000807882442195584 -0.00047922827554052274 0.00004445658898992932 -0.0005118947192129474 -0.0007686083626720966
          -0.0005536630616057942 0.0007671448291796212
        </DataArray>
      </PointData>
      <CellData>
        <DataArray type="UInt8" Name="vtkGhostType" format="ascii" RangeMin="0" RangeMax="0">
          0 0 0 0 0 0
          0 0 0 0 0 0
          0 0 0 0 0 0
          0 0 0 0 0 0
          0 0 0 0 0 0
          0 0 0 0 0 0
          0 0 0 0 0 0
          0 0
        </DataArray>
        <DataArray type="Float64" Name="Stress" NumberOfComponents="6" format="ascii" RangeMin="4.436017499160568e-7" RangeMax="2.7756826022353014">
          0.20788537941418653 -0.27854335925055373 0 0.16630830353134718 0 0
          -0.0029008232668855938 -0.0002435273776437327 0 0.00036245664288675646 0 0
          -0.014907464633618982 -0.0001593088495731622 0 0.0029931098206465593 0 0
          -0.0015996973580846385 -0.00002218758040397088 0 0.00020085851401799708 0 0
          -0.0017768839443087557 -0.0006128095344843617 0 0.0009050075377774259 0 0
          -0.00030339552064271707 -0.00031345082571039465 0 0.0011172098209671177 0 0
          -0.016077547740913505 -0.006480679551382163 0 0.00948024173873355 0 0
          -3.070868950690831e-7 -3.070868954189447e-7 0 3.0708689411195953e-7 0 0
          -0.002361479755507582 -0.00004544787047618571 0 0.00016999669482785715 0 0
          -0.0010831646708528522 0.00011410933426073952 0 0.00004594722518626915 0 0
          -0.0010895321244016399 0.00009288448909811428 0 0.0006501697463953432 0 0
          -0.000010182132556726389 -3.976919878997068e-7 0 0.0000011202579617130393 0 0
          -0.00016590532234092402 -0.00009437758399592259 0 0.0005584054902109407 0 0
          0.0004150883929611113 0.0005517995574953612 0 0.0003416131701168753 0 0
          -0.000001017536402750694 2.1623275494037218e-7 0 5.486686712708491e-7 0 0
          -0.00012977573019303215 0.000026054389830383555 0 0.000045553843266667136 0 0
          -9.455458917269809e-7 2.521255120892166e-7 0 0.0000016912128189845408 0 0
          -0.0000011481876803768042 -1.0234223830062963e-7 0 3.7616880207066405e-7 0 0
          -0.00005926005573404345 0.000008753441734911157 0 0.00003674681089617545 0 0
          3.281926227192654e-7 2.7498414916645475e-8 0 0.0000016720993600642647 0 0
          -0.00020435549750266998 0.000016682584756428894 0 0.000015107353707765296 0 0
          -0.0000365401997189024 0.000009760217537701695 0 -0.0000017191925128814796 0 0
          0.00001887412789134811 0.00006184728264367945 0 0.00031306398640648273 0 0
          -0.000044728572632982755 0.000005323548790113274 0 3.3916831140642896e-7 0 0
          -0.00011803927649237938 0.0003790434660096406 0 0.0005337497532929252 0 0
          -0.004025216232859323 -0.017239939831810304 0 0.02169118907725142 0 0
          0.0004023729428052415 0.0005094147236424618 0 0.00044402871761625587 0 0
          -0.0003677289588682673 1.7157184551227665e-7 0 0.00012223548328163655 0 0
          -0.00017196922236124 -0.000053156393444424214 0 0.0000939820867183115 0 0
          -0.00002165688731672357 -0.000059800160730527077 0 0.000056896882120894415 0 0
          -0.00014516614152659119 0.00003618720933773856 0 -0.000006920853497558158 0 0
          0.00005378347051178334 0.000020077670513655196 0 0.000028488507536566623 0 0
          0.006695851816445903 -0.00011339583848729096 0 -0.0012631362160576496 0 0
          0.0007666266972854098 0.005056151858405038 0 -0.00040663861636922526 0 0
          0.2132347916434894 -0.05526516406602776 0 0.07644928287270422 0 0
          0.012175858124621776 -0.0057758237485111335 0 -0.0008598436243918029 0 0
          -1.2554429779656412e-7 -7.125819111780465e-8 0 4.1945609069123535e-7 0 0
          -0.000009141234123607124 -0.00036830637891114583 0 0.000050940555551251 0 0
          -0.00004004075136927528 0.00002095239107147073 0 2.9552662601137707e-7 0 0
          -0.0010852147145577755 -0.01519636585398038 0 0.0029955852387061584 0 0
          -4.94393626925605e-8 -4.549683103645076e-7 0 0.0000013403486537736645 0 0
          0.00019862315928622417 0.000025424805903737468 0 0.000016404624490282983 0 0
          -0.17894034040897583 0.046248685681060595 0 0.21971139919504928 0 0
          -2.7028133236949845 -0.33173480737998584 0 0.5377416323674117 0 0
          <InformationKey name="L2_NORM_RANGE" location="vtkDataArray" length="2">
            <Value index="0">
              4.4360174992e-07
            </Value>
            <Value index="1">
              2.7756826022
            </Value>
          </InformationKey>
        </DataArray>
        <DataArray type="Float64" Name="Strain" NumberOfComponents="6" format="ascii" RangeMin="3.5597583778627916e-15" RangeMax="2.0887721180826727e-11">
          1.2143682799556362e-12 -1.4204540544783734e-12 0 1.801673288256261e-12 0 0
          -1.1782354389968641e-11 2.6113316767581063e-12 0 3.926613631273194e-12 0 0
          -1.0372398262020717e-11 3.0105262960454894e-12 0 5.432077543831229e-12 0 0
          -6.637671183181029e-12 1.907173445922585e-12 0 2.175967235194969e-12 0 0
          -6.637671183181029e-12 -3.3226812996556227e-13 0 9.804248325922116e-12 0 0
          -8.723344705399941e-13 -9.268007063232481e-13 0 1.2103106393810436e-11 0 0
          -1.0372398262020717e-11 -1.216369671132823e-12 0 1.8089518933491163e-11 0 0
          -8.95670110180832e-16 -8.956701120759157e-16 0 3.326774686212895e-15 0 0
          -9.782689143186359e-12 2.76248356740037e-12 0 1.841630860635119e-12 0 0
          -4.655822796379475e-12 1.829411397985813e-12 0 4.977616061845824e-13 0 0
          -4.655822796379475e-12 1.7489338600775258e-12 0 7.043505585949552e-12 0 0
          -4.1928437334818646e-14 1.1070615746325872e-14 0 1.2136127918557925e-14 0 0
          -5.733001964256133e-13 -1.8585828039018917e-13 0 6.049392810618522e-12 0 0
          1.0397855238020957e-12 1.7803043316959492e-12 0 3.700809342932814e-12 0 0
          -4.510025955136691e-15 2.1728903156899185e-15 0 5.943910605434197e-15 0 0
          -5.733001964256133e-13 2.707796203678883e-13 0 4.934999687222273e-13 0 0
          -4.254931438973941e-15 2.2324553316971286e-15 0 1.8321472205665862e-14 0 0
          -4.6561875370275635e-15 1.0088086075517151e-15 0 4.075162022432194e-15 0 0
          -2.5785870106048667e-13 1.1054774356301745e-13 0 3.9809045137523405e-13 0 0
          1.3330962426844653e-15 -2.956640495797255e-16 0 1.8114409734029537e-14 0 0
          -8.723344705399941e-13 3.249551416967912e-13 0 1.6366299850079072e-13 0 0
          -1.6445110408422043e-13 8.634282272238505e-14 0 -1.862458555621603e-14 0 0
          1.3330962426844653e-15 2.341043511511459e-13 0 3.391526519403563e-12 0 0
          -1.9302348862506973e-13 7.809216908336708e-14 0 3.6743233735696456e-15 0 0
          -9.656346512302983e-13 1.7268968706556438e-12 0 5.7822889940066885e-12 0 0
          1.8702655515795488e-13 -2.614727504067413e-12 0 9.197827951761093e-12 0 0
          1.0397855238020957e-12 1.619595170003706e-12 0 4.810311107509439e-12 0 0
          -1.532418460091337e-12 4.603760812749684e-13 0 1.3242177355510628e-12 0 0
          -6.500929346996364e-13 -6.523444733550892e-15 0 1.018139272781708e-12 0 0
          -1.548682957318934e-14 -2.220962272312917e-13 0 6.163828896430229e-13 0 0
          -6.500929346996364e-13 3.3223771581548297e-13 0 -7.497591289021338e-14 0 0
          1.9900070565702824e-13 1.642762233383412e-14 0 3.086254983128051e-13 0 0
          1.112588980653614e-12 -3.5083620414672303e-13 0 -5.429396738339955e-13 0 0
          -4.048204890373307e-14 2.6042134011406096e-13 0 -5.705010842695187e-14 0 0
          1.0501338346952946e-12 -5.448456307255119e-13 0 9.082685768486902e-13 0 0
          1.0181197352780738e-13 -6.901788072246337e-14 0 -1.6364701878180254e-14 0 0
          -4.3402850192176136e-16 -1.399787574118142e-16 0 4.54410764915505e-15 0 0
          4.2229449812390255e-13 -1.523183369475265e-12 0 5.518560184718859e-13 0 0
          -1.9302695287798538e-13 1.3735256867605547e-13 0 3.2015384484565848e-15 0 0
          1.7969364688581446e-12 -7.692640000833554e-12 0 4.028988834903076e-12 0 0
          3.627130434032991e-16 -1.8339020898197474e-15 0 1.45204437492147e-14 0 0
          7.958154896462622e-13 -1.4234225784220743e-13 0 1.7771676531139896e-13 0 0
          -1.0263096546010913e-12 5.319086221387785e-13 0 3.04063056515846e-12 0 0
          -1.6726519016908887e-11 3.07834321300442e-12 0 8.98316852102964e-12 0 0
          <InformationKey name="L2_NORM_RANGE" location="vtkDataArray" length="2">
            <Value index="0">
              3.5597583779e-15
            </Value>
            <Value index="1">
              2.0887721181e-11
            </Value>
          </InformationKey>
        </DataArray>
      </CellData>
      <Points>
        <DataArray type="Float32" Name="Points" NumberOfComponents="3" format="ascii" RangeMin="92.44066980668491" RangeMax="215.40659228538016">
          200 0 0 200 20 0
          175 0 0 170.3333282470703 25.352571487426758 0
          200 40 0 157 13.358983993530273 0
          180 45.35898208618164 0 150 0 0
          150 28.038475036621094 0 142.39999389648438 13.887187004089355 0
          200 60 0 160 45.35898208618164 0
          171.6666717529297 62.23291015625 0 125 0 0
          140 45.35898208618164 0 130 28.038475036621094 0
          200 80 0 150 62.67949295043945 0
          180 80 0 160 80 0
          120 45.35898208618164 0 110.71759033203125 23.771137237548828 0
          130 62.67949295043945 0 140 80 0
          110 62.67949295043945 0 120 80 0
          100 80 0 90 62.67949295043945 0
          100 45.35898208618164 0 89.30555725097656 23.870376586914062 0
          100 0 0 80 80 0
          <InformationKey name="L2_NORM_RANGE" location="vtkDataArray" length="2">
            <Value index="0">
              92.440669807
            </Value>
            <Value index="1">
              215.40659229
            </Value>
          </InformationKey>
        </DataArray>
      </Points>
      <Cells>
        <DataArray type="Int64" Name="connectivity" format="ascii" RangeMin="0" RangeMax="31">
          0 1 2 25 26 24
          24 26 27 25 24 22
          22 24 20 20 24 28
          28 24 27 16 18 10
          25 22 23 23 22 17
          17 22 14 23 17 19
          14 22 20 17 14 11
          19 17 12 14 20 15
          17 11 12 19 12 18
          15 20 21 12 11 6
          21 20 28 15 21 13
          6 11 3 21 28 29
          3 11 8 6 3 1
          8 11 14 3 8 5
          8 14 15 5 8 9
          8 15 9 9 15 13
          9 13 7 9 7 5
          5 7 2 5 2 3
          18 12 10 4 10 6
          21 29 30 1 4 6
          12 6 10 30 13 21
          3 2 1 27 26 31
        </DataArray>
        <DataArray type="Int64" Name="offsets" format="ascii" RangeMin="3" RangeMax="132">
          3 6 9 12 15 18
          21 24 27 30 33 36
          39 42 45 48 51 54
          57 60 63 66 69 72
          75 78 81 84 87 90
          93 96 99 102 105 108
          111 114 117 120 123 126
          129 132
        </DataArray>
        <DataArray type="UInt8" Name="types" format="ascii" RangeMin="5" RangeMax="5">
          5 5 5 5 5 5
          5 5 5 5 5 5
          5 5 5 5 5 5
          5 5 5 5 5 5
          5 5 5 5 5 5
          5 5 5 5 5 5
          5 5 5 5 5 5
          5 5
        </DataArray>
      </Cells>
    </Piece>
  </UnstructuredGrid>
</VTKFile>
