<?xml version="1.0"?>
<VTKFile type="UnstructuredGrid" version="0.1" byte_order="LittleEndian" header_type="UInt32" compressor="vtkZLibDataCompressor">
  <UnstructuredGrid>
    <Piece NumberOfPoints="33" NumberOfCells="46">
      <PointData>
        <DataArray type="Float64" Name="proc" format="ascii" RangeMin="0" RangeMax="1">
          1 1 1 1 1 1
          1 1 1 1 1 1
          1 1 1 1 1 1
          1 1 1 1 1 1
          1 1 1 1 0 0
          0 0 0
        </DataArray>
        <DataArray type="Float64" Name="Displacement" NumberOfComponents="3" format="ascii" RangeMin="0" RangeMax="1.6425232285240966e-8">
          6.952768949405702e-9 -8.769289177836472e-9 0 3.158587185533523e-9 -8.764335365646697e-9 0
          4.958118908947747e-9 -9.660615904080366e-9 0 6.933130285530389e-9 -1.0842839329288996e-8 0
          2.109451053078994e-9 -9.631902792565192e-9 0 3.179340683609816e-9 -1.0428125536164705e-8 0
          4.615891562074223e-9 -1.1255431348481495e-8 0 5.824468362001417e-9 -1.2322822179755031e-8 0
          9.681640196073504e-10 -1.0423908986727308e-8 0 2.4370560576876345e-9 -1.137895863887467e-8 0
          3.1991478037889684e-9 -1.2072866941371381e-8 0 6.912906657649047e-9 -1.289525885887455e-8 0
          4.553188087043033e-9 -1.2987118732586321e-8 0 5.7913661645982485e-9 -1.3597268683126502e-8 0
          1.5241468590538605e-9 -1.2281808873241997e-8 0 2.905874853224174e-9 -1.3418096532525096e-8 0
          3.1808679171387668e-9 -1.3819383648385493e-8 0 6.895606222680927e-9 -1.4907678237936525e-8 0
          4.680628715725673e-9 -1.49408610262986e-8 0 2.7033653171072263e-9 -1.3571725325487305e-8 0
          2.9767951072749877e-9 -1.3738728069721827e-8 0 3.4174489355845453e-9 -1.3867057976140284e-8 0
          2.7368324287456863e-9 -1.3852080574625705e-8 0 0 0 0
          5.190636711381828e-9 -8.565670514136101e-9 0 4.0907797562167025e-9 -1.1979213516837213e-8 0
          3.049698429559606e-9 -1.4006545622805867e-8 0 2.764552595456594e-9 -1.4034265789516767e-8 0
          1.9020030878385797e-9 -7.938904220211103e-9 0 6.336336392691726e-10 -8.733259661292228e-9 0
          3.141140496122723e-9 -7.081367756493593e-9 0 4.96228709056486e-9 -7.86948235417321e-9 0
          6.972664336646859e-9 -6.662495094158239e-9 0
          <InformationKey name="L2_NORM_RANGE" location="vtkDataArray" length="2">
            <Value index="0">
              0
            </Value>
            <Value index="1">
              1.6425232285e-08
            </Value>
          </InformationKey>
        </DataArray>
        <DataArray type="Float64" Name="TopologicalDerivative1" format="ascii" RangeMin="-0.00105188237896107" RangeMax="0.8709326118359614">
          -0.0005536630616057942 -0.0005118947192129474 -0.0007686083626720966 -0.0006199265188273164 0.00004445658898992932 0.00019382190061030449
          -0.0008461385168992382 -0.0007193202286748272 0.0007671448291796212 0.002946201574601686 0.002964959155268151 -0.00025232437047559547
          -0.0006919299950821756 -0.0006506098290526908 0.0055335009285918425 0.006281319222998504 0.005479859956118943 0.2727963956725093
          0.0696247786870329 0.0038064649151023015 0.0018719829253022418 0.024207266043836075 -0.0004746036222631531 0.8709326118359614
          0.38146664445209866 0.10898319969628502 0.012060700573393725 -0.00105188237896107 -0.0007142573469606961 -0.00047922827554052274
          -0.0007720643589342662 -0.0007986876300964038 -0.0005618495080440364
        </DataArray>
      </PointData>
      <CellData>
        <DataArray type="UInt8" Name="vtkGhostType" format="ascii" RangeMin="0" RangeMax="1">
          1 1 1 0 0 1
          1 1 1 0 0 0
          1 0 0 0 0 0
          0 0 0 0 0 0
          0 0 0 0 0 0
          0 0 0 0 0 0
          0 0 0 0 0 0
          0 0 0 0
        </DataArray>
        <DataArray type="Float64" Name="Stress" NumberOfComponents="6" format="ascii" RangeMin="0.0000313879951874617" RangeMax="103.8323319308364">
          -0.014907464633618982 -0.0001593088495731622 0 0.0029931098206465593 0 0
          -0.00030339552064271707 -0.00031345082571039465 0 0.0011172098209671177 0 0
          -0.016077547740913505 -0.006480679551382163 0 0.00948024173873355 0 0
          -0.14551593695120116 -0.2083889895842505 0 0.6773720313586327 0 0
          -0.014025285385606271 -0.000051431525268300416 0 -0.00019519332932244816 0 0
          -0.00020435549750266998 0.000016682584756428894 0 0.000015107353707765296 0 0
          -0.000044728572632982755 0.000005323548790113274 0 3.3916831140642896e-7 0 0
          -0.00004004075136927528 0.00002095239107147073 0 2.9552662601137707e-7 0 0
          0.00019862315928622417 0.000025424805903737468 0 0.000016404624490282983 0 0
          0.00019289761462431616 0.000014554804737718703 0 -0.000024718449920587985 0 0
          -14.613814020466936 -45.34666023855341 0 -24.236573169740392 0 0
          0.5682703943477794 -0.9373052884675792 0 -31.218196128223354 0 0
          -2.7028133236949845 -0.33173480737998584 0 0.5377416323674117 0 0
          -3.9476709803216936 -0.054703083393361496 0 1.1080073484510846 0 0
          -7.212417165984357 -1.8020769754207797 0 2.228152168946744 0 0
          -4.673199617230278 -2.4731318730886556 0 3.2344456292139974 0 0
          -0.8480149567394495 -2.0344317152987283 0 3.5824121680407446 0 0
          -7.66985870477423 -6.813443861119164 0 6.599182166733461 0 0
          -5.649049418361431 -0.0774129064098521 0 3.2969007440860327 0 0
          -2.3218716121531178 -8.16822062647139 0 5.90567378036574 0 0
          -0.0014335998578035008 0.0001458855801461729 0 -0.000797324191972769 0 0
          -13.305718021907875 2.816344915775044 0 1.7319530259575704 0 0
          0.07862632461521635 3.0988979107499293 0 0.20186615680061476 0 0
          -0.19558233191678912 -0.0026322052141203728 0 -0.00986862771492435 0 0
          -0.9046657284910562 -0.1787422662709792 0 0.21160541277236639 0 0
          -0.04595571595657949 -0.009662564160586744 0 -0.009853723153995781 0 0
          -0.3116455073433261 0.2698802102584307 0 -0.07242679649834101 0 0
          -0.14561114593306118 0.057254598364834416 0 -0.0438927158409515 0 0
          -0.00005468934299320745 0.00004875740486718615 0 -0.00002536636156343392 0 0
          -0.4006484499351438 -0.43506715334345225 0 -0.5004882613265006 0 0
          -0.055883219724924105 0.021704803628465566 0 -0.060913667711908384 0 0
          0.00000942267991631032 0.0000070260666227892846 0 -0.000054367744540892375 0 0
          -0.0383959519246557 0.05909664494876249 0 -0.0928172414232789 0 0
          0.00002956488323210747 0.00006584118912563979 0 -0.000016053346332948923 0 0
          0.15952252718231505 -0.020046403532714537 0 -0.05431058602897893 0 0
          0.00020007670305275765 0.00001976625130624365 0 0.000018163461761399166 0 0
          0.1212729412788211 0.0007844753266128893 0 -0.04446989115906015 0 0
          0.0000730041550127249 0.000007244619733228484 0 -0.00003843557148954654 0 0
          -1.5790686200910975 2.593606775099508 0 -16.58091454470076 0 0
          -0.15069654498703233 13.309382397347646 0 -5.673000699355457 0 0
          -12.208186966987679 -27.99044136172015 0 -10.707269146533163 0 0
          0.14474187728891535 0.32585305418666877 0 -1.8994772930484536 0 0
          -2.9071580784183517 0.6106168787427544 0 -1.4508969889040495 0 0
          -0.42058854765019116 -0.420588547650132 0 -0.4205885476502367 0 0
          38.85868778774388 -91.13043983331006 0 -31.08695021061873 0 0
          -0.00003056577273254577 -0.000005130647298186931 0 -0.0000049614753301903045 0 0
          <InformationKey name="L2_NORM_RANGE" location="vtkDataArray" length="2">
            <Value index="0">
              3.1387995187e-05
            </Value>
            <Value index="1">
              103.83233193
            </Value>
          </InformationKey>
        </DataArray>
        <DataArray type="Float64" Name="Strain" NumberOfComponents="6" format="ascii" RangeMin="1.3341548451398928e-13" RangeMax="6.106745395798844e-10">
          -1.0372398262020717e-11 3.0105262960454894e-12 0 5.432077543831229e-12 0 0
          -8.723344705399941e-13 -9.268007063232481e-13 0 1.2103106393810436e-11 0 0
          -1.0372398262020717e-11 -1.216369671132823e-12 0 1.8089518933491163e-11 0 0
          -1.0376749038146492e-12 -2.0595436030823322e-12 0 2.2018503877793452e-11 0 0
          -1.0376749038146492e-12 3.078359133859065e-13 0 -3.758944936359774e-14 0 0
          -8.723344705399941e-13 3.249551416967912e-13 0 1.6366299850079072e-13 0 0
          -1.9302348862506973e-13 7.809216908336708e-14 0 3.6743233735696456e-15 0 0
          -1.9302695287798538e-13 1.3735256867605547e-13 0 3.2015384484565848e-15 0 0
          7.958154896462622e-13 -1.4234225784220743e-13 0 1.7771676531139896e-13 0 0
          7.855465550125021e-13 -1.8047699853990055e-13 0 -2.6778320747303655e-13 0 0
          -4.20756645375381e-12 -1.7067715013505553e-10 0 -2.625628760055209e-10 0 0
          3.5394249203668878e-12 -4.615776694882971e-12 0 -3.381971247224197e-10 0 0
          -1.6726519016908887e-11 3.07834321300442e-12 0 8.98316852102964e-12 0 0
          -1.638025023043202e-11 4.7066592112631105e-12 0 1.2003412941553418e-11 0 0
          -2.779914197232551e-11 1.506867393227198e-12 0 2.413831516358972e-11 0 0
          -1.638025023043201e-11 -4.463216616331549e-12 0 3.50398276498183e-11 0 0
          -9.90356008957629e-13 -7.41678011782039e-12 0 3.880946515377474e-11 0 0
          -2.3440939776827002e-11 -1.8802026040362067e-11 0 7.14911401396125e-11 0 0
          -2.344093977682698e-11 6.738757996244071e-12 0 3.571642472759869e-11 0 0
          5.358107324512461e-13 -3.113191309510605e-11 0 6.397813262062883e-11 0 0
          -1.5990459955350905e-13 6.234038675137583e-14 0 -2.2437852210345927e-13 0 0
          -5.896092290266829e-11 2.8366918009780854e-11 0 1.8762824447873683e-11 0 0
          -3.546012702540677e-12 1.2813791722355684e-11 0 2.1868833653399934e-12 0 0
          -9.90356008957629e-13 2.849286933992697e-13 0 -1.3045142984012632e-13 0 0
          -3.546012702540677e-12 3.8607271781807395e-13 0 2.2923919717006363e-12 0 0
          -2.842511917576844e-13 2.7226610806333296e-14 0 -1.691347200889657e-13 0 0
          -1.6733555819229927e-12 1.548749003807905e-12 0 -8.026015223867312e-13 0 0
          -6.929665311396694e-13 4.2968044042863497e-13 0 -4.857993613785639e-13 0 0
          -2.888190185556804e-13 2.7151753235478496e-13 0 -2.748022502705342e-13 0 0
          -1.1342112095017604e-12 -1.3220830550290648e-12 0 -5.463753367156994e-12 0 0
          -2.6026459041965733e-13 1.604675573819757e-13 0 -6.606261414903427e-13 0 0
          3.0478583039473056e-14 1.749692769956746e-14 0 -5.889838991930009e-13 0 0
          -2.383803261787827e-13 2.999259819199103e-13 0 -1.0249825763353585e-12 0 0
          4.088552706006472e-14 2.373821839833647e-13 0 -1.7391125194028006e-13 0 0
          6.920173987248308e-13 -2.8386599939235203e-13 0 -5.903114646464785e-13 0 0
          8.089451152536854e-13 -1.6773649837326516e-13 0 1.9677083574849095e-13 0 0
          5.043344259440218e-13 -1.4832579338049082e-13 0 -4.817677557405646e-13 0 0
          2.951282045531514e-13 -6.106927821078741e-14 0 -4.163853578034209e-13 0 0
          -9.821461052587292e-12 1.2780530671361824e-11 0 -1.796265742342583e-10 0 0
          -1.726463026746386e-11 5.564413067018232e-11 0 -6.145750757635079e-11 0 0
          -1.5879393993631805e-11 -1.013666052984327e-10 0 -1.1599541575410927e-10 0 0
          1.9577483763714482e-13 1.1767937124999754e-12 0 -2.057767067469158e-11 0 0
          -1.2876429758504907e-11 6.178184592784415e-12 0 -1.5718050713127202e-11 0 0
          -1.3860083355454052e-12 -1.3860083355450438e-12 0 -5.1480309605974684e-12 0 0
          2.758242489072371e-10 -4.2828352570680503e-10 0 -3.367752939483696e-10 0 0
          -1.2094407726287375e-13 1.682951883990335e-14 0 -5.374931607706162e-14 0 0
          <InformationKey name="L2_NORM_RANGE" location="vtkDataArray" length="2">
            <Value index="0">
              1.3341548451e-13
            </Value>
            <Value index="1">
              6.1067453958e-10
            </Value>
          </InformationKey>
        </DataArray>
      </CellData>
      <Points>
        <DataArray type="Float32" Name="Points" NumberOfComponents="3" format="ascii" RangeMin="0" RangeMax="128.28654354956544">
          100 0 0 100 45.35898208618164 0
          89.30555725097656 23.870376586914062 0 75 0 0
          90 62.67949295043945 0 80 45.35898208618164 0
          70 28.038475036621094 0 57 13.358983993530273 0
          80 80 0 70 62.67949295043945 0
          60 45.35898208618164 0 50 0 0
          48.827545166015625 28.876956939697266 0 41.327545166015625 13.757295608520508 0
          60 80 0 50 62.67949295043945 0
          38.48822784423828 45.76527404785156 0 25 0 0
          24.63772964477539 27.38901710510254 0 40 80 0
          30 62.67949295043945 0 17.464101791381836 47.607696533203125 0
          20 80 0 0 0 0
          0 20 0 0 40 0
          0 60 0 0 80 0
          110 62.67949295043945 0 100 80 0
          120 45.35898208618164 0 110.71759033203125 23.771137237548828 0
          125 0 0
          <InformationKey name="L2_NORM_RANGE" location="vtkDataArray" length="2">
            <Value index="0">
              0
            </Value>
            <Value index="1">
              128.28654355
            </Value>
          </InformationKey>
        </DataArray>
      </Points>
      <Cells>
        <DataArray type="Int64" Name="connectivity" format="ascii" RangeMin="0" RangeMax="32">
          28 29 4 30 28 1
          1 28 4 4 5 1
          1 5 2 31 30 1
          31 1 2 31 2 0
          0 32 31 3 0 2
          25 24 18 18 24 17
          4 29 8 4 8 9
          9 8 14 4 9 5
          5 9 10 10 9 15
          15 9 14 10 15 16
          2 5 6 15 14 19
          16 15 20 6 5 10
          15 19 20 6 10 12
          20 19 22 12 10 16
          6 12 7 20 22 26
          12 16 18 7 12 13
          13 12 18 7 13 11
          11 13 17 7 11 3
          17 13 18 7 3 6
          25 18 21 21 18 16
          25 21 26 26 21 20
          20 21 16 27 26 22
          24 23 17 2 6 3
        </DataArray>
        <DataArray type="Int64" Name="offsets" format="ascii" RangeMin="3" RangeMax="138">
          3 6 9 12 15 18
          21 24 27 30 33 36
          39 42 45 48 51 54
          57 60 63 66 69 72
          75 78 81 84 87 90
          93 96 99 102 105 108
          111 114 117 120 123 126
          129 132 135 138
        </DataArray>
        <DataArray type="UInt8" Name="types" format="ascii" RangeMin="5" RangeMax="5">
          5 5 5 5 5 5
          5 5 5 5 5 5
          5 5 5 5 5 5
          5 5 5 5 5 5
          5 5 5 5 5 5
          5 5 5 5 5 5
          5 5 5 5 5 5
          5 5 5 5
        </DataArray>
      </Cells>
    </Piece>
  </UnstructuredGrid>
</VTKFile>
