<?xml version="1.0"?>
<VTKFile type="UnstructuredGrid" version="0.1" byte_order="LittleEndian" header_type="UInt32" compressor="vtkZLibDataCompressor">
  <UnstructuredGrid>
    <Piece NumberOfPoints="33" NumberOfCells="20">
      <PointData>
        <DataArray type="Float64" Name="sld_BC" NumberOfComponents="3" format="ascii" RangeMin="0" RangeMax="0">
          0 0 0 0 0 0
          0 0 0 0 0 0
          0 0 0 0 0 0
          0 0 0 0 0 0
          0 0 0 0 0 0
          0 0 0 0 0 0
          0 0 0 0 0 0
          0 0 0 0 0 0
          0 0 0 0 0 0
          0 0 0 0 0 0
          0 0 0 0 0 0
          0 0 0 0 0 0
          0 0 0 0 0 0
          0 0 0 0 0 0
          0 0 0 0 0 0
          0 0 0 0 0 0
          0 0 0
          <InformationKey name="L2_NORM_RANGE" location="vtkDataArray" length="2">
            <Value index="0">
              0
            </Value>
            <Value index="1">
              0
            </Value>
          </InformationKey>
        </DataArray>
        <DataArray type="Float64" Name="sld_FIXNO" NumberOfComponents="3" format="ascii" RangeMin="1.4142135623730951" RangeMax="1.4142135623730951">
          -1 -1 0 -1 -1 0
          -1 -1 0 -1 -1 0
          -1 -1 0 -1 -1 0
          -1 -1 0 -1 -1 0
          -1 -1 0 -1 -1 0
          -1 -1 0 -1 -1 0
          -1 -1 0 -1 -1 0
          -1 -1 0 -1 -1 0
          -1 -1 0 -1 -1 0
          -1 -1 0 -1 -1 0
          -1 -1 0 -1 -1 0
          -1 -1 0 -1 -1 0
          -1 -1 0 -1 -1 0
          1 1 0 -1 -1 0
          -1 -1 0 -1 -1 0
          1 1 0 -1 -1 0
          1 1 0
          <InformationKey name="L2_NORM_RANGE" location="vtkDataArray" length="2">
            <Value index="0">
              1.4142135624
            </Value>
            <Value index="1">
              1.4142135624
            </Value>
          </InformationKey>
        </DataArray>
        <DataArray type="Float64" Name="Disp" NumberOfComponents="3" format="ascii" RangeMin="0" RangeMax="0.005492628953184998">
          -0.005440145820533928 -0.0006015325106172977 0 -0.004785896632809004 -0.0006075764069912655 0
          -0.004117922061393343 -0.0006203008644166588 0 -0.00544601112700817 0.00005497069887554467 0
          -0.0034337008055002477 -0.0006307648171028691 0 -0.004795928928344705 0.000057316744023050436 0
          -0.0027405122480365896 -0.0006286585548918846 0 -0.004127258487358557 0.00005342419447634556 0
          -0.0054462954758500905 0.0007119258438215056 0 -0.0020574688566897237 -0.0006039235119945247 0
          -0.0034441254757073434 0.00005472863951931619 0 -0.004793522077930952 0.0007160307656464202 0
          -0.0027445011620982917 0.00004521393938017231 0 -0.0014142732957968308 -0.0005481913091852692 0
          -0.004127419572646426 0.0007234703218490286 0 -0.0020532052294144273 0.00004037899805452741 0
          -0.003444305785494787 0.0007259872281183387 0 -0.0008495661485360488 -0.0004563942417501441 0
          -0.001399934198850141 0.000032429795623765876 0 -0.002752008640056406 0.0007139071859049173 0
          -0.0004042809350265977 -0.00032933652896552525 0 -0.002069686859636613 0.0006776186435801885 0
          -0.0008331789938234112 0.000021948550659337092 0 -0.00012142682358693903 -0.00016975490117265306 0
          -0.0014270723876276064 0.0006087550883045523 0 -0.00038237931443437173 0.000016404011655605308 0
          0 0 0 -0.0008633087457483864 0.0005024729611015693 0
          -0.00008546378407047256 0.000006482510257542018 0 -0.0004181928767850319 0.0003600522004189454 0
          0 0 0 -0.0001361965764573943 0.0001851954338887948 0
          0 0 0
          <InformationKey name="L2_NORM_RANGE" location="vtkDataArray" length="2">
            <Value index="0">
              0
            </Value>
            <Value index="1">
              0.0054926289532
            </Value>
          </InformationKey>
        </DataArray>
        <DataArray type="Float64" Name="Sld_traction" NumberOfComponents="3" format="ascii" RangeMin="0" RangeMax="474.55402204578724">
          12.8926474919275 2.061373374892515 0 19.843610296681447 -1.809236178700233 0
          18.970074079321954 7.895799925427462 0 6.298621970345303 -1.461699025271179 0
          28.669717553598208 19.807433976565093 0 0 0 0
          50.0870735791498 32.271578057469334 0 0 0 0
          -1.6091294850725535 -2.181853333652123 0 82.08077911847867 43.08893394794755 0
          0 0 0 -13.046130386733696 5.412526734896405 0
          0 0 0 121.20535953903592 49.343704706372904 0
          -16.013486906900685 -4.649259359689351 0 0 0 0
          -7.375476294640899 -17.39603320790912 0 163.46159166686866 48.518405764515094 0
          0 0 0 13.065372191005034 -30.33613727480874 0
          202.7728059036882 38.33495425073871 0 44.43297318139617 -41.61896915104065 0
          0 0 0 230.66408156425723 41.81199435505627 0
          83.33581644840758 -48.23597497474015 0 0 0 0
          247.70640867262603 347.0503767961958 0 124.70413531364204 -47.67816519590231 0
          0 0 0 161.9358343417207 -36.5464727719515 0
          153.67263323357813 -37.13122010326219 0 200.16176984903993 -49.75625373694191 0
          259.84075189988675 -397.09482934424494 0
          <InformationKey name="L2_NORM_RANGE" location="vtkDataArray" length="2">
            <Value index="0">
              0
            </Value>
            <Value index="1">
              474.55402205
            </Value>
          </InformationKey>
        </DataArray>
        <DataArray type="Float64" Name="Fld_traction" NumberOfComponents="3" format="ascii" RangeMin="0" RangeMax="38.70377090095012">
          24.61449317713899 -0.4801047235945906 0 38.25113288042048 5.901924712976982 0
          37.552254484665646 3.4058834242338727 0 14.884001197189582 -3.793179503725135 0
          36.495690682942815 2.063882859420728 0 0 0 0
          35.99846502049956 1.2656164414959672 0 0 0 0
          12.174776656934617 -1.5595385831403035 0 35.545936923715495 0.7058444139692612 0
          0 0 0 9.606872174568474 -0.7922598622177343 0
          0 0 0 35.05204896699097 0.3459600639463702 0
          5.997704982388813 0.5884923738923084 0 0 0 0
          3.8883768987025022 0.8636222630113625 0 34.64284539489782 0.14508926126118107 0
          0 0 0 2.4737335854608666 0.9153440266507871 0
          34.4222395298938 0.03681167896293811 0 1.5715249271954348 0.8340555737086882 0
          0 0 0 34.25142858373675 -0.0007314128218165656 0
          0.8869655932334871 0.6753976881393464 0 0 0 0
          17.368113024096107 -16.82542162351334 0 0.46623014101402666 0.45382778972307214 0
          0 0 0 0.2928226280866882 0.24130571842284096 0
          0 0 0 0.3251155955098495 0.06154577744200127 0
          0.21216813018514624 0.2154450653576775 0
          <InformationKey name="L2_NORM_RANGE" location="vtkDataArray" length="2">
            <Value index="0">
              0
            </Value>
            <Value index="1">
              38.703770901
            </Value>
          </InformationKey>
        </DataArray>
        <DataArray type="Float64" Name="Velocity" NumberOfComponents="3" format="ascii" RangeMin="0" RangeMax="0.012812182108128858">
          -0.007523062675358676 -0.005510205509452208 0 -0.0021824267160873156 -0.005359419072554283 0
          0.002936090936191578 -0.004685628168706396 0 -0.007606812520035033 -0.0002923448411746633 0
          0.0072123606677894775 -0.0037421386268644335 0 -0.002239543506077517 -0.0002958611965590255 0
          0.010358807493346514 -0.0025629569749478533 0 0.0029446012222860626 -0.00021844756419259984 0
          -0.007772257976104431 0.004872212583616208 0 0.012260475135284634 -0.0010989804273924763 0
          0.007252917854154793 -0.00017611989308908725 0 -0.002475272241884527 0.004666463270629757 0
          0.010492501100901004 -0.00017785035569563745 0 0.0125652062402902 0.000614235816130509 0
          0.002572063866917166 0.0041915255556129365 0 0.012484776413250128 -0.00009519845604603091 0
          0.00681949839600569 0.0033252749656842943 0 0.010836847085421162 0.0021847664725479924 0
          0.01281216287530285 0.00002219974253619126 0 0.010014901221852779 0.0022183319683623387 0
          0.0073860746541130435 0.002907982127228077 0 0.011974390002117644 0.0009157252983033725 0
          0.01097278765598763 0.00013113553671465893 0 0.0034743506411025254 0.0022088228515792815 0
          0.012291297234250088 -0.0005791326314738988 0 0.007238887396821812 0.0001155034621605555 0
          0 0 0 0.0105092870090247 -0.0019780914048078734 0
          0.002894756536914211 7.066479151700321e-7 0 0.006915571798250076 -0.0026718922299085787 0
          0 0 0 0.0030512945020094214 -0.002052854479012489 0
          0 0 0
          <InformationKey name="L2_NORM_RANGE" location="vtkDataArray" length="2">
            <Value index="0">
              0
            </Value>
            <Value index="1">
              0.012812182108
            </Value>
          </InformationKey>
        </DataArray>
      </PointData>
      <CellData>
        <DataArray type="UInt8" Name="vtkGhostType" format="ascii" RangeMin="0" RangeMax="0">
          0 0 0 0 0 0
          0 0 0 0 0 0
          0 0 0 0 0 0
          0 0
        </DataArray>
        <DataArray type="Float64" Name="Gauss Stress" NumberOfComponents="6" format="ascii" RangeMin="13.979756016128029" RangeMax="466.0276156913632">
          -3.406674429210514 -8.07566977764447 0 10.890900111848918 0 0
          -28.797814968451 3.3647248647799115 0 8.825955161463778 0 0
          -27.521361160718037 21.70366474277717 0 -1.4505072827818155 0 0
          -6.457517697220894 -13.549872753268549 0 1.0197318821688253 0 0
          84.26709001143452 457.16461071643624 0 -32.8833519652578 0 0
          -91.56631851041513 -398.19517544029327 0 -23.60884385560659 0 0
          -8.136776508032794 -0.3821842315494286 0 -13.74169500767118 0 0
          -27.49854738904127 19.873212656208246 0 -15.539694549999023 0 0
          -16.30492611372876 -337.2163266083561 0 -45.0033497079934 0 0
          -22.702419765597305 394.76518077656596 0 -42.112023419567706 0 0
          -27.27364344712816 -5.422274785864012 0 -31.377207274593328 0 0
          -9.265493580924588 33.42460183278222 0 -29.90598556899195 0 0
          -31.40468542937415 -275.3808353810929 0 -55.60881585431868 0 0
          -7.2167196110780125 327.3875343482353 0 -55.24216517572652 0 0
          -9.605500328875115 88.4951936122637 0 -45.07330241951115 0 0
          -27.59529977514031 -53.163066173064436 0 -46.245573712757675 0 0
          -10.901532193240733 245.4932954437718 0 -60.468007885245065 0 0
          -27.30462713104324 -198.29619967768576 0 -61.02281753781279 0 0
          -28.240525471152907 -119.562494509042 0 -57.31008815566632 0 0
          -9.025272455522021 162.04674705860313 0 -56.569423574193124 0 0
          <InformationKey name="L2_NORM_RANGE" location="vtkDataArray" length="2">
            <Value index="0">
              13.979756016
            </Value>
            <Value index="1">
              466.02761569
            </Value>
          </InformationKey>
        </DataArray>
        <DataArray type="Float64" Name="Gauss Strain" NumberOfComponents="6" format="ascii" RangeMin="0.00005090534099635422" RangeMax="0.002109325060821315">
          2.471874134988769e-7 -0.00003010128235132183 0 0.00014158170145403586 0 0
          -0.00013759127159277285 0.00007146523732322804 0 0.0001147374170990291 0 0
          -0.00016754433952968252 0.00015241832884303627 0 -0.000018856594676163598 0 0
          -0.0000029594536534813948 -0.00004905976151779115 0 0.000013256514468194727 0 0
          -0.0005080557313450237 0.0019157781532374875 0 -0.0004274835755483515 0 0
          0.000359853842886183 -0.0016332337271580245 0 -0.0003069149701228856 0 0
          -0.00003627707386002783 0.00001412777593711405 0 -0.00017864203509972533 0 0
          -0.00016387115529974388 0.000144045284994378 0 -0.00020201602914998729 0 0
          0.0005833844230688285 -0.0015025396801462488 0 -0.000585043546203914 0 0
          -0.0008730881124477716 0.0018404512910762901 0 -0.0005474563044543802 0 0
          -0.00011352164185199831 0.000028512254446218667 0 -0.00040790369456971315 0 0
          -0.0001073359693671322 0.00017014965082196205 0 -0.0003887778123968953 0 0
          0.0003941013102894788 -0.001191743664396693 0 -0.0007229146061061427 0 0
          -0.0006712417662094638 0.0015036858845260724 0 -0.0007181481472844449 0 0
          -0.00021627065404029603 0.0004213838565771064 0 -0.0005859529314536449 0 0
          -0.000021890634939412786 -0.00018808111652591955 0 -0.0006011924582658497 0 0
          -0.0005283138975946004 0.001138252482045981 0 -0.0007860841025081858 0 0
          0.0002624415359252406 -0.000849003685627936 0 -0.0007932966279915662 0 0
          0.00010465247339888628 -0.000488940325347393 0 -0.0007450311460236621 0 0
          -0.00035705614643690136 0.0007549119804049122 0 -0.0007354025064645105 0 0
          <InformationKey name="L2_NORM_RANGE" location="vtkDataArray" length="2">
            <Value index="0">
              5.0905340996e-05
            </Value>
            <Value index="1">
              0.0021093250608
            </Value>
          </InformationKey>
        </DataArray>
        <DataArray type="Float64" Name="Btraction" NumberOfComponents="3" format="ascii" RangeMin="0.1511203429579328" RangeMax="19.09317421937161">
          6.7646944635310495 -1.3381795217163595 0 15.716406514389867 1.355454997345598 0
          18.950846841271527 2.3269520343027135 0 3.9011442892393218 -0.050941872081356476 0
          0.13432093142374893 0.06924771069991968 0 12.904885401958213 -4.206538259083789 0
          2.4715204702728286 0.36302865922591765 0 18.51198629190211 1.36744157091365 0
          17.168417028407635 0.009020066535280388 0 0.1544845558991344 0.07571287396621056 0
          18.123538925860593 0.8323748252291736 0 1.5905276210408419 0.44474157241553736 0
          17.266271231197905 0.045475235056029795 0 0.18976319227517868 0.17378337703647825 0
          1.0113146281640752 0.43734990008986874 0 17.886100486053763 0.492865213866307 0
          0.33829893356187846 0.2823063694656046 0 17.423723590472196 0.1227623313018878 0
          17.649496472676613 0.26295111947890776 0 0.6146226301072304 0.37736331546200863 0
          <InformationKey name="L2_NORM_RANGE" location="vtkDataArray" length="2">
            <Value index="0">
              0.15112034296
            </Value>
            <Value index="1">
              19.093174219
            </Value>
          </InformationKey>
        </DataArray>
      </CellData>
      <Points>
        <DataArray type="Float32" Name="Points" NumberOfComponents="3" format="ascii" RangeMin="1.4500000476837158" RangeMax="1.6286497021092299">
          1.4500000476837158 0.5 0 1.4500000476837158 0.44999998807907104 0
          1.4500000476837158 0.4000000059604645 0 1.5 0.5 0
          1.4500000476837158 0.3499999940395355 0 1.5002609491348267 0.45016080141067505 0
          1.4500000476837158 0.30000001192092896 0 1.5001590251922607 0.4000298082828522 0
          1.5499999523162842 0.5 0 1.4500000476837158 0.25 0
          1.5005459785461426 0.35020819306373596 0 1.5499999523162842 0.44999998807907104 0
          1.5002089738845825 0.30000561475753784 0 1.4500000476837158 0.20000000298023224 0
          1.5499999523162842 0.4000000059604645 0 1.5002909898757935 0.24981409311294556 0
          1.5499999523162842 0.3499999940395355 0 1.4500000476837158 0.15000000596046448 0
          1.5001939535140991 0.19956040382385254 0 1.5499999523162842 0.30000001192092896 0
          1.4500000476837158 0.10000000149011612 0 1.5499999523162842 0.25 0
          1.499879002571106 0.15004639327526093 0 1.4500000476837158 0.05000000074505806 0
          1.5499999523162842 0.20000000298023224 0 1.5001660585403442 0.10008130222558975 0
          1.4500000476837158 0 0 1.5499999523162842 0.15000000596046448 0
          1.5000410079956055 0.050020311027765274 0 1.5499999523162842 0.10000000149011612 0
          1.5 0 0 1.5499999523162842 0.05000000074505806 0
          1.5499999523162842 0 0
          <InformationKey name="L2_NORM_RANGE" location="vtkDataArray" length="2">
            <Value index="0">
              1.4500000477
            </Value>
            <Value index="1">
              1.6286497021
            </Value>
          </InformationKey>
        </DataArray>
      </Points>
      <Cells>
        <DataArray type="Int64" Name="connectivity" format="ascii" RangeMin="0" RangeMax="32">
          11 8 3 5 3 0
          1 5 1 2 7 5
          11 5 7 14 32 31
          28 30 26 30 28 23
          16 14 7 10 7 2
          4 10 20 23 28 25
          28 31 29 25 4 6
          12 10 16 10 12 19
          17 20 25 22 25 29
          27 22 21 19 12 15
          12 6 9 15 27 24
          18 22 17 22 18 13
          9 13 18 15 15 18
          24 21
        </DataArray>
        <DataArray type="Int64" Name="offsets" format="ascii" RangeMin="4" RangeMax="80">
          4 8 12 16 20 24
          28 32 36 40 44 48
          52 56 60 64 68 72
          76 80
        </DataArray>
        <DataArray type="UInt8" Name="types" format="ascii" RangeMin="9" RangeMax="9">
          9 9 9 9 9 9
          9 9 9 9 9 9
          9 9 9 9 9 9
          9 9
        </DataArray>
      </Cells>
    </Piece>
  </UnstructuredGrid>
</VTKFile>
