<?xml version="1.0"?>
<VTKFile type="UnstructuredGrid" version="0.1" byte_order="LittleEndian" header_type="UInt32" compressor="vtkZLibDataCompressor">
  <UnstructuredGrid>
    <Piece NumberOfPoints="33" NumberOfCells="20">
      <PointData>
        <DataArray type="Float64" Name="sld_BC" NumberOfComponents="3" format="ascii" RangeMin="0" RangeMax="0">
          0 0 0 0 0 0
          0 0 0 0 0 0
          0 0 0 0 0 0
          0 0 0 0 0 0
          0 0 0 0 0 0
          0 0 0 0 0 0
          0 0 0 0 0 0
          0 0 0 0 0 0
          0 0 0 0 0 0
          0 0 0 0 0 0
          0 0 0 0 0 0
          0 0 0 0 0 0
          0 0 0 0 0 0
          0 0 0 0 0 0
          0 0 0 0 0 0
          0 0 0 0 0 0
          0 0 0
          <InformationKey name="L2_NORM_RANGE" location="vtkDataArray" length="2">
            <Value index="0">
              0
            </Value>
            <Value index="1">
              0
            </Value>
          </InformationKey>
        </DataArray>
        <DataArray type="Float64" Name="sld_FIXNO" NumberOfComponents="3" format="ascii" RangeMin="1.4142135623730951" RangeMax="1.4142135623730951">
          -1 -1 0 -1 -1 0
          -1 -1 0 -1 -1 0
          -1 -1 0 -1 -1 0
          -1 -1 0 -1 -1 0
          -1 -1 0 -1 -1 0
          -1 -1 0 -1 -1 0
          -1 -1 0 -1 -1 0
          -1 -1 0 -1 -1 0
          -1 -1 0 -1 -1 0
          -1 -1 0 -1 -1 0
          -1 -1 0 -1 -1 0
          -1 -1 0 -1 -1 0
          -1 -1 0 -1 -1 0
          1 1 0 -1 -1 0
          -1 -1 0 -1 -1 0
          1 1 0 -1 -1 0
          1 1 0
          <InformationKey name="L2_NORM_RANGE" location="vtkDataArray" length="2">
            <Value index="0">
              1.4142135624
            </Value>
            <Value index="1">
              1.4142135624
            </Value>
          </InformationKey>
        </DataArray>
        <DataArray type="Float64" Name="Disp" NumberOfComponents="3" format="ascii" RangeMin="0" RangeMax="0.0008816700353664562">
          -0.0008409312244466153 -0.00025838378775465735 0 -0.000586847054816442 -0.0002575682014988021 0
          -0.0003251027964583753 -0.00024681834655198095 0 -0.000845766072234033 -0.000006460117955858069 0
          -0.00008070141336317381 -0.00021511719779036362 0 -0.0005922498206337789 -0.000005530413983888595 0
          0.00011694752446129673 -0.00016176280407789446 0 -0.00032635737799875024 -0.000006602899910972025 0
          -0.0008465417368445854 0.00024639224631315174 0 0.00024345065038078773 -0.000094829000543687 0
          -0.0000775987506141964 -0.00000558706119978057 0 -0.0005931027402574931 0.00024522551029971157 0
          0.00012494879095442465 -0.00000727595537146185 0 0.00028999989498030806 -0.00002727465211596382 0
          -0.0003320682583329931 0.00023338757306831082 0 0.0002535237216237571 -0.000007152269066718171 0
          -0.00008735481424109433 0.00020064223311452398 0 0.0002639080256468364 0.00002742294458167325 0
          0.0002986189142038855 -0.000006901587879562258 0 0.00011023053143368466 0.0001467575809798843 0
          0.00018520795464345186 0.00005678981201905744 0 0.00023709028840925435 0.00008014539605213328 0
          0.00026833015593378363 -0.000005839424939567954 0 0.0000901185991607832 0.000048849360706179063 0
          0.0002839276966145805 0.000013724971258551371 0 0.0001839074835806048 -0.000004506406798919036 0
          0 0 0 0.0002581564280632472 -0.00003882104462240779 0
          0.00007569640910120422 -0.0000027442840196806107 0 0.00017992332371134488 -0.00006524912163439847 0
          0 0 0 0.00008475223654260413 -0.00005323219372839107 0
          0 0 0
          <InformationKey name="L2_NORM_RANGE" location="vtkDataArray" length="2">
            <Value index="0">
              0
            </Value>
            <Value index="1">
              0.00088167003537
            </Value>
          </InformationKey>
        </DataArray>
        <DataArray type="Float64" Name="Sld_traction" NumberOfComponents="3" format="ascii" RangeMin="0" RangeMax="189.88423942526995">
          11.979827059392848 -4.72881190237338 0 34.99579664007795 13.617188216571673 0
          53.34742892739091 26.286376293472046 0 -2.71532639910455 -4.761515537648222 0
          77.65178306416027 26.41119405023428 0 0 0 0
          97.99325020004792 16.033862653794287 0 0 0 0
          -2.2290881162035494 0.9029140814277367 0 105.7560518596007 -0.5366422062607158 0
          0 0 0 2.957661420535018 -10.627563929192428 0
          0 0 0 97.79168238546355 -18.334789400282176 0
          19.060063951653053 -23.921814850876462 0 0 0 0
          42.6355202375664 -24.804656379920857 0 74.73354787917745 -35.89563206387354 0
          0 0 0 61.803343448714536 -14.983031684318407 0
          38.941987114705 -49.25856121022684 0 69.07477725660779 1.0128359279741408 0
          0 0 0 -12.363688655453936 -73.90717068507087 0
          60.946918659748945 18.45736823253204 0 0 0 0
          -109.00004253579282 -141.29728890928294 0 38.05281575734515 35.84080657235049 0
          0 0 0 1.9162497475230647 49.52998969120085 0
          -122.44316362751995 13.784499369143385 0 -46.051893906209656 70.94223665697993 0
          -116.1255296608227 150.23609999965598 0
          <InformationKey name="L2_NORM_RANGE" location="vtkDataArray" length="2">
            <Value index="0">
              0
            </Value>
            <Value index="1">
              189.88423943
            </Value>
          </InformationKey>
        </DataArray>
        <DataArray type="Float64" Name="Fld_traction" NumberOfComponents="3" format="ascii" RangeMin="0" RangeMax="38.7041797572171">
          24.61530376100683 -0.4828637524366593 0 38.25180030000759 5.900280034652004 0
          37.55238387711971 3.404585467168176 0 14.883997378565613 -3.7964801833333306 0
          36.495617319870874 2.0628820118663445 0 0 0 0
          35.9982501884194 1.2648804954775597 0 0 0 0
          12.173270737407126 -1.5602505259349824 0 35.545692661687525 0.7053483664691761 0
          0 0 0 9.604258395456101 -0.7913462086294467 0
          0 0 0 35.05187787154374 0.34566070690737544 0
          5.995556907697854 0.5892173080005586 0 0 0 0
          3.886666179785417 0.8641898936689265 0 34.6427985648889 0.1449320316113564 0
          0 0 0 2.4724515592554184 0.9157548335699697 0
          34.42228307509005 0.03675002519647735 0 1.5705948641331358 0.8342943703546132 0
          0 0 0 34.251573344920075 -0.0007420985605816002 0
          0.8864426028319974 0.6754775295463088 0 0 0 0
          17.368209780735924 -16.825518599940807 0 0.4660023225778064 0.45376887486631895 0
          0 0 0 0.2929574919832838 0.24119399218708515 0
          0 0 0 0.32545750935768863 0.061493920971166356 0
          0.21233921977963494 0.21561823953457765 0
          <InformationKey name="L2_NORM_RANGE" location="vtkDataArray" length="2">
            <Value index="0">
              0
            </Value>
            <Value index="1">
              38.704179757
            </Value>
          </InformationKey>
        </DataArray>
        <DataArray type="Float64" Name="Velocity" NumberOfComponents="3" format="ascii" RangeMin="0" RangeMax="0.10956581509772953">
          0.10798546275166764 0.01854205145980506 0 0.089947671568007 0.018399166936306156 0
          0.07188486224176296 0.017938107326615774 0 0.10781734090715384 0.000622051456087152 0
          0.05446576095624714 0.016644470200857436 0 0.0897587997159672 0.0004966712775208734 0
          0.038658776097979256 0.01454321688028909 0 0.0714659473956876 0.0005677062529454056 0
          0.10764798190399538 -0.01736970111989753 0 0.025535339452837355 0.011896886743386254 0
          0.053910666120029246 0.0003721293509915016 0 0.08952318807799553 -0.017288408128271295 0
          0.03791639961385086 0.00042112989873078805 0 0.015586099061539856 0.009142877755127288 0
          0.07134982342430987 -0.01673343973699106 0 0.02468870549412024 0.0004060770095045559 0
          0.05388939392261426 -0.015544049570468784 0 0.008492691749520546 0.006579403935155267 0
          0.014729978462125159 0.000455980829695825 0 0.03815005882345057 -0.013555723937130422 0
          0.003799131874829862 0.00419702045601474 0 0.025065136545158996 -0.010941141159844257 0
          0.007759611156329527 0.0005014984872769312 0 0.0012536246923772673 0.0019539852644066243 0
          0.015117954812737401 -0.008171237384752825 0 0.0030385088962597527 0.00036451488983514646 0
          0 0 0 0.007988703231063356 -0.005654408075775021 0
          0.0004836162468496686 0.00011427438309772437 0 0.0031300605113619043 -0.003465218944205153 0
          0 0 0 0.0006011876770459237 -0.0015361031944658337 0
          0 0 0
          <InformationKey name="L2_NORM_RANGE" location="vtkDataArray" length="2">
            <Value index="0">
              0
            </Value>
            <Value index="1">
              0.1095658151
            </Value>
          </InformationKey>
        </DataArray>
      </PointData>
      <CellData>
        <DataArray type="UInt8" Name="vtkGhostType" format="ascii" RangeMin="0" RangeMax="0">
          0 0 0 0 0 0
          0 0 0 0 0 0
          0 0 0 0 0 0
          0 0
        </DataArray>
        <DataArray type="Float64" Name="Gauss Stress" NumberOfComponents="6" format="ascii" RangeMin="5.455257416640769" RangeMax="168.49032771215101">
          -4.805774832034686 1.3623161559126364 0 -2.192819289621358 0 0
          -25.796365877045474 -12.008170740643386 0 -4.454916840153618 0 0
          -26.886293346030033 -33.87214300179658 0 -28.25328076206096 0 0
          -6.150664400476286 24.608861553741527 0 -25.680140568438283 0 0
          -40.073003756489214 -140.13638541330997 0 84.52773737521127 0 0
          14.31741739571906 107.49943223327006 0 87.85647469908271 0 0
          -6.480927947855925 70.86954072614903 0 -34.6120202576695 0 0
          -27.73107694389441 -80.07020381429382 0 -36.40095362405223 0 0
          -35.52293047917547 -1.3400713136767912 0 69.64202815820859 0 0
          -1.505514023551072 -30.60896552225313 0 70.5918354528912 0 0
          -28.972061209827388 -128.48790381570754 0 -29.29440374619435 0 0
          -6.070756757217884 116.68587077681244 0 -27.73379899857467 0 0
          -27.88972398232233 -80.03751429974972 0 52.875966397863635 0 0
          -8.907471438711081 50.75687227491969 0 53.00891936205508 0 0
          -6.199690192164425 143.72152436671865 0 -9.666192613439557 0 0
          -29.85908722426796 -159.55467098705657 0 -10.552345819666872 0 0
          -7.9652075135343186 110.18511910852061 0 33.77704003116204 0 0
          -28.832226124589624 -135.22104587574307 0 33.43495640645891 0 0
          -29.67548161079377 -161.71558798820863 0 12.041063575957649 0 0
          -6.555281508528239 142.14429874570004 0 12.604246569160747 0 0
          <InformationKey name="L2_NORM_RANGE" location="vtkDataArray" length="2">
            <Value index="0">
              5.4552574166
            </Value>
            <Value index="1">
              168.49032771
            </Value>
          </InformationKey>
        </DataArray>
        <DataArray type="Float64" Name="Gauss Strain" NumberOfComponents="6" format="ascii" RangeMin="0.00004069908007762767" RangeMax="0.0012401828320981654">
          -0.000024522791989787466 0.000015569799431870135 0 -0.00002850665076507765 0 0
          -0.00009395753179630229 -0.000004334263409688732 0 -0.00005791391892199701 0 0
          -0.000056281955870933335 -0.00010168997863341584 0 -0.0003672926499067924 0 0
          -0.00007597280305196309 0.0001239641156504527 0 -0.00033384182738969764 0 0
          0.00009093378446392854 -0.0005594781963054063 0 0.0010988605858777464 0 0
          -0.00014447964370435494 0.00046120345273972655 0 0.0011421341710880749 0 0
          -0.00016768382657873505 0.0003350942198022971 0 -0.00044995626334970337 0 0
          0.00002996049734315341 -0.00031024382731444273 0 -0.0004732123971126788 0 0
          -0.00015901619461857866 0.00006317238995716278 0 0.0009053463660567117 0 0
          0.000052837393961236215 -0.00013633504078032713 0 0.0009176938608875854 0 0
          0.00011872853393591511 -0.0005281244430023059 0 -0.0003808272487005265 0 0
          -0.00025515939126012556 0.0005427586877110714 0 -0.0003605393869814706 0 0
          0.00002917490876494537 -0.00030978572829833264 0 0.0006873875631722272 0 0
          -0.00013950489598222882 0.00024831333815637113 0 0.000689115951706716 0 0
          -0.00030846556288944947 0.0006660223317432902 0 -0.00012566050397471424 0 0
          0.00017527276155434115 -0.0006677485329037848 0 -0.0001371804956556693 0 0
          -0.0002511026764481963 0.0005168744465951607 0 0.0004391015204051064 0 0
          0.0001324944105908162 -0.0005590329177916811 0 0.0004346544332839657 0 0
          0.00018032195524789516 -0.0006779387362053013 0 0.00015653382648744943 0 0
          -0.0003070079134179186 0.0006595393582345652 0 0.00016385520539908971 0 0
          <InformationKey name="L2_NORM_RANGE" location="vtkDataArray" length="2">
            <Value index="0">
              4.0699080078e-05
            </Value>
            <Value index="1">
              0.0012401828321
            </Value>
          </InformationKey>
        </DataArray>
        <DataArray type="Float64" Name="Btraction" NumberOfComponents="3" format="ascii" RangeMin="0.1512482378762983" RangeMax="19.093282295035735">
          6.764317028993185 -1.339182677317078 0 15.716776015253604 1.3543540705538364 0
          18.951046044281824 2.3262163754550453 0 3.8999538257884887 -0.05053222515722211 0
          0.1344491822843309 0.069278040126436 0 12.904945781413996 -4.206565174625347 0
          2.470555771870818 0.3633518004173712 0 18.512000299247642 1.3668668697586301 0
          17.168464105002528 0.009001981658973937 0 0.1546037503352431 0.07567197828956287 0
          18.123466877072566 0.8319406268359759 0 1.5897794347602086 0.44498618180972405 0
          17.26627040999474 0.04542051420195843 0 0.18973995364027255 0.17374071676335098 0
          1.0107616058471385 0.43751230098114563 0 17.885985712526725 0.49255721548668396 0
          0.3381112313524509 0.2823116011031569 0 17.423669109108157 0.12264818462968295 0
          17.649392633307816 0.2627522683441378 0 0.6142593667412832 0.3774429749752305 0
          <InformationKey name="L2_NORM_RANGE" location="vtkDataArray" length="2">
            <Value index="0">
              0.15124823788
            </Value>
            <Value index="1">
              19.093282295
            </Value>
          </InformationKey>
        </DataArray>
      </CellData>
      <Points>
        <DataArray type="Float32" Name="Points" NumberOfComponents="3" format="ascii" RangeMin="1.4500000476837158" RangeMax="1.6286497021092299">
          1.4500000476837158 0.5 0 1.4500000476837158 0.44999998807907104 0
          1.4500000476837158 0.4000000059604645 0 1.5 0.5 0
          1.4500000476837158 0.3499999940395355 0 1.5002609491348267 0.45016080141067505 0
          1.4500000476837158 0.30000001192092896 0 1.5001590251922607 0.4000298082828522 0
          1.5499999523162842 0.5 0 1.4500000476837158 0.25 0
          1.5005459785461426 0.35020819306373596 0 1.5499999523162842 0.44999998807907104 0
          1.5002089738845825 0.30000561475753784 0 1.4500000476837158 0.20000000298023224 0
          1.5499999523162842 0.4000000059604645 0 1.5002909898757935 0.24981409311294556 0
          1.5499999523162842 0.3499999940395355 0 1.4500000476837158 0.15000000596046448 0
          1.5001939535140991 0.19956040382385254 0 1.5499999523162842 0.30000001192092896 0
          1.4500000476837158 0.10000000149011612 0 1.5499999523162842 0.25 0
          1.499879002571106 0.15004639327526093 0 1.4500000476837158 0.05000000074505806 0
          1.5499999523162842 0.20000000298023224 0 1.5001660585403442 0.10008130222558975 0
          1.4500000476837158 0 0 1.5499999523162842 0.15000000596046448 0
          1.5000410079956055 0.050020311027765274 0 1.5499999523162842 0.10000000149011612 0
          1.5 0 0 1.5499999523162842 0.05000000074505806 0
          1.5499999523162842 0 0
          <InformationKey name="L2_NORM_RANGE" location="vtkDataArray" length="2">
            <Value index="0">
              1.4500000477
            </Value>
            <Value index="1">
              1.6286497021
            </Value>
          </InformationKey>
        </DataArray>
      </Points>
      <Cells>
        <DataArray type="Int64" Name="connectivity" format="ascii" RangeMin="0" RangeMax="32">
          11 8 3 5 3 0
          1 5 1 2 7 5
          11 5 7 14 32 31
          28 30 26 30 28 23
          16 14 7 10 7 2
          4 10 20 23 28 25
          28 31 29 25 4 6
          12 10 16 10 12 19
          17 20 25 22 25 29
          27 22 21 19 12 15
          12 6 9 15 27 24
          18 22 17 22 18 13
          9 13 18 15 15 18
          24 21
        </DataArray>
        <DataArray type="Int64" Name="offsets" format="ascii" RangeMin="4" RangeMax="80">
          4 8 12 16 20 24
          28 32 36 40 44 48
          52 56 60 64 68 72
          76 80
        </DataArray>
        <DataArray type="UInt8" Name="types" format="ascii" RangeMin="9" RangeMax="9">
          9 9 9 9 9 9
          9 9 9 9 9 9
          9 9 9 9 9 9
          9 9
        </DataArray>
      </Cells>
    </Piece>
  </UnstructuredGrid>
</VTKFile>
