<?xml version="1.0"?>
<VTKFile type="UnstructuredGrid" version="0.1" byte_order="LittleEndian" header_type="UInt32" compressor="vtkZLibDataCompressor">
  <UnstructuredGrid>
    <Piece NumberOfPoints="33" NumberOfCells="46">
      <PointData>
        <DataArray type="Float64" Name="proc" format="ascii" RangeMin="0" RangeMax="1">
          1 1 1 1 1 1
          1 1 1 1 1 1
          1 1 1 1 1 1
          1 1 1 1 1 1
          1 1 1 1 0 0
          0 0 0
        </DataArray>
        <DataArray type="Float64" Name="Displacement" NumberOfComponents="3" format="ascii" RangeMin="0" RangeMax="7.006486059505589e-11">
          2.8179160407320005e-11 -6.414841860048573e-11 0 2.8134129382209348e-11 -6.128539311620241e-11 0
          2.733312706254047e-11 -6.171799466703033e-11 0 2.046957206754968e-11 -5.739924144965293e-11 0
          2.997423651288296e-11 -5.972483117246574e-11 0 2.9157873561659694e-11 -5.909712776101388e-11 0
          2.580580972447556e-11 -5.6926091838219076e-11 0 1.9862032187652943e-11 -5.3250242964410155e-11 0
          3.4979052741695814e-11 -5.654691181634217e-11 0 3.356734882475964e-11 -5.5164546362885906e-11 0
          3.0375568110626137e-11 -5.233743179134354e-11 0 1.2558625403447734e-11 -5.1564401424915955e-11 0
          2.5599975101584024e-11 -4.813957271769938e-11 0 1.8457900481202404e-11 -4.449361094931644e-11 0
          4.106569502310181e-11 -5.003868392782773e-11 0 3.6707907565430225e-11 -4.6493024766663846e-11 0
          3.214667968696099e-11 -4.0869582250427297e-11 0 6.198862028762328e-12 -3.059833222234189e-11 0
          2.5348946419447366e-11 -3.169504240378537e-11 0 4.551668558884566e-11 -4.029226888667809e-11 0
          3.8958255233444865e-11 -3.522829632843327e-11 0 3.367063538501325e-11 -2.7425551948843736e-11 0
          4.783437236610564e-11 -2.9220124140157965e-11 0 0 0 0
          1.9435464768136184e-11 -9.175630604176301e-12 0 3.02292596103292e-11 -1.4849059306538894e-11 0
          3.878641879898302e-11 -1.765183784064609e-11 0 4.827543059427375e-11 -1.809289606881421e-11 0
          2.6277835989488263e-11 -5.971546255386515e-11 0 2.8121142086272242e-11 -5.879998468836872e-11 0
          2.7112893081493692e-11 -5.906931800278274e-11 0 2.9006919206442878e-11 -6.169664638456577e-11 0
          3.590258375742565e-11 -5.7338560797962546e-11 0
          <InformationKey name="L2_NORM_RANGE" location="vtkDataArray" length="2">
            <Value index="0">
              0
            </Value>
            <Value index="1">
              7.0064860595e-11
            </Value>
          </InformationKey>
        </DataArray>
        <DataArray type="Float64" Name="TopologicalDerivative1" format="ascii" RangeMin="-0.066620893134996" RangeMax="0.5057958565670165">
          0.055122921578820275 -0.06007846800647101 -0.021999868957013655 0.06122998503236095 0.00018682195660572887 -0.054517176652080904
          -0.036788195328613715 0.056021539239763815 0.07776590860051617 -0.000029489381564995476 -0.03875963228255996 0.17395357854546978
          -0.01996547062851231 0.04670622171515061 0.04486595561624465 -0.009759593886456877 -0.01383729103820456 0.14676674726363226
          0.019949819847927264 -0.00984723221373314 -0.03499797002638902 -0.009813831686012409 -0.057013738975895026 0.5057958565670165
          0.1939232426516851 0.08253437596376985 -0.03914679451722501 -0.066620893134996 -0.005128109317244875 0.07828781331444189
          -0.05377200098490313 -0.02264972524075594 0.03185835702416849
        </DataArray>
      </PointData>
      <CellData>
        <DataArray type="UInt8" Name="vtkGhostType" format="ascii" RangeMin="0" RangeMax="1">
          1 1 1 0 0 1
          1 1 1 0 0 0
          1 0 0 0 0 0
          0 0 0 0 0 0
          0 0 0 0 0 0
          0 0 0 0 0 0
          0 0 0 0 0 0
          0 0 0 0
        </DataArray>
        <DataArray type="Float64" Name="Stress" NumberOfComponents="6" format="ascii" RangeMin="0.000012135881447193848" RangeMax="0.10800935139441772">
          -0.04190110735730919 -0.0005757153863718209 0 0.000016140228262162547 0 0
          -0.000011356903783632007 0.000002993106083186198 0 0.000003056414717354734 0 0
          -0.000046121384097934334 0.000010213238873444434 0 1.201448114807693e-10 0 0
          -0.000011489497836364338 0.0000030845393124740773 0 -0.0000030529587447169364 0 0
          -0.000007598736894928058 0.000015620644194920284 0 -0.00000430733124201936 0 0
          -0.000007607134809557692 0.000015492335996767234 0 0.000004156034709239229 0 0
          0.00002216444090674429 0.0000113510006601823 0 -4.9540687693611216e-8 0 0
          0.014565397197896814 0.016841027912398422 0 0.00004916738584847609 0 0
          0.07025937506745616 0.016927186891087603 0 0.013627004463818138 0 0
          0.07380570089597635 0.01789556757909581 0 -0.014275326584377027 0 0
          -0.001830494797506531 -0.06863029286760305 0 -0.026700622098919 0 0
          0.0038580864338472074 -0.011304727340512032 0 -0.018356363262859717 0 0
          -0.08106317495919554 0.004105843019624442 0 -0.0020004251246233933 0 0
          -0.04327837995312246 -0.0005441938731273709 0 -0.003949204639515742 0 0
          -0.07171316350694415 0.004421752340800434 0 -0.006295420264183612 0 0
          -0.00015720651704420821 0.000043203093939957334 0 -0.000028108603882629072 0 0
          -0.000013532598834229083 0.000003599119177894052 0 -0.00001094357903628559 0 0
          -0.000034522395934830636 0.000010547696510721185 0 -0.000014643545818198576 0 0
          -0.03103679142823884 -0.00032301538104737015 0 -0.006920373123914095 0 0
          -0.000017740920735793824 0.0000018706192162980965 0 -0.000019473294275243033 0 0
          0.000029614468683980323 0.000012717298367301806 0 -0.00001045823128214155 0 0
          -0.03546422737946194 0.0017560432757100556 0 -0.0066700625004761415 0 0
          -0.00002565013041853092 0.000004513471992149287 0 -0.000020029767884398246 0 0
          -0.000010535601303103758 0.000013589110948311808 0 -0.000010089368107242673 0 0
          -0.00002707847500543896 -2.476766308775036e-7 0 -0.000011042153337605295 0 0
          0.000007494940586677419 0.000008469292837237721 0 -0.000012758603735732804 0 0
          -0.000028406328848168943 -0.0000019802917368304718 0 -0.000009973867439886835 0 0
          -0.000011681354103712981 0.000021772770780426993 0 -0.00001753111713383048 0 0
          0.006912968689423276 0.014173036807360505 0 -0.0011372667884050913 0 0
          -0.000009394230402081611 -8.502614595719522e-7 0 -0.000008874172494428241 0 0
          -0.0006903995014164769 0.0007700456801992691 0 -0.008218006708067684 0 0
          0.02697406493583254 0.015956672924585965 0 -0.011500977922776618 0 0
          0.0023466436902490322 0.020928828211269866 0 -0.01601145449838311 0 0
          0.03994072680473089 0.051434443592438206 0 -0.005663957369848779 0 0
          0.06592853962113805 0.01624937074719393 0 -0.02302772135230738 0 0
          0.08314765036950311 0.024008541313748133 0 0.013615317404707334 0 0
          0.03816098745481409 -0.00072764080296258 0 -0.009875311115161146 0 0
          0.04340709234194803 0.007316186903832197 0 -0.001959941165581905 0 0
          0.0009828166797771817 -0.008599404570584692 0 -0.02550816274098041 0 0
          -0.004437818229086487 -0.0028742803208428275 0 -0.008877394653897329 0 0
          -0.005018697087296784 -0.021907478142620777 0 -0.012947316801077965 0 0
          -0.000009893757185591347 -0.000010849721267741187 0 -0.00001930268563085627 0 0
          -0.000009216586116105385 4.026909287500499e-7 0 -0.000023548807579605435 0 0
          -0.000007560998197167627 -0.000007560998197167702 0 -0.000007560998197167785 0 0
          0.02909539044075128 -0.10137895011789021 0 -0.023276312352633832 0 0
          0.014133165951381001 0.001094547427779458 0 -0.0017732214265216584 0 0
          <InformationKey name="L2_NORM_RANGE" location="vtkDataArray" length="2">
            <Value index="0">
              1.2135881447e-05
            </Value>
            <Value index="1">
              0.10800935139
            </Value>
          </InformationKey>
        </DataArray>
        <DataArray type="Float64" Name="Strain" NumberOfComponents="6" format="ascii" RangeMin="6.644402401701159e-14" RangeMax="5.792638502831772e-13">
          -1.8482002616973477e-13 5.312558785713288e-14 0 1.85866187407246e-16 0 0
          -5.1061815035782775e-14 2.6667405076149168e-14 0 3.3111159438009625e-14 0 0
          -1.8482002616973477e-13 9.036953442705074e-14 0 1.1737931714276046e-18 0 0
          -5.118720897251727e-14 2.6929306198725476e-14 0 -3.272758202319619e-14 0 0
          -5.118720897251727e-14 7.45844385974946e-14 0 -4.666275512187639e-14 0 0
          -5.1061815035782775e-14 7.406031849847729e-14 0 4.5023709350091643e-14 0 0
          7.816308628620667e-14 1.9590284950662557e-14 0 -5.36690783347455e-16 0 0
          7.816866168595385e-14 1.0247705551588882e-13 0 1.0504166349810287e-15 0 0
          3.089369340042258e-13 -1.9672561755345114e-14 0 1.6792722064056923e-13 0 0
          3.0838353359081316e-13 -1.9133508202705587e-14 0 -1.672474185333387e-13 0 0
          7.816080442822659e-14 -2.8367143511812955e-13 0 -2.892567394049559e-13 0 0
          3.020626931667007e-14 -5.19256386277758e-14 0 -1.9886060201431355e-13 0 0
          -3.428955327711785e-13 1.184366479474296e-13 0 -2.16712721834201e-14 0 0
          -1.7965561559383435e-13 5.1833176379719296e-14 0 -4.2785259068538105e-14 0 0
          -3.043321140702998e-13 1.0806544935023909e-13 0 -6.820040315929546e-14 0 0
          -1.7965561559383435e-13 9.540360962840678e-14 0 -7.715728570168925e-14 0 0
          -6.088472744832207e-14 3.1912078450678234e-14 0 -1.1855543955976055e-13 0 0
          -1.5702793703352911e-13 8.710173037987657e-14 0 -1.586384130304846e-13 0 0
          -1.570279370335289e-13 4.561653921383177e-14 0 -9.131898239911268e-14 0 0
          -7.625877708618022e-14 2.997039765431767e-14 0 -2.1096068798179952e-13 0 0
          1.0749699655745744e-13 1.5970657342115452e-14 0 -1.1329750555653346e-13 0 0
          -2.2254952828719255e-13 7.664604015923382e-14 0 -1.0723474635055308e-13 0 0
          -1.1251738340073208e-13 5.086879632378568e-14 0 -2.1698915208098097e-13 0 0
          -6.088472744832207e-14 6.979079724684556e-14 0 -1.0930148782846229e-13 0 0
          -1.1251738340073208e-13 3.28161077948091e-14 0 -1.1962332782405732e-13 0 0
          2.0642303064608765e-14 2.5920044421810385e-14 0 -1.3821820713710543e-13 0 0
          -1.1588433886299916e-13 2.7256695490084215e-14 0 -1.0805023059877405e-13 0 0
          -7.58882722410045e-14 1.0532157088142037e-13 0 -1.8992043561649683e-13 0 0
          2.4884251398429834e-14 1.1314230493109399e-13 0 -2.7650691828631532e-14 0 0
          -3.807979985087511e-14 8.200031921052214e-15 0 -9.613686868963927e-14 0 0
          -1.297835033064108e-14 1.3763636674723771e-14 0 -3.0095731269284893e-13 0 0
          1.0033262563603963e-13 3.5564024906474674e-14 0 -1.3522297224596567e-13 0 0
          -1.9266343031075123e-14 9.909922122347327e-14 0 -2.03980844565742e-13 0 0
          1.0212664052916425e-13 1.6438427312924562e-13 0 -6.135953817336176e-14 0 0
          2.5439053498741617e-13 -1.4704963079781176e-14 0 -2.494669813166633e-13 0 0
          3.164378665640778e-13 -3.898974154594986e-15 0 1.4749927188432947e-13 0 0
          1.5991366539876193e-13 -5.073307099752835e-14 0 -1.069825370809124e-13 0 0
          2.0169371897664572e-13 -2.7925017521467573e-14 0 -2.4939203302794796e-14 0 0
          1.5382797477234924e-14 -3.840368793013031e-14 0 -2.8636250138445244e-13 0 0
          -3.758602968979739e-14 -1.6219337588906898e-14 0 -2.4262994485498084e-13 0 0
          1.0671194814061811e-14 -1.401389267053599e-13 0 -2.312288155935905e-13 0 0
          -2.7661836688620788e-14 -3.2839975466932424e-14 0 -2.0911242766760955e-13 0 0
          -3.890580581137666e-14 1.3198611514923605e-14 0 -2.5511208211239223e-13 0 0
          -2.2052911408405487e-14 -2.2052911408405888e-14 0 -8.1910813802651e-14 0 0
          2.4795448115049304e-13 -4.58781530208815e-13 0 -2.521600504868665e-13 0 0
          1.250161057560474e-13 -2.8484723046105484e-14 0 -4.1751502757460145e-14 0 0
          <InformationKey name="L2_NORM_RANGE" location="vtkDataArray" length="2">
            <Value index="0">
              6.6444024017e-14
            </Value>
            <Value index="1">
              5.7926385028e-13
            </Value>
          </InformationKey>
        </DataArray>
      </CellData>
      <Points>
        <DataArray type="Float32" Name="Points" NumberOfComponents="3" format="ascii" RangeMin="0" RangeMax="128.28654354956544">
          100 0 0 100 45.35898208618164 0
          89.30555725097656 23.870376586914062 0 75 0 0
          90 62.67949295043945 0 80 45.35898208618164 0
          70 28.038475036621094 0 57 13.358983993530273 0
          80 80 0 70 62.67949295043945 0
          60 45.35898208618164 0 50 0 0
          48.827545166015625 28.876956939697266 0 41.327545166015625 13.757295608520508 0
          60 80 0 50 62.67949295043945 0
          38.48822784423828 45.76527404785156 0 25 0 0
          24.63772964477539 27.38901710510254 0 40 80 0
          30 62.67949295043945 0 17.464101791381836 47.607696533203125 0
          20 80 0 0 0 0
          0 20 0 0 40 0
          0 60 0 0 80 0
          110 62.67949295043945 0 100 80 0
          120 45.35898208618164 0 110.71759033203125 23.771137237548828 0
          125 0 0
          <InformationKey name="L2_NORM_RANGE" location="vtkDataArray" length="2">
            <Value index="0">
              0
            </Value>
            <Value index="1">
              128.28654355
            </Value>
          </InformationKey>
        </DataArray>
      </Points>
      <Cells>
        <DataArray type="Int64" Name="connectivity" format="ascii" RangeMin="0" RangeMax="32">
          28 29 4 30 28 1
          1 28 4 4 5 1
          1 5 2 31 30 1
          31 1 2 31 2 0
          0 32 31 3 0 2
          25 24 18 18 24 17
          4 29 8 4 8 9
          9 8 14 4 9 5
          5 9 10 10 9 15
          15 9 14 10 15 16
          2 5 6 15 14 19
          16 15 20 6 5 10
          15 19 20 6 10 12
          20 19 22 12 10 16
          6 12 7 20 22 26
          12 16 18 7 12 13
          13 12 18 7 13 11
          11 13 17 7 11 3
          17 13 18 7 3 6
          25 18 21 21 18 16
          25 21 26 26 21 20
          20 21 16 27 26 22
          24 23 17 2 6 3
        </DataArray>
        <DataArray type="Int64" Name="offsets" format="ascii" RangeMin="3" RangeMax="138">
          3 6 9 12 15 18
          21 24 27 30 33 36
          39 42 45 48 51 54
          57 60 63 66 69 72
          75 78 81 84 87 90
          93 96 99 102 105 108
          111 114 117 120 123 126
          129 132 135 138
        </DataArray>
        <DataArray type="UInt8" Name="types" format="ascii" RangeMin="5" RangeMax="5">
          5 5 5 5 5 5
          5 5 5 5 5 5
          5 5 5 5 5 5
          5 5 5 5 5 5
          5 5 5 5 5 5
          5 5 5 5 5 5
          5 5 5 5 5 5
          5 5 5 5
        </DataArray>
      </Cells>
    </Piece>
  </UnstructuredGrid>
</VTKFile>
