<?xml version="1.0"?>
<VTKFile type="UnstructuredGrid" version="0.1" byte_order="LittleEndian" header_type="UInt32" compressor="vtkZLibDataCompressor">
  <UnstructuredGrid>
    <Piece NumberOfPoints="13" NumberOfCells="11">
      <PointData>
        <DataArray type="Float64" Name="Disp" NumberOfComponents="3" format="ascii" RangeMin="0" RangeMax="0.07729823907055924">
          0 0 0 0 0 0
          -0.0006546181404115283 0.0020961125437261546 0 0.0012528849306747982 0.002007536567897062 0
          -0.0021355129647082772 0.008514544996129943 0 0.0024255832756978125 0.008384607139637826 0
          -0.003276237513095681 0.020605848991701363 0 0.00397058333149095 0.020733221025196338 0
          -0.0041550173142378905 0.03684572296897526 0 0.004696522230929665 0.03689811849674898 0
          -0.004771085544165117 0.05599200899713471 0 0.005345023260971124 0.05604910135344289 0
          -0.005166088267854326 0.07712541277308063 0
          <InformationKey name="L2_NORM_RANGE" location="vtkDataArray" length="2">
            <Value index="0">
              0
            </Value>
            <Value index="1">
              0.077298239071
            </Value>
          </InformationKey>
        </DataArray>
        <DataArray type="Float64" Name="Nodal Stress" NumberOfComponents="6" format="ascii" RangeMin="23465.389603555395" RangeMax="2390525.731526885">
          2079321.6575724394 364705.16242033563 0 1121617.0745607927 0 0
          135287.2674570633 -139028.95338049185 0 20968.071769671482 0 0
          -167610.83131596603 -41474.20603742834 0 -33490.530091007015 0 0
          66559.19049563563 15941.441546496339 0 -33941.87390587066 0 0
          18170.371203925984 49642.69271195957 0 48722.91102448351 0 0
          86983.54303245194 15657.849483572365 0 -20409.298444110234 0 0
          -78891.23071184476 -19771.752574090286 0 19468.268574542584 0 0
          39794.15894543943 -21059.420717208344 0 -8675.313589558866 0 0
          -51372.65412863999 -15642.888955431203 0 20022.615831670355 0 0
          30173.940546465463 -13738.68226347274 0 -8223.714027729584 0 0
          -40256.23137405736 -14755.622927463512 0 14180.534469905893 0 0
          18367.99789109086 -14014.940089642016 0 -4101.538370327946 0 0
          -28529.40838179758 -12140.000481878336 0 9975.521504659717 0 0
          <InformationKey name="L2_NORM_RANGE" location="vtkDataArray" length="2">
            <Value index="0">
              23465.389604
            </Value>
            <Value index="1">
              2390525.7315
            </Value>
          </InformationKey>
        </DataArray>
        <DataArray type="Float64" Name="Nodal Strain" NumberOfComponents="6" format="ascii" RangeMin="0.0019336430613560024" RangeMax="0.1874181830692157">
          0.13549779116873373 -0.04821111902613457 0 0.12017325798865634 0 0
          0.014628696010522088 -0.014762327650644537 0 0.0022465791181790836 0 0
          -0.010490980592660848 0.003023657830039619 0 -0.00358827108117932 0 0
          0.004184890694456248 -0.001238439550094392 0 -0.003636629347057571 0 0
          -0.0004750696537181282 0.0028969647935711846 0 0.0052203118954803765 0 0
          0.005653901306476126 -0.001988137288046686 0 -0.0021867105475832397 0 0
          -0.004928953887485688 0.0014052759129880067 0 0.002085885918700991 0 0
          0.0035945620931459726 -0.0029254642992805756 0 -0.0009294978845955925 0 0
          -0.0031108006893517423 0.000717388436349199 0 0.0021452802676789665 0 0
          0.0026459486913001317 -0.002058975181193248 0 -0.0008811122172567412 0 0
          -0.0023484585650232577 0.00038374948282608344 0 0.001519342978918488 0 0
          0.001812533423993705 -0.0016570670739419603 0 -0.0004394505396779942 0 0
          -0.001604243438632744 0.000151764550644318 0 0.0010688058754992555 0 0
          <InformationKey name="L2_NORM_RANGE" location="vtkDataArray" length="2">
            <Value index="0">
              0.0019336430614
            </Value>
            <Value index="1">
              0.18741818307
            </Value>
          </InformationKey>
        </DataArray>
        <DataArray type="Float64" Name="Sld_traction" NumberOfComponents="3" format="ascii" RangeMin="19045.23099959511" RangeMax="269823.70468731935">
          37683.93967962008 -111309.11197754063 0 -269700.8706643382 -8140.760043610619 0
          185420.4622563265 88779.16919216473 0 17327.702488676143 -7903.894628084636 0
          46857.1398673722 25186.831107410733 0 70832.18728855615 -17862.21317290471 0
          71495.24325684414 -16782.746965968334 0 42892.70257216071 16858.504421242713 0
          44858.38262164496 -16672.179894590266 0 31187.382695608387 14438.364221798774 0
          34993.164291084046 -14788.299026964292 0 21029.511221257304 13648.532126338187 0
          23056.969897489376 -12034.99554167721 0
          <InformationKey name="L2_NORM_RANGE" location="vtkDataArray" length="2">
            <Value index="0">
              19045.231
            </Value>
            <Value index="1">
              269823.70469
            </Value>
          </InformationKey>
        </DataArray>
        <DataArray type="Float64" Name="Velocity" NumberOfComponents="3" format="ascii" RangeMin="0" RangeMax="3.0531812255396376">
          0 0 0 0 0 0
          0.046020453633800584 -0.1390069571997956 0 -0.05933805342219933 -0.14764134199647083 0
          0.046683403855853456 -0.38427156855080113 0 -0.044844394362588025 -0.40121825568805836 0
          -0.052446373654991385 -0.43579413957003865 0 0.03606079660881223 -0.4491585522824231 0
          -0.19997137746014815 0.013890230370826373 0 0.1885341575612567 0.004588395214209839 0
          -0.3816773316907991 1.1377872007905587 0 0.3673266864295113 1.1378416544935277 0
          -0.560615473839496 3.0012707119617588 0
          <InformationKey name="L2_NORM_RANGE" location="vtkDataArray" length="2">
            <Value index="0">
              0
            </Value>
            <Value index="1">
              3.0531812255
            </Value>
          </InformationKey>
        </DataArray>
        <DataArray type="Float64" Name="Acceleration" NumberOfComponents="3" format="ascii" RangeMin="0" RangeMax="868.7250163740853">
          0 0 0 0 0 0
          19.008592727977998 -59.57075744737949 0 -31.750984520411976 -59.438432031415005 0
          45.12746106176519 -212.50339206211265 0 -50.02529724381293 -212.99345443174116 0
          48.98203567024848 -433.54185044674887 0 -64.02346922479774 -437.9589593798446 0
          40.40581990737428 -645.8458699046714 0 -51.99760088679113 -648.2734627442733 0
          21.741824911942786 -799.70488456764 0 -34.41683309184555 -800.6874955245876 0
          -0.2559373414746915 -868.7249786729008 0
          <InformationKey name="L2_NORM_RANGE" location="vtkDataArray" length="2">
            <Value index="0">
              0
            </Value>
            <Value index="1">
              868.72501637
            </Value>
          </InformationKey>
        </DataArray>
        <DataArray type="Float64" Name="Sigma" NumberOfComponents="6" format="ascii" RangeMin="67148.12499906214" RangeMax="5839263.909173632">
          5069698.099532882 1100921.9577188361 0 2680137.127757261 0 0
          -496701.439962001 -462973.0934867971 0 -440691.01450675813 0 0
          -1155881.0637589695 -110523.10721450062 0 -433114.9427645924 0 0
          612529.639346891 161146.7154707407 0 116601.38995632836 0 0
          81309.89001726767 126886.95070884477 0 164845.4168390687 0 0
          127346.24392864507 12632.418848578676 0 -129680.76025061248 0 0
          -248384.7516807388 -57343.716365834225 0 54876.11461255069 0 0
          138785.99159465657 -50692.648648313116 0 -22871.472685215198 0 0
          -131650.1913354034 -5654.795617281806 0 44621.58425179347 0 0
          89629.14538183554 -23101.006098105485 0 -36189.564441491035 0 0
          -105505.82803033403 -19344.472129641123 0 35787.844110145204 0 0
          58223.49106269853 -27181.93677157312 0 -19494.565722470983 0 0
          -72785.46482403716 -13470.535958764678 0 22186.025054130016 0 0
          <InformationKey name="L2_NORM_RANGE" location="vtkDataArray" length="2">
            <Value index="0">
              67148.124999
            </Value>
            <Value index="1">
              5839263.9092
            </Value>
          </InformationKey>
        </DataArray>
        <DataArray type="Float64" Name="Press" format="ascii" RangeMin="-45212.35864183754" RangeMax="29089.658991138094">
          -45212.35864183754 -37106.87343681 -41995.474334547216 -23730.910799150337 -39847.208436663015 -14792.302842825444
          12824.31547061929 29089.658991138094 -4003.8248698501757 10521.822193596088 2465.2756058423697 12471.476715993094
          1916.1483793059247
        </DataArray>
        <DataArray type="Float64" Name="Dev strain" NumberOfComponents="6" format="ascii" RangeMin="0.002071865114851926" RangeMax="0.18813398885410682">
          0.13701142567815366 -0.046697484516714655 0 0.12017325798865634 0 0
          0.01597406079559942 -0.013416962865567206 0 0.0022465791181790836 0 0
          -0.009125778266596246 0.004388860156104216 0 -0.00358827108117932 0 0
          0.0052502776189114805 -0.00017305262563916052 0 -0.003636629347057571 0 0
          0.0005526114080909727 0.003924645855380285 0 0.0052203118954803765 0 0
          0.006062951469562593 -0.0015790871249602208 0 -0.0021867105475832397 0 0
          -0.005112553803598272 0.0012216759968754233 0 0.002085885918700991 0 0
          0.0030353107404699677 -0.00348471565195658 0 -0.0009294978845955925 0 0
          -0.0033205911781220674 0.0005075979475788747 0 0.0021452802676789665 0 0
          0.0023435231843337858 -0.002361400688159594 0 -0.0008811122172567412 0 0
          -0.00252313289527233 0.0002090751525770109 0 0.001519342978918488 0 0
          0.0015080383400606127 -0.0019615621578750525 0 -0.0004394505396779942 0 0
          -0.0017748030316128744 -0.000018795042335812172 0 0.0010688058754992555 0 0
          <InformationKey name="L2_NORM_RANGE" location="vtkDataArray" length="2">
            <Value index="0">
              0.0020718651149
            </Value>
            <Value index="1">
              0.18813398885
            </Value>
          </InformationKey>
        </DataArray>
        <DataArray type="Float64" Name="J2 Stresses" format="ascii" RangeMin="2159425822.2679024" RangeMax="15252717744593.129">
          15252717744593.129 279080345443.2789 721035333803.9517 203979382527.657 18149301100.61606 12392596819.144156
          33244490325.8162 11046424110.644337 9179646241.345749 4610941235.927666 6073036621.6834545 2159425822.2679024
          2862644541.2593827
        </DataArray>
      </PointData>
      <CellData>
        <DataArray type="UInt8" Name="vtkGhostType" format="ascii" RangeMin="0" RangeMax="0">
          0 0 0 0 0 0
          0 0 0 0 0
        </DataArray>
        <DataArray type="Float64" Name="Gauss Stress" NumberOfComponents="6" format="ascii" RangeMin="27777.52613306993" RangeMax="1259094.406213066">
          -380962.0409815289 -171727.58126702148 0 -252401.52243834062 0 0
          1097600.2964662383 134370.35020144787 0 602110.39016197 0 0
          247605.11707138823 74098.55431650844 0 50588.68218159482 0 0
          -189205.04265505722 23978.988464908096 0 -50556.04532306508 0 0
          14956.385153831616 -22760.75818221224 0 -32558.706107758997 0 0
          -27181.27118123175 13453.485794240009 0 30013.59040033564 0 0
          44124.20065199093 -14613.59801627213 0 -4813.150958304257 0 0
          -67779.60060985947 -25260.33701317398 0 25542.075393042986 0 0
          22601.79430987721 -14722.946827962725 0 -6632.095351272273 0 0
          -46181.20035143788 -13039.00030514671 0 14739.954640149215 0 0
          -34404.96703017711 -14381.348052945843 0 12826.434480601416 0 0
          <InformationKey name="L2_NORM_RANGE" location="vtkDataArray" length="2">
            <Value index="0">
              27777.526133
            </Value>
            <Value index="1">
              1259094.4062
            </Value>
          </InformationKey>
        </DataArray>
        <DataArray type="Float64" Name="Gauss Strain" NumberOfComponents="6" format="ascii" RangeMin="0.0023891130060671793" RangeMax="0.10225057891664191">
          -0.021078446453429874 0.0013395313731244963 0 -0.027043020261250782 0 0
          0.07360108009753676 -0.02960212843083366 0 0.06451182751735393 0 0
          0.015039702850938148 -0.0035502860156561193 0 0.005420215948028017 0 0
          -0.014371038349107947 0.008470107842316905 0 -0.005416719141756974 0 0
          0.001881197446066981 -0.002159925054223432 0 -0.0034884327972598927 0 0
          -0.0024220010055965554 0.0019317229560611353 0 0.0032157418286073896 0 0
          0.003673642832866214 -0.0026196927387334 0 -0.000515694745532599 0 0
          -0.003939245150233749 0.0006163902351254105 0 0.002736650934968891 0 0
          0.002140233408847041 -0.0018588459987786661 0 -0.0007105816447791722 0 0
          -0.00283297858563318 0.0007179714193265873 0 0.001579280854301702 0 0
          -0.001943878071693156 0.00020150967586733595 0 0.0013742608372072944 0 0
          <InformationKey name="L2_NORM_RANGE" location="vtkDataArray" length="2">
            <Value index="0">
              0.0023891130061
            </Value>
            <Value index="1">
              0.10225057892
            </Value>
          </InformationKey>
        </DataArray>
      </CellData>
      <Points>
        <DataArray type="Float32" Name="Points" NumberOfComponents="3" format="ascii" RangeMin="0" RangeMax="0.6020797527609908">
          0 0.05000000074505806 0 0 0 0
          0.10000000149011612 0.05000000074505806 0 0.10000000149011612 0 0
          0.20000000298023224 0.05000000074505806 0 0.20000000298023224 0 0
          0.30000001192092896 0.05000000074505806 0 0.30000001192092896 0 0
          0.4000000059604645 0.05000000074505806 0 0.4000000059604645 0 0
          0.5 0.05000000074505806 0 0.5 0 0
          0.6000000238418579 0.05000000074505806 0
          <InformationKey name="L2_NORM_RANGE" location="vtkDataArray" length="2">
            <Value index="0">
              0
            </Value>
            <Value index="1">
              0.60207975276
            </Value>
          </InformationKey>
        </DataArray>
      </Points>
      <Cells>
        <DataArray type="Int64" Name="connectivity" format="ascii" RangeMin="0" RangeMax="12">
          3 2 1 2 0 1
          5 4 3 4 2 3
          7 6 5 6 4 5
          9 8 7 8 6 7
          11 10 9 10 8 9
          12 10 11
        </DataArray>
        <DataArray type="Int64" Name="offsets" format="ascii" RangeMin="3" RangeMax="33">
          3 6 9 12 15 18
          21 24 27 30 33
        </DataArray>
        <DataArray type="UInt8" Name="types" format="ascii" RangeMin="5" RangeMax="5">
          5 5 5 5 5 5
          5 5 5 5 5
        </DataArray>
      </Cells>
    </Piece>
  </UnstructuredGrid>
</VTKFile>
