<?xml version="1.0"?>
<VTKFile type="UnstructuredGrid" version="0.1" byte_order="LittleEndian" header_type="UInt32" compressor="vtkZLibDataCompressor">
  <UnstructuredGrid>
    <Piece NumberOfPoints="13" NumberOfCells="11">
      <PointData>
        <DataArray type="Float64" Name="Disp" NumberOfComponents="3" format="ascii" RangeMin="0.012373027047857959" RangeMax="0.06924543821326437">
          0.0020942814996558804 0.019595521640079997 0 -0.00220314384641308 0.02821482874522401 0
          0.0023751912357837584 0.028235078456466847 0 -0.0024065398193310146 0.03782974664399028 0
          0.0025742084649194455 0.037850371310478866 0 -0.002521004655938623 0.048073578406880244 0
          0.0026894367912174725 0.04809024037173624 0 -0.0025640258677932675 0.058616656827534266 0
          0.0027251313408143494 0.05863148111006939 0 -0.0025560938640990095 0.0691923669897381 0
          0.002716273274086697 0.06919214242128578 0 -0.0019157669929256787 0.019576575980254002 0
          0.0017231446600575776 0.012252451624370516 0
          <InformationKey name="L2_NORM_RANGE" location="vtkDataArray" length="2">
            <Value index="0">
              0.012373027048
            </Value>
            <Value index="1">
              0.069245438213
            </Value>
          </InformationKey>
        </DataArray>
        <DataArray type="Float64" Name="Nodal Stress" NumberOfComponents="6" format="ascii" RangeMin="1365.0139230828506" RangeMax="20841.533950269953">
          12614.252621238593 -4402.6321288532845 0 -3701.395000124237 0 0
          -16276.610604947327 -4795.270962614084 0 5917.783483148263 0 0
          8765.430360496277 -4815.74737600783 0 -2496.4091760191322 0 0
          -12722.732009318477 -5088.2058052389775 0 4717.20598557944 0 0
          5066.270439053521 -4940.757629389575 0 -1215.5384292096173 0 0
          -9013.389929882787 -4664.237971461902 0 3292.724547311816 0 0
          2086.6627348584348 -4311.929513034259 0 -209.5281412830262 0 0
          -5618.108623076496 -3840.872099269083 0 1783.6763907162508 0 0
          404.9051679891302 -3047.012747888708 0 316.13957215771626 0 0
          -2947.3867678566617 -2008.8377349633527 0 627.5311641007379 0 0
          686.2351173502516 -1137.8339799288754 0 312.53513089656997 0 0
          -19263.61998365367 -4091.8925342111256 0 6821.942393050626 0 0
          16698.766993119214 -2948.4116481913507 0 -5208.420640849779 0 0
          <InformationKey name="L2_NORM_RANGE" location="vtkDataArray" length="2">
            <Value index="0">
              1365.0139231
            </Value>
            <Value index="1">
              20841.53395
            </Value>
          </InformationKey>
        </DataArray>
        <DataArray type="Float64" Name="Nodal Strain" NumberOfComponents="6" format="ascii" RangeMin="0.00014264985390040713" RangeMax="0.0016271521363793123">
          0.0010582549061189455 -0.0007649827456766129 0 -0.0003965780357275968 0 0
          -0.0009913553659743064 0.00023878816713282711 0 0.0006340482303373139 0 0
          0.0007980931463214424 -0.0006570330397325693 0 -0.00026747241171633566 0 0
          -0.000727044936192785 0.00009094001424430428 0 0.0005054149270263685 0 0
          0.0005383320895534506 -0.0005338494892083097 0 -0.000130236260272459 0 0
          -0.0004772336388679884 -0.000011253071894322107 0 0.0003527919157834089 0 0
          0.0003030448208125403 -0.0003825186343188198 0 -0.000022449443708895653 0 0
          -0.00026411946953156814 -0.00007370127055220261 0 0.00019110818471959831 0 0
          0.00013774368156667746 -0.000232104666563091 0 0.00003387209701689818 0 0
          -0.00013878342145535612 -0.000038224596502501594 0 0.0000672354818679362 0 0
          0.00008965372195104923 -0.00010578225275742865 0 0.00003348590688177535 0 0
          -0.0012298338368962936 0.00039570838982969336 0 0.0007309223992554241 0 0
          0.0012980694869439205 -0.0008069853674822112 0 -0.0005580450686624764 0 0
          <InformationKey name="L2_NORM_RANGE" location="vtkDataArray" length="2">
            <Value index="0">
              0.0001426498539
            </Value>
            <Value index="1">
              0.0016271521364
            </Value>
          </InformationKey>
        </DataArray>
        <DataArray type="Float64" Name="Sld_traction" NumberOfComponents="3" format="ascii" RangeMin="983.0325511302931" RangeMax="18734.31277221094">
          14007.295732182964 4105.707391543478 0 14916.425498635106 -4953.821157970435 0
          10274.570922093022 4670.9853929125575 0 11249.129716012912 -5156.49008488908 0
          6481.5294313757295 4860.516289810511 0 7259.660857780574 -4668.899277312742 0
          2990.015705520834 4296.5529570215085 0 3479.5565421826823 -3688.035338281762 0
          531.8339797937855 3117.2735957020677 0 -123.83180056804277 -1294.339788601215 0
          -383.54687686799275 905.1214226978285 0 18236.61522317464 -4289.561778189114 0
          17008.555763160413 2957.3794647321165 0
          <InformationKey name="L2_NORM_RANGE" location="vtkDataArray" length="2">
            <Value index="0">
              983.03255113
            </Value>
            <Value index="1">
              18734.312772
            </Value>
          </InformationKey>
        </DataArray>
        <DataArray type="Float64" Name="Velocity" NumberOfComponents="3" format="ascii" RangeMin="6.263392097372687" RangeMax="13.44761881279767">
          0.5394824884925615 8.349231726772977 0 -0.31722275606992467 10.064435087895092 0
          0.4267153385665615 10.066379239747096 0 -0.20658446030494637 11.324995441985234 0
          0.31750743930215264 11.318535124647347 0 -0.12983660741432113 12.194414373880058 0
          0.23889615384700336 12.18613085682727 0 -0.09561166887263628 12.839432044151307 0
          0.20870571416673922 12.82912233815214 0 -0.10041086491576356 13.44593369750898 0
          0.2127117810352126 13.445936391063235 0 -0.4284492659366086 8.339550773164229 0
          0.6073154523926292 6.233879089837704 0
          <InformationKey name="L2_NORM_RANGE" location="vtkDataArray" length="2">
            <Value index="0">
              6.2633920974
            </Value>
            <Value index="1">
              13.447618813
            </Value>
          </InformationKey>
        </DataArray>
        <DataArray type="Float64" Name="Acceleration" NumberOfComponents="3" format="ascii" RangeMin="99.28072727950581" RangeMax="879.3251181611222">
          -13.290482641341157 196.7288055670001 0 37.85134137351133 93.90973286333912 0
          -33.41085334086017 93.48998710120321 0 55.47981151115778 -86.05242999481743 0
          -50.818979967112 -87.34437574770709 0 66.99207258796082 -325.9492392712855 0
          -62.60680273520916 -327.32804490408125 0 71.90647610246833 -598.6382552980031 0
          -66.91301023757137 -600.1820250206656 0 71.15715889623198 -876.4412827833294 0
          -66.23337100959088 -876.437692045798 0 17.76129532771199 196.3351484223158 0
          4.9733309099783725 219.99761729308148 0
          <InformationKey name="L2_NORM_RANGE" location="vtkDataArray" length="2">
            <Value index="0">
              99.28072728
            </Value>
            <Value index="1">
              879.32511816
            </Value>
          </InformationKey>
        </DataArray>
        <DataArray type="Float64" Name="Sigma" NumberOfComponents="6" format="ascii" RangeMin="1395.9394145694296" RangeMax="55810.636954055364">
          38199.11981958196 -9579.720801745345 0 -13736.496763019468 0 0
          -43200.577557440316 -4614.999507414935 0 14865.73416294239 0 0
          27667.546550927702 -9060.713977234718 0 -10371.812996938665 0 0
          -32785.52015758931 -5853.597885375705 0 11351.336544160542 0 0
          17030.068715081856 -8830.660977143572 0 -6423.676781783987 0 0
          -22289.38655090363 -5674.203344480948 0 7223.697956492929 0 0
          8197.490837677251 -7088.4182593974865 0 -2822.656464179763 0 0
          -12818.046658664032 -4957.967089762772 0 3311.836776551183 0 0
          3072.314613737257 -5085.133636949081 0 -225.7915946219636 0 0
          -6936.0520350280285 -2498.1596736471797 0 406.29419039843583 0 0
          715.9957635807749 -1072.3644863247337 0 534.8189639049036 0 0
          -52431.166398930975 -4086.2789643184815 0 18684.279795880546 0 0
          48365.91325054644 -6296.330463705593 0 -18725.97434408124 0 0
          <InformationKey name="L2_NORM_RANGE" location="vtkDataArray" length="2">
            <Value index="0">
              1395.9394146
            </Value>
            <Value index="1">
              55810.636954
            </Value>
          </InformationKey>
        </DataArray>
        <DataArray type="Float64" Name="Press" format="ascii" RangeMin="-748.0671844792083" RangeMax="5199.693209986166">
          5199.693209986166 -269.297350517472 4414.876125153108 502.2045180804111 3768.1276197538486 1025.1331622600496
          2821.291802174927 892.2455220652022 1436.855081099998 1281.9040969677865 1228.9635927312215 -748.0671844792083
          3828.034333563049
        </DataArray>
        <DataArray type="Float64" Name="Dev strain" NumberOfComponents="6" format="ascii" RangeMin="0.00016159383927603736" RangeMax="0.0016057310707405833">
          0.000946926511331327 -0.0008763111404642313 0 -0.0003965780357275968 0 0
          -0.0010430443299647078 0.00018709920314242552 0 0.0006340482303373139 0 0
          0.0006911797775244646 -0.0007639464085295472 0 -0.00026747241171633566 0 0
          -0.0007869707409845677 0.000031014209452521596 0 0.0005054149270263685 0 0
          0.00044041658655781947 -0.0006317649922039408 0 -0.000130236260272459 0 0
          -0.0005389124717774034 -0.00007293190480373718 0 0.0003527919157834089 0 0
          0.00022576062175732036 -0.00045980283337403974 0 -0.000022449443708895653 0 0
          -0.00031226472000230894 -0.00012184652102294338 0 0.00019110818471959831 0 0
          0.00008708985680604612 -0.00028275849132372225 0 0.00003387209701689818 0 0
          -0.00018397331281637207 -0.00008341448786351751 0 0.0000672354818679362 0 0
          0.000043433307990957894 -0.00015200266671752 0 0.00003348590688177535 0 0
          -0.0012596819348855628 0.0003658602918404244 0 0.0007309223992554241 0 0
          0.0012127304278274128 -0.0008923244265987188 0 -0.0005580450686624764 0 0
          <InformationKey name="L2_NORM_RANGE" location="vtkDataArray" length="2">
            <Value index="0">
              0.00016159383928
            </Value>
            <Value index="1">
              0.0016057310707
            </Value>
          </InformationKey>
        </DataArray>
        <DataArray type="Float64" Name="J2 Stresses" format="ascii" RangeMin="902815.5935361421" RangeMax="1470138020.7359977">
          822644738.6451969 999041573.925746 450688461.1733704 586790680.4383836 194317812.71603572 277552121.2467212
          60714112.10567505 97183944.61205868 17661596.056757733 27216078.536114596 902815.5935361421 1470138020.7359977
          1277118199.7175827
        </DataArray>
      </PointData>
      <CellData>
        <DataArray type="UInt8" Name="vtkGhostType" format="ascii" RangeMin="0" RangeMax="1">
          1 1 0 0 0 0
          0 0 0 0 0
        </DataArray>
        <DataArray type="Float64" Name="Gauss Stress" NumberOfComponents="6" format="ascii" RangeMin="1609.5653976990313" RangeMax="19513.362780646523">
          14137.84234342248 -3894.223290233138 0 -4592.730437073389 0 0
          -17750.09848726662 -4699.556866163092 0 6604.505731934491 0 0
          10670.453599230384 -4636.7207672577315 0 -3080.858532338581 0 0
          6865.767790469209 -5019.921525588876 0 -1814.7177448540374 0 0
          -14556.922623795292 -4960.509359103104 0 5281.752570054757 0 0
          3517.5751953481004 -4659.576665611061 0 -674.2117631569408 0 0
          -10916.457564438926 -5020.998968968639 0 4050.4525729564944 0 0
          1200.7170660302017 -3993.708860256404 0 87.79623924981865 0 0
          -7390.423961796747 -4327.306069047008 0 2570.959422954783 0 0
          266.66037102966993 -1569.311675373996 0 238.440519893792 0 0
          -4356.926459940607 -2976.7519000753487 0 1164.113124109218 0 0
          <InformationKey name="L2_NORM_RANGE" location="vtkDataArray" length="2">
            <Value index="0">
              1609.5653977
            </Value>
            <Value index="1">
              19513.362781
            </Value>
          </InformationKey>
        </DataArray>
        <DataArray type="Float64" Name="Gauss Strain" NumberOfComponents="6" format="ascii" RangeMin="0.00014519825135629778" RangeMax="0.001474919437888163">
          0.0011489252848956462 -0.0007830817472817412 0 -0.0004920782611150058 0 0
          -0.00110002286101322 0.000298249455533587 0 0.0007076256141358385 0 0
          0.0009277724273470895 -0.0007122819690623519 0 -0.0003300919856077052 0 0
          0.0006696948966616891 -0.0006037718157731057 0 -0.0001944340440915041 0 0
          -0.000862619138874553 0.0001655679966281816 0 0.0005659020610772953 0 0
          0.0004176688234395451 -0.0004584545902346508 0 -0.000072236974623958 0 0
          -0.000600425577139615 0.000031230700946487306 0 0.0004339770613881958 0 0
          0.00022839796401131452 -0.0003281476709479647 0 0.000009406739919623413 0 0
          -0.00037334078051951724 -0.00004514957772490269 0 0.0002754599381737267 0 0
          0.00007509401490833342 -0.00012161727577777366 0 0.000025547198560049145 0 0
          -0.00020489646499306658 -0.00005702061929321756 0 0.0001247264061545591 0 0
          <InformationKey name="L2_NORM_RANGE" location="vtkDataArray" length="2">
            <Value index="0">
              0.00014519825136
            </Value>
            <Value index="1">
              0.0014749194379
            </Value>
          </InformationKey>
        </DataArray>
      </CellData>
      <Points>
        <DataArray type="Float32" Name="Points" NumberOfComponents="3" format="ascii" RangeMin="0.4000000059604645" RangeMax="1.0012492197622458">
          0.5 0 0 0.6000000238418579 0.05000000074505806 0
          0.6000000238418579 0 0 0.699999988079071 0.05000000074505806 0
          0.699999988079071 0 0 0.800000011920929 0.05000000074505806 0
          0.800000011920929 0 0 0.8999999761581421 0.05000000074505806 0
          0.8999999761581421 0 0 1 0.05000000074505806 0
          1 0 0 0.5 0.05000000074505806 0
          0.4000000059604645 0 0
          <InformationKey name="L2_NORM_RANGE" location="vtkDataArray" length="2">
            <Value index="0">
              0.40000000596
            </Value>
            <Value index="1">
              1.0012492198
            </Value>
          </InformationKey>
        </DataArray>
      </Points>
      <Cells>
        <DataArray type="Int64" Name="connectivity" format="ascii" RangeMin="0" RangeMax="12">
          0 11 12 1 11 0
          2 1 0 4 3 2
          3 1 2 6 5 4
          5 3 4 8 7 6
          7 5 6 10 9 8
          9 7 8
        </DataArray>
        <DataArray type="Int64" Name="offsets" format="ascii" RangeMin="3" RangeMax="33">
          3 6 9 12 15 18
          21 24 27 30 33
        </DataArray>
        <DataArray type="UInt8" Name="types" format="ascii" RangeMin="5" RangeMax="5">
          5 5 5 5 5 5
          5 5 5 5 5
        </DataArray>
      </Cells>
    </Piece>
  </UnstructuredGrid>
</VTKFile>
