<?xml version="1.0"?>
<VTKFile type="UnstructuredGrid" version="0.1" byte_order="LittleEndian" header_type="UInt32" compressor="vtkZLibDataCompressor">
  <UnstructuredGrid>
    <Piece NumberOfPoints="13" NumberOfCells="11">
      <PointData>
        <DataArray type="Float64" Name="Disp" NumberOfComponents="3" format="ascii" RangeMin="0.046041031996107096" RangeMax="0.22557355298291018">
          0.007019984384304599 0.07059499107280211 0 -0.007013779624214718 0.0987377968922372 0
          0.007685973483216281 0.09880081993070755 0 -0.007452710115921619 0.12915891582014757 0
          0.008113906751213998 0.12921051545431303 0 -0.00767800925935701 0.16086354572714653 0
          0.00833858254248509 0.16090063839148616 0 -0.0077546343858964535 0.19312140363502284 0
          0.008399405208233757 0.193150006546377 0 -0.007738258619410776 0.2254185442220559 0
          0.00837907470066648 0.22541787620438278 0 -0.006326131289007756 0.07052431798439288 0
          0.006018967225500894 0.045645905192086 0
          <InformationKey name="L2_NORM_RANGE" location="vtkDataArray" length="2">
            <Value index="0">
              0.046041031996
            </Value>
            <Value index="1">
              0.22557355298
            </Value>
          </InformationKey>
        </DataArray>
        <DataArray type="Float64" Name="Nodal Stress" NumberOfComponents="6" format="ascii" RangeMin="2608.9308629916436" RangeMax="63209.3987220556">
          31006.84174561465 -17037.185303144728 0 -8052.081726656687 0 0
          -43981.056644406075 -16011.549883795085 0 15664.968939541854 0 0
          19939.902901316393 -14766.011496610112 0 -4889.8245159001535 0 0
          -31083.146798764523 -13888.939532819788 0 11187.925692108547 0 0
          10748.312742181733 -12639.49695057483 0 -2013.6527592682849 0 0
          -20177.979554907863 -10852.084272230424 0 7048.492686247151 0 0
          4311.0033459209435 -9456.334165054479 0 -107.6517737107025 0 0
          -11527.583439933445 -7808.989447189856 0 3499.991652007888 0 0
          935.5357941938807 -5959.9536872474655 0 712.5006806919498 0 0
          -5672.233758803119 -3764.948897763054 0 1163.1849211321942 0 0
          1470.3707088537085 -2064.016169031903 0 619.9737739535707 0 0
          -57343.41585653586 -17242.201992869886 0 20245.1775775188 0 0
          45832.93635764603 -14951.670006009854 0 -13334.215695761737 0 0
          <InformationKey name="L2_NORM_RANGE" location="vtkDataArray" length="2">
            <Value index="0">
              2608.930863
            </Value>
            <Value index="1">
              63209.398722
            </Value>
          </InformationKey>
        </DataArray>
        <DataArray type="Float64" Name="Nodal Strain" NumberOfComponents="6" format="ascii" RangeMin="0.00027629339279954554" RangeMax="0.004884311587000182">
          0.0028232453140847867 -0.0023243290125680035 0 -0.0008627230421417879 0 0
          -0.00256966297875061 0.00042706988845771064 0 0.0016783895292366271 0 0
          0.001951636332115818 -0.0017668544962334506 0 -0.0005239097695607308 0 0
          -0.0017241912165967595 0.00011804527618303355 0 0.001198706324154487 0 0
          0.0012191472298192251 -0.0012866895229761213 0 -0.00021574850992160202 0 0
          -0.0010537098156280466 -0.0000545067496268926 0 0.000755195644955052 0 0
          0.0006456550306034417 -0.0008294168455724964 0 -0.000011534118611860968 0 0
          -0.0005445063368813229 -0.00014608555194450956 0 0.00037499910557227373 0 0
          0.0002796794741298295 -0.0004591229703103148 0 0.00007633935864556605 0 0
          -0.000270697093565828 -0.00006634514416867825 0 0.00012462695583559226 0 0
          0.0001787413423835472 -0.00019994296596133982 0 0.00006642576149502544 0 0
          -0.0034801653471500664 0.0008163932810998601 0 0.0021691261690198714 0 0
          0.00380776938290364 -0.002704867013202348 0 -0.0014286659674030428 0 0
          <InformationKey name="L2_NORM_RANGE" location="vtkDataArray" length="2">
            <Value index="0">
              0.0002762933928
            </Value>
            <Value index="1">
              0.004884311587
            </Value>
          </InformationKey>
        </DataArray>
        <DataArray type="Float64" Name="Sld_traction" NumberOfComponents="3" format="ascii" RangeMin="1829.139043959798" RangeMax="54626.698622352415">
          34967.813642086076 16359.926066224069 0 37778.16369294849 -16127.313466858184 0
          23019.250335813605 14746.053938811918 0 25750.537249491263 -13857.712070285086 0
          13224.15132696299 12675.155706937903 0 15135.744924103503 -10722.779394540981 0
          5512.580702965956 9602.695817836335 0 6672.233443955711 -7462.440650783205 0
          779.8395381979838 6187.803891476116 0 -326.9126730337898 -2473.6315917905617 0
          -766.8337541389595 1660.6371173893813 0 51740.56660420661 -17521.12924023388 0
          47076.062642557445 15530.349680057307 0
          <InformationKey name="L2_NORM_RANGE" location="vtkDataArray" length="2">
            <Value index="0">
              1829.139044
            </Value>
            <Value index="1">
              54626.698622
            </Value>
          </InformationKey>
        </DataArray>
        <DataArray type="Float64" Name="Velocity" NumberOfComponents="3" format="ascii" RangeMin="0.7156574249133946" RangeMax="2.8501142341370027">
          0.038142814185497365 2.8498589918373796 0 0.14869481318011513 2.625724862965029 0
          -0.0962410290716047 2.6235968443399855 0 0.26767910376688286 1.884207568216631 0
          -0.21338118393720773 1.8757010812446921 0 0.3454492328567218 0.7381287327946779 0
          -0.2926777117037149 0.7289686828624014 0 0.37868973319331367 -0.6289835003177728 0
          -0.32159571180296087 -0.6393291390071454 0 0.37368944404165827 -2.0306780234790835 0
          -0.3170194877185821 -2.0306350009445424 0 0.014334005318893617 2.845933066986561 0
          0.15471223918710209 2.5476395390610023 0
          <InformationKey name="L2_NORM_RANGE" location="vtkDataArray" length="2">
            <Value index="0">
              0.71565742491
            </Value>
            <Value index="1">
              2.8501142341
            </Value>
          </InformationKey>
        </DataArray>
        <DataArray type="Float64" Name="Acceleration" NumberOfComponents="3" format="ascii" RangeMin="246.0369730694886" RangeMax="1526.4730444641223">
          -45.29185213292112 -400.64259473277343 0 49.36385969530602 -590.5234284577891 0
          -52.63045885160409 -590.9873672861431 0 54.85671887108492 -806.7516765101464 0
          -58.01304986413561 -807.2794629991695 0 58.035459563884615 -1040.2691976858478 0
          -61.22212833555932 -1040.714195375127 0 59.26206287767491 -1282.240561208484 0
          -62.251305381689235 -1282.6543810690346 0 59.04494119562696 -1525.2181227621331 0
          -62.01688608670884 -1525.2127265780582 0 41.88633006733107 -400.26132262744795 0
          -36.131568601826984 -243.3694760391445 0
          <InformationKey name="L2_NORM_RANGE" location="vtkDataArray" length="2">
            <Value index="0">
              246.03697307
            </Value>
            <Value index="1">
              1526.4730445
            </Value>
          </InformationKey>
        </DataArray>
        <DataArray type="Float64" Name="Sigma" NumberOfComponents="6" format="ascii" RangeMin="2593.2418430067796" RangeMax="163013.0498265982">
          96053.27528654177 -34355.40983700087 0 -33373.53983236563 0 0
          -114310.92310938516 -16869.421697890804 0 37004.8500792462 0 0
          64286.19749035273 -26760.355017552232 0 -22975.987688474946 0 0
          -78652.794485169 -16524.07197818354 0 25689.941521268636 0 0
          36542.99347989584 -22380.426961209465 0 -12838.011428616197 0 0
          -49361.60904981817 -13305.012413868008 0 14738.60733262683 0 0
          16760.62281162605 -15676.65663278719 0 -5016.874558838226 0 0
          -26214.98441773579 -10051.143577255853 0 6170.098692845051 0 0
          6085.2994840468955 -10016.528492933583 0 -169.97455382662977 0 0
          -13274.34108740406 -4612.640010523342 0 614.3985597272301 0 0
          1471.639513317939 -1877.0707924034034 0 1017.7355449568414 0 0
          -152737.5512703827 -20970.725856107234 0 52959.64031943754 0 0
          134605.97487544717 -26840.340112044076 0 -53336.73483457895 0 0
          <InformationKey name="L2_NORM_RANGE" location="vtkDataArray" length="2">
            <Value index="0">
              2593.241843
            </Value>
            <Value index="1">
              163013.04983
            </Value>
          </InformationKey>
        </DataArray>
        <DataArray type="Float64" Name="Press" format="ascii" RangeMin="1052.6275021613753" RangeMax="16780.174210725225">
          16780.174210725225 1219.4220579161406 12298.231381606573 2278.2880908789384 9327.83349839625 2791.8751813505523
          6298.21987835827 2012.8000273843704 2966.6940664444714 2504.5075378274923 2328.0219039320787 1052.6275021613753
          13443.849855747903
        </DataArray>
        <DataArray type="Float64" Name="Dev strain" NumberOfComponents="6" format="ascii" RangeMin="0.0003106838174459965" RangeMax="0.004829657630678912">
          0.002433461904495915 -0.0027141124221568757 0 -0.0008627230421417879 0 0
          -0.002774437559480374 0.0002222953077279462 0 0.0016783895292366271 0 0
          0.0016335029502814401 -0.0020849878780678293 0 -0.0005239097695607308 0 0
          -0.00190553989381267 -0.00006330340103287715 0 0.001198706324154487 0 0
          0.0009670526500727922 -0.0015387841027225538 0 -0.00021574850992160202 0 0
          -0.0012093480476514861 -0.0002101449816503321 0 0.000755195644955052 0 0
          0.0004679967054473101 -0.0010070751707286281 0 -0.000011534118611860968 0 0
          -0.0006513605356107566 -0.0002529397506739434 0 0.00037499910557227373 0 0
          0.00017414072022691008 -0.0005646617242132342 0 0.00007633935864556605 0 0
          -0.0003612874516708073 -0.00015693550227365756 0 0.00012462695583559226 0 0
          0.00008831950834661748 -0.0002903647999982695 0 0.00006642576149502544 0 0
          -0.0036603786622221267 0.0006361799660278006 0 0.0021691261690198714 0 0
          0.0034529014745761674 -0.0030597349215298205 0 -0.0014286659674030428 0 0
          <InformationKey name="L2_NORM_RANGE" location="vtkDataArray" length="2">
            <Value index="0">
              0.00031068381745
            </Value>
            <Value index="1">
              0.0048296576307
            </Value>
          </InformationKey>
        </DataArray>
        <DataArray type="Float64" Name="J2 Stresses" format="ascii" RangeMin="3103505.21829345" RangeMax="12585446331.193445">
          5481711229.40586 7018121997.617389 2556389896.7822723 3394646791.3747606 959340576.0791909 1361102538.186477
          269630277.6927346 403642977.086233 68688079.26738301 98836660.98326093 3103505.21829345 12585446331.193445
          10130787985.453403
        </DataArray>
      </PointData>
      <CellData>
        <DataArray type="UInt8" Name="vtkGhostType" format="ascii" RangeMin="0" RangeMax="1">
          1 1 0 0 0 0
          0 0 0 0 0
        </DataArray>
        <DataArray type="Float64" Name="Gauss Stress" NumberOfComponents="6" format="ascii" RangeMin="3023.6845605575913" RangeMax="56875.51449740183">
          36399.45015341359 -16963.274745505892 0 -11250.211449169023 0 0
          -50647.65844080779 -17714.444540065386 0 18863.65018877271 0 0
          25442.125772585772 -15895.78630073199 0 -6448.225813864796 0 0
          15360.249818653781 -13920.166995354492 0 -3374.685865274172 0 0
          -37627.192857933274 -14785.969054408306 0 13239.601304013298 0 0
          7453.311933269597 -10981.389149919865 0 -1038.7595516091974 0 0
          -25691.137761488528 -12603.838194211756 0 9196.845808426424 0 0
          2636.2172833747554 -8155.538243596504 0 327.74986006006475 0 0
          -15904.35852294491 -9309.972512272621 0 5297.277155544552 0 0
          693.940472721606 -2902.338595885428 0 487.38651695248063 0 0
          -8640.00812981221 -5732.103483018815 0 2204.840899581883 0 0
          <InformationKey name="L2_NORM_RANGE" location="vtkDataArray" length="2">
            <Value index="0">
              3023.6845606
            </Value>
            <Value index="1">
              56875.514497
            </Value>
          </InformationKey>
        </DataArray>
        <DataArray type="Float64" Name="Gauss Strain" NumberOfComponents="6" format="ascii" RangeMin="0.0002829687861703179" RangeMax="0.004247162860785584">
          0.0032057919661547534 -0.002511642844443763 0 -0.0012053797981252522 0 0
          -0.0029850311550553652 0.0005435274771670362 0 0.002021105377368504 0 0
          0.0023850013516394115 -0.0020440606562160627 0 -0.0006908813371997994 0 0
          0.0015943095225950735 -0.0015428779931915275 0 -0.00036157348556508967 0 0
          -0.002159586309337795 0.0002876876696113091 0 0.001418528711144282 0 0
          0.0009245718934449668 -0.001050574651182476 0 -0.00011129566624384278 0 0
          -0.0013849441903130467 0.00001726647760946472 0 0.0009853763366171168 0 0
          0.0004795704575123577 -0.000676689063234563 0 0.00003511605643500697 0 0
          -0.0008035265904863285 -0.00009698523220001194 0 0.0005675654095226306 0 0
          0.00015322212647602283 -0.00023209348801758796 0 0.000052219983959194345 0 0
          -0.0004124254563073431 -0.00010086424415090792 0 0.00023623295352663036 0 0
          <InformationKey name="L2_NORM_RANGE" location="vtkDataArray" length="2">
            <Value index="0">
              0.00028296878617
            </Value>
            <Value index="1">
              0.0042471628608
            </Value>
          </InformationKey>
        </DataArray>
      </CellData>
      <Points>
        <DataArray type="Float32" Name="Points" NumberOfComponents="3" format="ascii" RangeMin="0.4000000059604645" RangeMax="1.0012492197622458">
          0.5 0 0 0.6000000238418579 0.05000000074505806 0
          0.6000000238418579 0 0 0.699999988079071 0.05000000074505806 0
          0.699999988079071 0 0 0.800000011920929 0.05000000074505806 0
          0.800000011920929 0 0 0.8999999761581421 0.05000000074505806 0
          0.8999999761581421 0 0 1 0.05000000074505806 0
          1 0 0 0.5 0.05000000074505806 0
          0.4000000059604645 0 0
          <InformationKey name="L2_NORM_RANGE" location="vtkDataArray" length="2">
            <Value index="0">
              0.40000000596
            </Value>
            <Value index="1">
              1.0012492198
            </Value>
          </InformationKey>
        </DataArray>
      </Points>
      <Cells>
        <DataArray type="Int64" Name="connectivity" format="ascii" RangeMin="0" RangeMax="12">
          0 11 12 1 11 0
          2 1 0 4 3 2
          3 1 2 6 5 4
          5 3 4 8 7 6
          7 5 6 10 9 8
          9 7 8
        </DataArray>
        <DataArray type="Int64" Name="offsets" format="ascii" RangeMin="3" RangeMax="33">
          3 6 9 12 15 18
          21 24 27 30 33
        </DataArray>
        <DataArray type="UInt8" Name="types" format="ascii" RangeMin="5" RangeMax="5">
          5 5 5 5 5 5
          5 5 5 5 5
        </DataArray>
      </Cells>
    </Piece>
  </UnstructuredGrid>
</VTKFile>
