<?xml version="1.0"?>
<VTKFile type="UnstructuredGrid" version="0.1" byte_order="LittleEndian" header_type="UInt32" compressor="vtkZLibDataCompressor">
  <UnstructuredGrid>
    <Piece NumberOfPoints="13" NumberOfCells="11">
      <PointData>
        <DataArray type="Float64" Name="Disp" NumberOfComponents="3" format="ascii" RangeMin="0.03580433145467908" RangeMax="0.1949620746289798">
          -0.005930471930883714 -0.05631736621875203 0 0.006176868128232116 -0.08060027905530384 0
          -0.006678893282082372 -0.08065685105840245 0 0.006711052218557766 -0.10752108304983846 0
          -0.007201213810674325 -0.10757650467507562 0 0.007007700113828796 -0.13608009332338078 0
          -0.007499375265236263 -0.1361240288240534 0 0.007117724861909336 -0.16540795533160635 0
          -0.00759011087371662 -0.1654462497145835 0 0.007097041910414125 -0.19481581376036777 0
          -0.007566626008209519 -0.19481518604689876 0 0.005410008236212194 -0.05626242531692333 0
          -0.004920513274502394 -0.03546461193967823 0
          <InformationKey name="L2_NORM_RANGE" location="vtkDataArray" length="2">
            <Value index="0">
              0.035804331455
            </Value>
            <Value index="1">
              0.19496207463
            </Value>
          </InformationKey>
        </DataArray>
        <DataArray type="Float64" Name="Nodal Stress" NumberOfComponents="6" format="ascii" RangeMin="3520.3076367612134" RangeMax="57903.567079782246">
          -33778.36189029798 12879.218531593056 0 9737.646717880454 0 0
          44318.404489467255 13594.39003078991 0 -16054.63081422033 0 0
          -23181.468167686617 13426.167263960853 0 6468.043574647538 0 0
          34067.45401176412 13884.286154350402 0 -12568.04508326787 0 0
          -13255.293568744479 13331.445701087348 0 3081.597903916934 0 0
          23806.21266964761 12391.18278650103 0 -8635.422323505367 0 0
          -5434.942714035923 11350.662217872643 0 487.05348190045476 0 0
          14648.174294873408 9997.468147336473 0 -4619.244978010045 0 0
          -1070.5722234027983 7887.766296384692 0 -835.8591170354633 0 0
          7615.330427270002 5169.964905992428 0 -1612.5752931695824 0 0
          -1797.9841559479862 2915.927875480126 0 -810.6685249824894 0 0
          53358.75265787143 12207.895158981812 0 -18884.752874905425 0 0
          -45551.89851823135 9223.539741609797 0 14052.847990460365 0 0
          <InformationKey name="L2_NORM_RANGE" location="vtkDataArray" length="2">
            <Value index="0">
              3520.3076368
            </Value>
            <Value index="1">
              57903.56708
            </Value>
          </InformationKey>
        </DataArray>
        <DataArray type="Float64" Name="Nodal Strain" NumberOfComponents="6" format="ascii" RangeMin="0.0003686259304885601" RangeMax="0.004508889535898615">
          -0.0028727122254353222 0.0021263142483387175 0 0.001043319291201477 0 0
          0.0026800863910051644 -0.0006117723009959796 0 -0.001720139015809321 0 0
          -0.0021353251285476465 0.0017869215248431547 0 0.0006930046687122361 0 0
          0.001937522209613495 -0.00022496006082369004 0 -0.0013465762589215573 0 0
          -0.001422929744234868 0.0014256494632471138 0 0.00033017120399110014 0 0
          0.00125790151974265 0.000034862603691230434 0 -0.000925223820375575 0 0
          -0.0007935909873551604 0.0010048666839207576 0 0.00005218430163219165 0 0
          0.0006892457300860839 0.00019095578570712643 0 -0.0004949191047867905 0 0
          -0.00035817538368536746 0.0006016466005775781 0 -0.00008955633396808537 0 0
          0.0003593105695909849 0.00009730712088267337 0 -0.00017277592426816953 0 0
          -0.00023256772097771783 0.00027249428238958 0 -0.00008685734196240957 0 0
          0.0033753432198843233 -0.0010336772264252783 0 -0.0020233663794541525 0 0
          -0.0035831191706454458 0.0022856777857661044 0 0.0015056622846921816 0 0
          <InformationKey name="L2_NORM_RANGE" location="vtkDataArray" length="2">
            <Value index="0">
              0.00036862593049
            </Value>
            <Value index="1">
              0.0045088895359
            </Value>
          </InformationKey>
        </DataArray>
        <DataArray type="Float64" Name="Sld_traction" NumberOfComponents="3" format="ascii" RangeMin="2527.698935305533" RangeMax="51656.41324991333">
          -37630.58789561125 -12091.479034470673 0 -40166.738114717926 13971.71513862967 0
          -27135.523262984723 -13095.832966181439 0 -29804.346457472475 14031.373278682113 0
          -16881.27951163633 -13158.012910864787 0 -18965.255631283646 12377.788304570291 0
          -7678.981189140993 -11342.99097449085 0 -8982.59986697908 9592.860018566864 0
          -1328.4497790097337 -8086.4663338410455 0 336.94718419575537 3339.9642879248013 0
          996.5525179509119 -2322.96039279847 0 -50070.0896015211 12703.194761219345 0
          -46497.5616690853 -9338.63529118225 0
          <InformationKey name="L2_NORM_RANGE" location="vtkDataArray" length="2">
            <Value index="0">
              2527.6989353
            </Value>
            <Value index="1">
              51656.41325
            </Value>
          </InformationKey>
        </DataArray>
        <DataArray type="Float64" Name="Velocity" NumberOfComponents="3" format="ascii" RangeMin="2.1057569371481493" RangeMax="9.56899247221632">
          -0.30302691601124554 -3.174413520326297 0 0.2931316945755378 -4.369802332306378 0
          -0.3246671080797583 -4.372395236731506 0 0.3058290934644008 -5.636254605813079 0
          -0.3369881428745547 -5.638029306905885 0 0.3114879658236087 -6.936924121351815 0
          -0.3425420536716266 -6.938043286998244 0 0.3130633802791074 -8.249943501805177 0
          -0.34366248697323565 -8.250637710825544 0 0.3126184693485641 -9.562868551852034 0
          -0.34302628581131067 -9.562842145543087 0 0.27056184527628835 -3.1711807657165956 0
          -0.26610326971843845 -2.088875613384557 0
          <InformationKey name="L2_NORM_RANGE" location="vtkDataArray" length="2">
            <Value index="0">
              2.1057569371
            </Value>
            <Value index="1">
              9.5689924722
            </Value>
          </InformationKey>
        </DataArray>
        <DataArray type="Float64" Name="Acceleration" NumberOfComponents="3" format="ascii" RangeMin="136.3378989360967" RangeMax="2240.2325431834543">
          38.23498530969755 -377.9731771291699 0 -95.96794820878677 -108.09155564627144 0
          84.51372203405663 -106.98342616620357 0 -135.86168776581871 337.91316582223226 0
          123.75712390309764 340.9101467377186 0 -161.49260920358665 918.053867612136 0
          149.85301885767603 921.1481925835833 0 -172.30595835887198 1570.4099087157228 0
          159.21705008030222 1573.8092520862992 0 -170.64466581415854 2233.7238516807265 0
          157.6578629326341 2233.705654393678 0 -49.53916551032853 -377.26499948927085 0
          -4.936127758785915 -462.3928102819482 0
          <InformationKey name="L2_NORM_RANGE" location="vtkDataArray" length="2">
            <Value index="0">
              136.33789894
            </Value>
            <Value index="1">
              2240.2325432
            </Value>
          </InformationKey>
        </DataArray>
        <DataArray type="Float64" Name="Sigma" NumberOfComponents="6" format="ascii" RangeMin="3586.744359792344" RangeMax="153981.07089728734">
          -102712.63364540292 27536.430229835627 0 36747.82099338464 0 0
          117171.58688979597 13338.175900468741 0 -39921.2691696186 0 0
          -73452.61605770602 25070.869576045152 0 27345.877635065783 0 0
          87506.4317233769 16065.293136786711 0 -30022.91680651611 0 0
          -44668.61083930269 23782.13581455617 0 16681.808044260553 0 0
          58755.22481657767 15088.988461261246 0 -18813.14234915183 0 0
          -21348.759958399936 18678.895606490903 0 7214.567257710001 0 0
          33395.74165849761 12897.135341727913 0 -8516.047584578426 0 0
          -7966.023444134864 13174.241039736222 0 533.8100597454008 0 0
          17902.722761528214 6416.283149495711 0 -1018.2665144089582 0 0
          -1865.3695815582148 2735.5420453787196 0 -1379.1088226332004 0 0
          144619.19269507346 12827.524695519345 0 -51292.43520331705 0 0
          -132305.17685386972 18818.077301402805 0 51446.36576506313 0 0
          <InformationKey name="L2_NORM_RANGE" location="vtkDataArray" length="2">
            <Value index="0">
              3586.7443598
            </Value>
            <Value index="1">
              153981.0709
            </Value>
          </InformationKey>
        </DataArray>
        <DataArray type="Float64" Name="Press" format="ascii" RangeMin="-14616.174611873274" RangeMax="1516.0581629108406">
          -14616.174611873274 398.8597092850363 -12076.966034910838 -1526.727602453986 -10103.007799967145 -2792.0465362532527
          -7441.233740792618 -2356.738748670883 -3746.0706701732906 -3317.651335330642 -3167.087386282466 1516.0581629108406
          -10944.129107562496
        </DataArray>
        <DataArray type="Float64" Name="Dev strain" NumberOfComponents="6" format="ascii" RangeMin="0.00041720171752545563" RangeMax="0.00444986000779947">
          -0.002554592263919485 0.0024444342098545544 0 0.001043319291201477 0 0
          0.0028318833924260017 -0.00045997529957514285 0 -0.001720139015809321 0 0
          -0.0018393825261439456 0.0020828641272468552 0 0.0006930046687122361 0 0
          0.002103931436135662 -0.000058550834301522975 0 -0.0013465762589215573 0 0
          -0.0011587220214583178 0.0016898571860236632 0 0.00033017120399110014 0 0
          0.0014237474383443282 0.00020070852229290875 0 -0.000925223820375575 0 0
          -0.0005888467865077068 0.0012096108847682115 0 0.00005218430163219165 0 0
          0.0008161050729001941 0.00031781512852123656 0 -0.0004949191047867905 0 0
          -0.000225932748815969 0.0007338892354469765 0 -0.00008955633396808537 0 0
          0.00047666134109376404 0.00021465789238545241 0 -0.00017277592426816953 0 0
          -0.00011294364260210291 0.0003921183607651949 0 -0.00008685734196240957 0 0
          0.003473430090999127 -0.0009355903553104741 0 -0.0020233663794541525 0 0
          -0.0033299021543428536 0.0025388948020686965 0 0.0015056622846921816 0 0
          <InformationKey name="L2_NORM_RANGE" location="vtkDataArray" length="2">
            <Value index="0">
              0.00041720171753
            </Value>
            <Value index="1">
              0.0044498600078
            </Value>
          </InformationKey>
        </DataArray>
        <DataArray type="Float64" Name="J2 Stresses" format="ascii" RangeMin="5956882.265084911" RangeMax="11197356620.066093">
          5991670637.02914 7351970788.340711 3198866909.417917 4183078501.6572003 1350008069.0139215 1928410589.2776923
          415347841.59878814 658936597.0876808 118580316.53775956 181097302.5389131 5956882.265084911 11197356620.066093
          9591072065.435823
        </DataArray>
      </PointData>
      <CellData>
        <DataArray type="UInt8" Name="vtkGhostType" format="ascii" RangeMin="0" RangeMax="1">
          1 1 0 0 0 0
          0 0 0 0 0
        </DataArray>
        <DataArray type="Float64" Name="Gauss Stress" NumberOfComponents="6" format="ascii" RangeMin="4142.348582642734" RangeMax="53824.61004653108">
          -38147.62112024138 11712.595556744283 0 12300.583851710242 0 0
          48792.2963999297 13666.958028715439 0 -18155.29445985034 0 0
          -28429.31458360403 13217.064922950147 0 8057.476486277272 0 0
          -18107.16553698793 13737.199030018688 0 4668.2562909367425 0 0
          39340.18954246235 13756.501561740271 0 -14199.43611368965 0 0
          -9199.478019379325 12404.577268431767 0 1694.410984272908 0 0
          29057.087920659167 13504.878491309915 0 -10718.08370380246 0 0
          -3154.361634557996 10402.076276106081 0 -255.8900890410082 0 0
          19404.062496986196 11358.333461254437 0 -6704.874225340083 0 0
          -719.826551983755 4031.7522809414168 0 -621.1884257655861 0 0
          11303.993407238711 7689.066258928342 0 -3000.168013080661 0 0
          <InformationKey name="L2_NORM_RANGE" location="vtkDataArray" length="2">
            <Value index="0">
              4142.3485826
            </Value>
            <Value index="1">
              53824.610047
            </Value>
          </InformationKey>
        </DataArray>
        <DataArray type="Float64" Name="Gauss Strain" NumberOfComponents="6" format="ascii" RangeMin="0.00037552014587078166" RangeMax="0.004056100530711988">
          -0.0031431370641866806 0.0021990290083474984 0 0.0013179196983975259 0 0
          0.002997058384683713 -0.0007663707265178148 0 -0.0019452101206982508 0 0
          -0.002502703360362793 0.001959408729625154 0 0.0008633010521011363 0 0
          -0.0017839832179998058 0.001627912985608047 0 0.0005001703168860796 0 0
          0.002318709911542301 -0.0004223995149636357 0 -0.0015213681550381762 0 0
          -0.0011001261895425148 0.0012145940198658167 0 0.00018154403402924026 0 0
          0.00159318919107173 -0.00007311896207283313 0 -0.0011483661111216926 0 0
          -0.0005968142694722171 0.0008556612209560771 0 -0.000027416795254393692 0 0
          0.00098034969759707 0.00011830730091152422 0 -0.0007183793812864376 0 0
          -0.00019540733517531885 0.0003136903969238068 0 -0.00006655590276059848 0 0
          0.0005328185912696102 0.00014550496823635624 0 -0.0003214465728300708 0 0
          <InformationKey name="L2_NORM_RANGE" location="vtkDataArray" length="2">
            <Value index="0">
              0.00037552014587
            </Value>
            <Value index="1">
              0.0040561005307
            </Value>
          </InformationKey>
        </DataArray>
      </CellData>
      <Points>
        <DataArray type="Float32" Name="Points" NumberOfComponents="3" format="ascii" RangeMin="0.4000000059604645" RangeMax="1.0012492197622458">
          0.5 0 0 0.6000000238418579 0.05000000074505806 0
          0.6000000238418579 0 0 0.699999988079071 0.05000000074505806 0
          0.699999988079071 0 0 0.800000011920929 0.05000000074505806 0
          0.800000011920929 0 0 0.8999999761581421 0.05000000074505806 0
          0.8999999761581421 0 0 1 0.05000000074505806 0
          1 0 0 0.5 0.05000000074505806 0
          0.4000000059604645 0 0
          <InformationKey name="L2_NORM_RANGE" location="vtkDataArray" length="2">
            <Value index="0">
              0.40000000596
            </Value>
            <Value index="1">
              1.0012492198
            </Value>
          </InformationKey>
        </DataArray>
      </Points>
      <Cells>
        <DataArray type="Int64" Name="connectivity" format="ascii" RangeMin="0" RangeMax="12">
          0 11 12 1 11 0
          2 1 0 4 3 2
          3 1 2 6 5 4
          5 3 4 8 7 6
          7 5 6 10 9 8
          9 7 8
        </DataArray>
        <DataArray type="Int64" Name="offsets" format="ascii" RangeMin="3" RangeMax="33">
          3 6 9 12 15 18
          21 24 27 30 33
        </DataArray>
        <DataArray type="UInt8" Name="types" format="ascii" RangeMin="5" RangeMax="5">
          5 5 5 5 5 5
          5 5 5 5 5
        </DataArray>
      </Cells>
    </Piece>
  </UnstructuredGrid>
</VTKFile>
