<?xml version="1.0"?>
<VTKFile type="UnstructuredGrid" version="0.1" byte_order="LittleEndian" header_type="UInt32" compressor="vtkZLibDataCompressor">
  <UnstructuredGrid>
    <Piece NumberOfPoints="13" NumberOfCells="11">
      <PointData>
        <DataArray type="Float64" Name="Disp" NumberOfComponents="3" format="ascii" RangeMin="0.029615137998655543" RangeMax="0.14197232800883913">
          -0.00444011908191517 -0.04518206759992025 0 0.004395984605721123 -0.06290114283625878 0
          -0.0048316659046578805 -0.06294047110588459 0 0.004647507162030681 -0.08194729613318934 0
          -0.0050766427624723606 -0.08197804171474539 0 0.00477302763822602 -0.10171678799751649 0
          -0.005201442707406137 -0.10173823599020422 0 0.004814260272498304 -0.12178804664743217 0
          -0.0052336286294156235 -0.1218038810263985 0 0.004804996666459525 -0.14187667871596327 0
          -0.005221777881749103 -0.1418762663591169 0 0.0039907596461908985 -0.045136607581708565 0
          -0.0038332400504694983 -0.029366012146610717 0
          <InformationKey name="L2_NORM_RANGE" location="vtkDataArray" length="2">
            <Value index="0">
              0.029615137999
            </Value>
            <Value index="1">
              0.14197232801
            </Value>
          </InformationKey>
        </DataArray>
        <DataArray type="Float64" Name="Nodal Stress" NumberOfComponents="6" format="ascii" RangeMin="1441.567568823163" RangeMax="39282.98340026546">
          -18399.870048708108 11017.55769080426 0 4623.898033824145 0 0
          26673.12488194073 10116.066691035845 0 -9457.176933848938 0 0
          -11599.614508628043 9187.034419211168 0 2719.4554741186726 0 0
          18412.341679170073 8440.79479888101 0 -6578.355324536507 0 0
          -6131.325128215369 7570.290995933942 0 1053.1679679221036 0 0
          11682.597966700645 6348.863747319194 0 -4029.8886069581818 0 0
          -2440.2876050662826 5443.996341964917 0 4.8620296302494195 0 0
          6506.958238544369 4396.013953559921 0 -1948.2124678001771 0 0
          -546.9361362777893 3314.0165411747894 0 -413.2767776914493 0 0
          3136.7533965139246 2063.617162067207 0 -635.1133139699621 0 0
          -841.2080171714384 1118.2836732324076 0 -346.305866989075 0 0
          35483.93973353538 11282.240417768906 0 -12520.1380570672 0 0
          -27897.198138378404 10001.299121623806 0 7988.231201743521 0 0
          <InformationKey name="L2_NORM_RANGE" location="vtkDataArray" length="2">
            <Value index="0">
              1441.5675688
            </Value>
            <Value index="1">
              39282.9834
            </Value>
          </InformationKey>
        </DataArray>
        <DataArray type="Float64" Name="Nodal Strain" NumberOfComponents="6" format="ascii" RangeMin="0.0001531804400787748" RangeMax="0.0030299884163983255">
          -0.0017077606352935888 0.001444106622511308 0 0.0004954176464811585 0 0
          0.0015439351097444867 -0.00023003541070960848 0 -0.0010132689571981006 0 0
          -0.0011566522655881166 0.0010704886909660852 0 0.0002913702293698578 0 0
          0.0010137103056949693 -0.00005466971719314455 0 -0.0007048237847717685 0 0
          -0.0007083193304415958 0.0007597109685744019 0 0.00011283942513451115 0 0
          0.0006077261495029322 0.00003625462599777658 0 -0.000431773779316948 0 0
          -0.00036873469828919574 0.00047601001032128985 0 5.209317460981364e-7 0 0
          0.00030778223298317213 0.00008160963102055263 0 -0.0002087370501214475 0 0
          -0.00015742460049037027 0.0002562489006652631 0 -0.00004427965475265527 0 0
          0.00015035320110573725 0.00003537431884358895 0 -0.00006804785506821021 0 0
          -0.00010002498955626017 0.00010992054870129479 0 -0.00003710420003454376 0 0
          0.002131629966046495 -0.0004614092463570557 0 -0.0013414433632572003 0 0
          -0.0023498462642278796 0.0017107070136295004 0 0.0008558819144725201 0 0
          <InformationKey name="L2_NORM_RANGE" location="vtkDataArray" length="2">
            <Value index="0">
              0.00015318044008
            </Value>
            <Value index="1">
              0.0030299884164
            </Value>
          </InformationKey>
        </DataArray>
        <DataArray type="Float64" Name="Sld_traction" NumberOfComponents="3" format="ascii" RangeMin="1000.2410747070903" RangeMax="33701.93193849729">
          -20824.21946934303 -10623.66127621133 0 -22575.84757481825 10144.629400736158 0
          -13331.144513386613 -9224.500660050773 0 -15000.916193379175 8393.350688736109 0
          -7452.2167831740235 -7625.347311705256 0 -8586.351535934255 6251.789791093306 0
          -3004.068997070773 -5557.523999882568 0 -3685.7905918437173 4194.695424963813 0
          -386.3321074605825 -3457.124066821884 0 197.05538985337859 1364.8909107148233 0
          429.3211201027657 -903.41883053482 0 -31709.128557169504 11417.152995909339 0
          -28700.04855684829 -10427.095497494294 0
          <InformationKey name="L2_NORM_RANGE" location="vtkDataArray" length="2">
            <Value index="0">
              1000.2410747
            </Value>
            <Value index="1">
              33701.931938
            </Value>
          </InformationKey>
        </DataArray>
        <DataArray type="Float64" Name="Velocity" NumberOfComponents="3" format="ascii" RangeMin="1.3056699540904964" RangeMax="16.289141478407434">
          -0.43745532364263084 -2.7136089885582386 0 0.564770975832301 -4.72510824414784 0
          -0.5732457384543732 -4.730726302454535 0 0.6750316006514876 -7.240504433732639 0
          -0.6815158484805517 -7.249723948348333 0 0.743021495840301 -10.116966141719558 0
          -0.7505024435874199 -10.12567163981334 0 0.77077936585632 -13.180890701619255 0
          -0.7742618655178961 -13.189843770607553 0 0.7662834089475334 -16.271015663739085 0
          -0.7697928714149294 -16.2709418608356 0 0.42756004641605383 -2.711621636869314 0
          -0.29169233387109705 -1.272670268127417 0
          <InformationKey name="L2_NORM_RANGE" location="vtkDataArray" length="2">
            <Value index="0">
              1.3056699541
            </Value>
            <Value index="1">
              16.289141478
            </Value>
          </InformationKey>
        </DataArray>
        <DataArray type="Float64" Name="Acceleration" NumberOfComponents="3" format="ascii" RangeMin="262.3225432116311" RangeMax="814.0680500681198">
          28.62871650412626 367.91382782342407 0 -22.540536771981806 470.44733352787443 0
          26.869656000955274 470.6240186919749 0 -20.396121913765455 565.0958757902772 0
          24.74245317710529 565.0213288228115 0 -18.755046249658335 651.6411022587126 0
          23.049824795441054 651.4889654695289 0 -17.977127128971006 733.1840190630755 0
          22.35053755048284 732.9604591263487 0 -18.07524541267594 813.7604599623737 0
          22.419600011334296 813.7592713309277 0 -24.214788377109926 367.5110152942798 0
          28.50459462929166 260.7692557838018 0
          <InformationKey name="L2_NORM_RANGE" location="vtkDataArray" length="2">
            <Value index="0">
              262.32254321
            </Value>
            <Value index="1">
              814.06805007
            </Value>
          </InformationKey>
        </DataArray>
        <DataArray type="Float64" Name="Sigma" NumberOfComponents="6" format="ascii" RangeMin="1418.81601267319" RangeMax="100537.52383114558">
          -57307.10863484071 21966.810200573513 0 19741.669386835838 0 0
          69008.95102961986 10815.206076694662 0 -22021.54447567212 0 0
          -37602.31446154615 16531.623847626386 0 13264.356210197415 0 0
          46382.55821883017 10114.58606946082 0 -14919.512429973103 0 0
          -20909.34168367424 13376.330964535986 0 7187.772852694179 0 0
          28496.54250520294 7800.335876110017 0 -8305.902964710525 0 0
          -9452.713968195949 9047.062880086458 0 2697.853078070016 0 0
          14784.057946557954 5653.560244922127 0 -3374.9849267903155 0 0
          -3397.7032865793426 5582.779001347841 0 45.228817450391276 0 0
          7327.777191859456 2515.1203385347776 0 -308.9008791905192 0 0
          -831.432722644963 1003.6379408614769 0 -560.7757031080861 0 0
          94114.69666166778 14044.725948556206 0 -32449.39511624793 0 0
          -82166.6936115188 17592.419273045325 0 32714.283058517405 0 0
          <InformationKey name="L2_NORM_RANGE" location="vtkDataArray" length="2">
            <Value index="0">
              1418.8160127
            </Value>
            <Value index="1">
              100537.52383
            </Value>
          </InformationKey>
        </DataArray>
        <DataArray type="Float64" Name="Press" format="ascii" RangeMin="-10542.865363717672" RangeMax="-999.4655776555686">
          -10542.865363717672 -999.4655776555686 -7508.797239514725 -1504.448641496881 -5544.578273533839 -1696.521954588217
          -3644.8163819751667 -1168.214612413429 -1678.3736854997435 -1392.1442403084925 -1280.761301433853 -1050.0489682595653
          -8569.057571312378
        </DataArray>
        <DataArray type="Float64" Name="Dev strain" NumberOfComponents="6" format="ascii" RangeMin="0.00017180466761132444" RangeMax="0.0029986588889824306">
          -0.001459444932659769 0.001692422325145128 0 0.0004954176464811585 0 0
          0.0016768357534413755 -0.00009713476701271964 0 -0.0010132689571981006 0 0
          -0.0009597830527528641 0.0012673579038013374 0 0.0002913702293698578 0 0
          0.001126297896192952 0.000057917873304838236 0 -0.0007048237847717685 0 0
          -0.0005570603290878365 0.0009109699699281613 0 0.00011283942513451115 0 0
          0.0007006743170400085 0.0001292027935348529 0 -0.000431773779316948 0 0
          -0.0002650998072627437 0.0005796449013477418 0 5.209317460981364e-7 0 0
          0.0003695213222817647 0.00014334872031914524 0 -0.0002087370501214475 0 0
          -0.00009755395316343175 0.00031611954799220165 0 -0.00004427965475265527 0 0
          0.00020113132720431197 0.0000861524449421637 0 -0.00006804785506821021 0 0
          -0.00004973891340736782 0.00016020662485018714 0 -0.00003710420003454376 0 0
          0.0022542641058077755 -0.00033877510659577505 0 -0.0013414433632572003 0 0
          -0.0021179545146814754 0.0019425987631759044 0 0.0008558819144725201 0 0
          <InformationKey name="L2_NORM_RANGE" location="vtkDataArray" length="2">
            <Value index="0">
              0.00017180466761
            </Value>
            <Value index="1">
              0.002998658889
            </Value>
          </InformationKey>
        </DataArray>
        <DataArray type="Float64" Name="J2 Stresses" format="ascii" RangeMin="927902.0916098328" RangeMax="4790656038.196488">
          1980756102.7815106 2560839107.6184235 887600106.3699567 1182471241.926881 320979419.50420254 453696093.28028023
          87421176.86809552 128113187.21908912 21356415.912243225 30034929.383714642 927902.0916098328 4790656038.196488
          3797985456.47211
        </DataArray>
      </PointData>
      <CellData>
        <DataArray type="UInt8" Name="vtkGhostType" format="ascii" RangeMin="0" RangeMax="1">
          1 1 0 0 0 0
          0 0 0 0 0
        </DataArray>
        <DataArray type="Float64" Name="Gauss Stress" NumberOfComponents="6" format="ascii" RangeMin="1660.4473213438125" RangeMax="35069.54617582447">
          -21840.359162660454 11147.327839628475 0 6668.852443035107 0 0
          31074.719715604722 11411.454105397192 0 -11576.42340169474 0 0
          -14983.86674921833 10087.50398133553 0 3661.4937071203785 0 0
          -8895.640693645222 8488.238909025915 0 1844.205544306165 0 0
          22592.16110941224 9149.568178371563 0 -7892.233565149269 0 0
          -4250.476585588159 6445.93770354508 0 526.5743220178902 0 0
          15074.736723579983 7515.234680162628 0 -5345.880847329817 0 0
          -1519.2546627018928 4597.332482156029 0 -210.63434375663576 0 0
          9106.111178196043 5330.468684047262 0 -2994.344937810275 0 0
          -417.54601486897946 1583.4193511673352 0 -274.8159216160714 0 0
          4825.1331045388 3170.9090155276936 0 -1212.885662843481 0 0
          <InformationKey name="L2_NORM_RANGE" location="vtkDataArray" length="2">
            <Value index="0">
              1660.4473213
            </Value>
            <Value index="1">
              35069.546176
            </Value>
          </InformationKey>
        </DataArray>
        <DataArray type="Float64" Name="Gauss Strain" NumberOfComponents="6" format="ascii" RangeMin="0.00015721072080665942" RangeMax="0.002613318643712939">
          -0.0019581445058910493 0.0015762505300684787 0 0.0007145199046109041 0 0
          0.001812070904493295 -0.00029470755374322614 0 -0.0012403310787530077 0 0
          -0.0014305441957061496 0.0012556740968531926 0 0.0003923028971914691 0 0
          -0.000938554296297013 0.0009240042325606092 0 0.0001975934511756605 0 0
          0.0012869555014447473 -0.0001533223125953255 0 -0.0008455964534088504 0 0
          -0.0005338175312400499 0.0006122268568813685 0 0.000056418677359059685 0 0
          0.000808365670249905 -0.0000015809772590972626 0 -0.0005727729479281945 0 0
          -0.00027270863598427905 0.00038263998667906966 0 -0.000022567965402496716 0 0
          0.0004600626311551723 0.00005552950678208872 0 -0.0003208226719082437 0 0
          -0.00008637540646090337 0.00012801373990013038 0 -0.000029444563030293372 0 0
          0.000231405614055354 0.0000541673188041638 0 -0.00012995203530465868 0 0
          <InformationKey name="L2_NORM_RANGE" location="vtkDataArray" length="2">
            <Value index="0">
              0.00015721072081
            </Value>
            <Value index="1">
              0.0026133186437
            </Value>
          </InformationKey>
        </DataArray>
      </CellData>
      <Points>
        <DataArray type="Float32" Name="Points" NumberOfComponents="3" format="ascii" RangeMin="0.4000000059604645" RangeMax="1.0012492197622458">
          0.5 0 0 0.6000000238418579 0.05000000074505806 0
          0.6000000238418579 0 0 0.699999988079071 0.05000000074505806 0
          0.699999988079071 0 0 0.800000011920929 0.05000000074505806 0
          0.800000011920929 0 0 0.8999999761581421 0.05000000074505806 0
          0.8999999761581421 0 0 1 0.05000000074505806 0
          1 0 0 0.5 0.05000000074505806 0
          0.4000000059604645 0 0
          <InformationKey name="L2_NORM_RANGE" location="vtkDataArray" length="2">
            <Value index="0">
              0.40000000596
            </Value>
            <Value index="1">
              1.0012492198
            </Value>
          </InformationKey>
        </DataArray>
      </Points>
      <Cells>
        <DataArray type="Int64" Name="connectivity" format="ascii" RangeMin="0" RangeMax="12">
          0 11 12 1 11 0
          2 1 0 4 3 2
          3 1 2 6 5 4
          5 3 4 8 7 6
          7 5 6 10 9 8
          9 7 8
        </DataArray>
        <DataArray type="Int64" Name="offsets" format="ascii" RangeMin="3" RangeMax="33">
          3 6 9 12 15 18
          21 24 27 30 33
        </DataArray>
        <DataArray type="UInt8" Name="types" format="ascii" RangeMin="5" RangeMax="5">
          5 5 5 5 5 5
          5 5 5 5 5
        </DataArray>
      </Cells>
    </Piece>
  </UnstructuredGrid>
</VTKFile>
