<?xml version="1.0"?>
<VTKFile type="UnstructuredGrid" version="0.1" byte_order="LittleEndian" header_type="UInt32" compressor="vtkZLibDataCompressor">
  <UnstructuredGrid>
    <Piece NumberOfPoints="13" NumberOfCells="11">
      <PointData>
        <DataArray type="Float64" Name="Disp" NumberOfComponents="3" format="ascii" RangeMin="0.018453305394394066" RangeMax="0.08259420262971848">
          0.002625204754214403 0.02772662664593048 0 -0.0025220676972458303 0.03804749261698833 0
          0.002799976702315115 0.03806973643681316 0 -0.0026208618519939853 0.048935167853310625 0
          0.0028957117914538547 0.04894973894247866 0 -0.002662585729982812 0.060081306518236566 0
          0.00293640393263588 0.06009014262285516 0 -0.0026731174546370646 0.07131374544888562 0
          0.0029434137165990915 0.07131879193991873 0 -0.0026697308518308467 0.08254214365940908 0
          0.0029383336779473315 0.08254191967258839 0 -0.0023392828475308457 0.027698284743752837 0
          0.0023165475666884405 0.018307323325654216 0
          <InformationKey name="L2_NORM_RANGE" location="vtkDataArray" length="2">
            <Value index="0">
              0.018453305394
            </Value>
            <Value index="1">
              0.08259420263
            </Value>
          </InformationKey>
        </DataArray>
        <DataArray type="Float64" Name="Nodal Stress" NumberOfComponents="6" format="ascii" RangeMin="461.54724107417445" RangeMax="21930.408136123773">
          8565.644062268006 -6976.489581397457 0 -1837.4402624952036 0 0
          -13579.821821943644 -5960.61275014268 0 4730.108280334405 0 0
          4925.319380443379 -5141.367421295011 0 -893.9843217238566 0 0
          -8499.048149519684 -4333.887538916965 0 2937.6137520945394 0 0
          2351.6317002779497 -3665.5859185997147 0 -200.9362341174411 0 0
          -4840.7518088478455 -2769.255889423079 0 1563.7677416722793 0 0
          896.3552773203967 -2191.8079483847728 0 118.17561274668746 0 0
          -2346.2907693503003 -1560.3106733841914 0 643.9972597940862 0 0
          238.44437916876714 -1087.8165603094587 0 172.88076272842994 0 0
          -991.4523144488495 -612.2700728677632 0 183.04814885762102 0 0
          327.9251378706326 -302.9536803344053 0 117.08982563633634 0 0
          -19475.141133954425 -7390.763333222905 0 6858.447067799537 0 0
          14410.961858726378 -6953.61569379278 0 -3871.610319760657 0 0
          <InformationKey name="L2_NORM_RANGE" location="vtkDataArray" length="2">
            <Value index="0">
              461.54724107
            </Value>
            <Value index="1">
              21930.408136
            </Value>
          </InformationKey>
        </DataArray>
        <DataArray type="Float64" Name="Nodal Strain" NumberOfComponents="6" format="ascii" RangeMin="0.000049419311773606466" RangeMax="0.0016814995688045776">
          0.0008609920609261952 -0.0008042365437522472 0 -0.0001968685995530575 0 0
          -0.0007571082462051645 0.000059235582916367185 0 0.0005067973157501148 0 0
          0.0005354287922207775 -0.0005431447936797643 0 -0.00009578403447041321 0 0
          -0.0004522931700043717 -0.000006025961725508838 0 0.0003147443305815578 0 0
          0.00029888747568412914 -0.00034581441205276366 0 -0.000021528882226868685 0 0
          -0.00024686599029545054 -0.000024919998928511184 0 0.00016754654375060135 0 0
          0.00014230423225091305 -0.00018857039907464078 0 0.000012661672794287946 0 0
          -0.0001118668166184432 -0.000027654663479217252 0 0.00006899970640650922 0 0
          0.00005588233280882119 -0.00008621705356384588 0 0.000018522938863760353 0 0
          -0.00004895123414392629 -0.00000832456540309561 0 0.000019612301663316534 0 0
          0.00003424299843127395 -0.00003335116066212297 0 0.00001254533846103604 0 0
          -0.001127125676238784 0.00016762908812530757 0 0.0007348336144070931 0 0
          0.0012776978361159121 -0.0010113640445111405 0 -0.00041481539140292767 0 0
          <InformationKey name="L2_NORM_RANGE" location="vtkDataArray" length="2">
            <Value index="0">
              4.9419311774e-05
            </Value>
            <Value index="1">
              0.0016814995688
            </Value>
          </InformationKey>
        </DataArray>
        <DataArray type="Float64" Name="Sld_traction" NumberOfComponents="3" format="ascii" RangeMin="292.697139538037" RangeMax="18359.363809355345">
          9841.69206062891 6809.402511897412 0 10827.884222310187 -5892.136475560311 0
          5533.599180225187 5259.2366542664995 0 6410.451642394008 -4252.836313366827 0
          2662.012154444496 3760.3223550037364 0 3189.2906534348153 -2682.5652161654857 0
          852.919775659346 2299.0642448037424 0 1157.0322543602708 -1475.4427300122475 0
          23.821047994121415 1170.5448287148663 0 -97.82209606445346 -424.9912518491824 0
          -147.19532961474124 252.9923920463949 0 16805.81338791644 -7391.2702463646465 0
          14914.355059385265 7319.417711854339 0
          <InformationKey name="L2_NORM_RANGE" location="vtkDataArray" length="2">
            <Value index="0">
              292.69713954
            </Value>
            <Value index="1">
              18359.363809
            </Value>
          </InformationKey>
        </DataArray>
        <DataArray type="Float64" Name="Velocity" NumberOfComponents="3" format="ascii" RangeMin="6.139846562247556" RangeMax="12.992652932532636">
          0.524223799962916 8.171203775895416 0 -0.3042361924392202 9.829775245957599 0
          0.41137594303697744 9.831606268041902 0 -0.1938380905214745 11.03397997018371 0
          0.30237501115953114 11.027490705367978 0 -0.11735327258661132 11.848162323981704 0
          0.2240117223884035 11.839882835361731 0 -0.08327918259048595 12.438799303171798 0
          0.19394414195547283 12.42852144178621 0 -0.08806884321639363 12.991142553249805 0
          0.1979479715273984 12.991144938988906 0 -0.4155405294988701 8.161712315949671 0
          0.5929707193109499 6.111145680965476 0
          <InformationKey name="L2_NORM_RANGE" location="vtkDataArray" length="2">
            <Value index="0">
              6.1398465622
            </Value>
            <Value index="1">
              12.992652933
            </Value>
          </InformationKey>
        </DataArray>
        <DataArray type="Float64" Name="Acceleration" NumberOfComponents="3" format="ascii" RangeMin="193.22501813414613" RangeMax="463.55491735122126">
          -17.118467868077687 -436.253441844995 0 -3.4021895256503285 -463.5424322615236 0
          -3.8597440704095334 -463.44251880157935 0 -15.475144716049044 -439.1484653298012 0
          7.99177446451381 -438.334985295116 0 -23.488933259736086 -373.3725250474781 0
          16.141975142808633 -372.4572114166949 0 -26.95983594232075 -284.6868455999247 0
          19.15332323600569 -283.6230166055975 0 -26.452245632148333 -192.31405567599722 0
          18.697245650841978 -192.31827952124877 0 9.866822662882896 -435.68401933078394 0
          -27.825091523532365 -358.0147771080045 0
          <InformationKey name="L2_NORM_RANGE" location="vtkDataArray" length="2">
            <Value index="0">
              193.22501813
            </Value>
            <Value index="1">
              463.55491735
            </Value>
          </InformationKey>
        </DataArray>
        <DataArray type="Float64" Name="Sigma" NumberOfComponents="6" format="ascii" RangeMin="423.6547721891646" RangeMax="54592.77380811299">
          27297.01926953079 -13443.677355618658 0 -9059.985671660568 0 0
          -34507.7807745138 -6675.177402239863 0 10375.658710563019 0 0
          16385.90587132541 -9023.658997864712 0 -5418.6760238265915 0 0
          -20989.744799965454 -5338.557028807992 0 6279.908923595997 0 0
          8148.660499629445 -6421.07756780385 0 -2466.9053143841934 0 0
          -11638.003396782722 -3437.2001955219757 0 2967.415449417038 0 0
          3392.9661048535986 -3689.6339927249155 0 -685.7756453036152 0 0
          -5303.7175166628285 -1997.0971322639389 0 986.1731993447405 0 0
          1145.8862732431005 -1861.5809536338088 0 92.4892416425789 0 0
          -2288.566599889515 -717.1963070394463 0 30.0852793656247 0 0
          301.7021706139451 -242.00699878271018 0 172.8923907685709 0 0
          -50882.66397293977 -9798.440127450156 0 17184.761568013062 0 0
          42904.704602783335 -11580.808936642501 0 -17391.5336533046 0 0
          <InformationKey name="L2_NORM_RANGE" location="vtkDataArray" length="2">
            <Value index="0">
              423.65477219
            </Value>
            <Value index="1">
              54592.773808
            </Value>
          </InformationKey>
        </DataArray>
        <DataArray type="Float64" Name="Press" format="ascii" RangeMin="390.5200095145874" RangeMax="6100.641125732542">
          6100.641125732542 1028.890265615214 3925.7152902003404 1012.293308126449 2600.468702748458 871.524334671828
          1508.079030588436 490.6729993531612 614.0241984126601 455.91231945921953 390.5200095145874 1357.0335412684203
          5194.482492466863
        </DataArray>
        <DataArray type="Float64" Name="Dev strain" NumberOfComponents="6" format="ascii" RangeMin="0.00005439711177721007" RangeMax="0.0016711188485499717">
          0.0007107066676201543 -0.0009545219370582881 0 -0.0001968685995530575 0 0
          -0.0008422135476187121 -0.00002586971849718019 0 0.0005067973157501148 0 0
          0.0004272806710387346 -0.0006512929148618072 0 -0.00009578403447041321 0 0
          -0.000514872165346465 -0.00006860495706760207 0 0.0003147443305815578 0 0
          0.00022506532740175985 -0.0004196365603351328 0 -0.000021528882226868685 0 0
          -0.0002913576801233802 -0.00006941168875644087 0 0.00016754654375060135 0 0
          0.00009769898893918174 -0.00023317564238637206 0 0.000012661672794287946 0 0
          -0.00013721110563109858 -0.00005299895249187262 0 0.00006899970640650922 0 0
          0.000033632586177262395 -0.00010846680019540466 0 0.000018522938863760353 0 0
          -0.00006650878183825642 -0.000025882113097425733 0 0.000019612301663316534 0 0
          0.000017716422208943098 -0.000049877736884453816 0 0.00001254533846103604 0 0
          -0.0012162321369812677 0.00007852262738282381 0 0.0007348336144070931 0 0
          0.0011263066383476092 -0.0011627552422794432 0 -0.00041481539140292767 0 0
          <InformationKey name="L2_NORM_RANGE" location="vtkDataArray" length="2">
            <Value index="0">
              5.4397111777e-05
            </Value>
            <Value index="1">
              0.0016711188485
            </Value>
          </InformationKey>
        </DataArray>
        <DataArray type="Float64" Name="J2 Stresses" format="ascii" RangeMin="82268.7383029084" RangeMax="1416356468.494529">
          483450696.01422817 644586037.0861592 182302678.92963895 244394102.98092115 55336857.99252175 75830122.73617095
          12680381.053401196 16302042.620902946 2391408.0640244656 2876180.093489065 82268.7383029084 1416356468.494529
          1063080767.0430647
        </DataArray>
      </PointData>
      <CellData>
        <DataArray type="UInt8" Name="vtkGhostType" format="ascii" RangeMin="0" RangeMax="1">
          1 1 0 0 0 0
          0 0 0 0 0
        </DataArray>
        <DataArray type="Float64" Name="Gauss Stress" NumberOfComponents="6" format="ascii" RangeMin="507.88731111970645" RangeMax="19039.091015042024">
          10657.0723529474 -7390.256420081165 0 -3088.91925231737 0 0
          -16535.620181768867 -7143.576650897501 0 6166.811535638504 0 0
          6743.463682630164 -6029.089024725046 0 -1367.667661641381 0 0
          3694.4329573548825 -4414.938764467102 0 -535.2241382049299 0 0
          -11048.240279737282 -5023.498188323521 0 3745.6305367774758 0 0
          1627.8984252363489 -2855.9465626806727 0 -61.75517009025691 0 0
          -6664.933783857332 -3570.849482195694 0 2260.1396862096135 0 0
          615.9703632627095 -1645.1786167561352 0 130.96226522790136 0 0
          -3559.4928146595103 -2084.5516519658013 0 1089.2710011527208 0 0
          206.49279045133255 -453.4425773564993 0 98.48897059225817 0 0
          -1628.596108694734 -1005.088291904051 0 369.5825734509813 0 0
          <InformationKey name="L2_NORM_RANGE" location="vtkDataArray" length="2">
            <Value index="0">
              507.88731112
            </Value>
            <Value index="1">
              19039.091015
            </Value>
          </InformationKey>
        </DataArray>
        <DataArray type="Float64" Name="Gauss Strain" NumberOfComponents="6" format="ascii" RangeMin="0.00005147826094275956" RangeMax="0.0014091927526104413">
          0.00102515718307057 -0.0009084851854682045 0 -0.00033095563417686095 0 0
          -0.0009259879897371516 0.00008030238857049531 0 0.0006607298073898399 0 0
          0.0006970005853566206 -0.0006714872047171522 0 -0.00014653582089014792 0 0
          0.00042156445282774517 -0.00044729680308175314 0 -0.00005734544337909956 0 0
          -0.0006097493703982517 0.000035758710824651356 0 0.00040131755751187244 0 0
          0.00021827655046976322 -0.0002621354125213462 0 -0.000006616625366813244 0 0
          -0.0003485363601971063 -0.00001702732787621633 0 0.0002421578235224587 0 0
          0.00010275426226005551 -0.0001395116998848207 0 0.000014031671274418004 0 0
          -0.00017980121347690068 -0.00002177180318828909 0 0.00011670760726636295 0 0
          0.00003094386279497016 -0.00003976349804158328 0 0.000010552389706313376 0 0
          -0.00008043228305305063 -0.000013627874111191724 0 0.00003959813286974799 0 0
          <InformationKey name="L2_NORM_RANGE" location="vtkDataArray" length="2">
            <Value index="0">
              5.1478260943e-05
            </Value>
            <Value index="1">
              0.0014091927526
            </Value>
          </InformationKey>
        </DataArray>
      </CellData>
      <Points>
        <DataArray type="Float32" Name="Points" NumberOfComponents="3" format="ascii" RangeMin="0.4000000059604645" RangeMax="1.0012492197622458">
          0.5 0 0 0.6000000238418579 0.05000000074505806 0
          0.6000000238418579 0 0 0.699999988079071 0.05000000074505806 0
          0.699999988079071 0 0 0.800000011920929 0.05000000074505806 0
          0.800000011920929 0 0 0.8999999761581421 0.05000000074505806 0
          0.8999999761581421 0 0 1 0.05000000074505806 0
          1 0 0 0.5 0.05000000074505806 0
          0.4000000059604645 0 0
          <InformationKey name="L2_NORM_RANGE" location="vtkDataArray" length="2">
            <Value index="0">
              0.40000000596
            </Value>
            <Value index="1">
              1.0012492198
            </Value>
          </InformationKey>
        </DataArray>
      </Points>
      <Cells>
        <DataArray type="Int64" Name="connectivity" format="ascii" RangeMin="0" RangeMax="12">
          0 11 12 1 11 0
          2 1 0 4 3 2
          3 1 2 6 5 4
          5 3 4 8 7 6
          7 5 6 10 9 8
          9 7 8
        </DataArray>
        <DataArray type="Int64" Name="offsets" format="ascii" RangeMin="3" RangeMax="33">
          3 6 9 12 15 18
          21 24 27 30 33
        </DataArray>
        <DataArray type="UInt8" Name="types" format="ascii" RangeMin="5" RangeMax="5">
          5 5 5 5 5 5
          5 5 5 5 5
        </DataArray>
      </Cells>
    </Piece>
  </UnstructuredGrid>
</VTKFile>
