<?xml version="1.0"?>
<VTKFile type="UnstructuredGrid" version="0.1" byte_order="LittleEndian" header_type="UInt32" compressor="vtkZLibDataCompressor">
  <UnstructuredGrid>
    <Piece NumberOfPoints="13" NumberOfCells="11">
      <PointData>
        <DataArray type="Float64" Name="Disp" NumberOfComponents="3" format="ascii" RangeMin="0" RangeMax="0.04264724347283246">
          0 0 0 0 0 0
          -0.00034694847369715753 0.0011125773795798396 0 0.0006697137075667006 0.0010626776723587305 0
          -0.001152353364331186 0.004555169283743487 0 0.0013104677364171322 0.004481123217241894 0
          -0.0017925286806407803 0.011121954935542697 0 0.0021669098001613407 0.01118858611611193 0
          -0.0022998051925554523 0.020044780060720472 0 0.0025920153337266843 0.020071436453299937 0
          -0.0026709353811305184 0.03068221647944644 0 0.00298019563231462 0.030713284910250077 0
          -0.0029212415536121784 0.04254707655781417 0
          <InformationKey name="L2_NORM_RANGE" location="vtkDataArray" length="2">
            <Value index="0">
              0
            </Value>
            <Value index="1">
              0.042647243473
            </Value>
          </InformationKey>
        </DataArray>
        <DataArray type="Float64" Name="Nodal Stress" NumberOfComponents="6" format="ascii" RangeMin="14014.70352725067" RangeMax="1285189.7462276306">
          1118548.3481372192 193446.1516204096 0 602611.7017710436 0 0
          73107.86478941675 -76721.38987051738 0 10535.908106532359 0 0
          -90349.08146432249 -22325.086579227886 0 -18393.593391215265 0 0
          36574.013206348674 9486.278332660853 0 -18448.166360233092 0 0
          9606.88147058033 27560.05173559308 0 26138.007648387163 0 0
          48064.49222864634 9150.362747140147 0 -11430.694212065697 0 0
          -43128.68795992322 -9953.094349615756 0 10645.836152891612 0 0
          22990.243468092456 -10715.641164368179 0 -5239.247132444416 0 0
          -28857.62125695409 -8013.183031600294 0 11165.001797021785 0 0
          17927.803581170534 -7110.240155441656 0 -5036.622835177802 0 0
          -23243.8951022241 -7847.707265792341 0 8195.821906714737 0 0
          11465.515184334528 -7571.603657336361 0 -2761.2849492106625 0 0
          -17067.892555048944 -6782.120307470003 0 6018.761108677872 0 0
          <InformationKey name="L2_NORM_RANGE" location="vtkDataArray" length="2">
            <Value index="0">
              14014.703527
            </Value>
            <Value index="1">
              1285189.7462
            </Value>
          </InformationKey>
        </DataArray>
        <DataArray type="Float64" Name="Nodal Strain" NumberOfComponents="6" format="ascii" RangeMin="0.0011772329643271156" RangeMax="0.10088951249007787">
          0.07298751945192962 -0.026130573032014288 0 0.06456553947546896 0 0
          0.007962039980333962 -0.008091094447516125 0 0.0011288472971284675 0 0
          -0.0056561812981934705 0.001632103868066669 0 -0.0019707421490587807 0 0
          0.002273633860001304 -0.00062862344789382 0 -0.0019765892528821167 0 0
          -0.00029808174265830113 0.0016254722143073514 0 0.0028005008194700526 0 0
          0.0031063793467911625 -0.0010629916690845015 0 -0.0012247172370070387 0 0
          -0.0027251529132225243 0.0008293749735961321 0 0.00114062530209553 0 0
          0.0020248617178768966 -0.0015864830641724578 0 -0.0005613479070476159 0 0
          -0.0017750735529395679 0.00045825911406262483 0 0.0011962501925380487 0 0
          0.0015344945470636689 -0.0011481529961447799 0 -0.0005396381609119073 0 0
          -0.0013800029620948525 0.0002695885918085505 0 0.0008781237757194358 0 0
          0.0010893797866430507 -0.0009503115178216877 0 -0.0002958519588439996 0 0
          -0.0009769166000938528 0.00012513042643246187 0 0.0006448672616440576 0 0
          <InformationKey name="L2_NORM_RANGE" location="vtkDataArray" length="2">
            <Value index="0">
              0.0011772329643
            </Value>
            <Value index="1">
              0.10088951249
            </Value>
          </InformationKey>
        </DataArray>
        <DataArray type="Float64" Name="Sld_traction" NumberOfComponents="3" format="ascii" RangeMin="10807.539361554334" RangeMax="144767.71482136459">
          19757.25167577019 -61144.575891868146 0 -144742.78493421065 -2686.533842851689 0
          99451.16429795914 48016.990349558415 0 9650.194951504827 -4865.86523133317 0
          25357.30002638735 14284.750716792101 0 39002.70396149795 -10411.092519420608 0
          39319.380080172305 -8355.358124761144 0 24507.32217450739 8447.029218212188 0
          25519.179878540283 -8611.745959582558 0 18479.094062925233 7439.593173008534 0
          20541.703618838234 -7907.988818920613 0 13033.927287430819 7332.353073672586 0
          14190.742174259634 -6768.693438010845 0
          <InformationKey name="L2_NORM_RANGE" location="vtkDataArray" length="2">
            <Value index="0">
              10807.539362
            </Value>
            <Value index="1">
              144767.71482
            </Value>
          </InformationKey>
        </DataArray>
        <DataArray type="Float64" Name="Velocity" NumberOfComponents="3" format="ascii" RangeMin="0" RangeMax="5.539839044775907">
          0 0 0 0 0 0
          -0.011639131615043818 0.0304356946306098 0 -0.0011773185706441813 0.040976927001600605 0
          0.0463817942205178 -0.02343193074552774 0 -0.05938118614568422 -0.004470887333349882 0
          0.17233938313537944 -0.45965521175127044 0 -0.1864844088014843 -0.4537833551155135 0
          0.3274656589527263 -1.4688192160724043 0 -0.3396109133565264 -1.4632878267689406 0
          0.5001719433932412 -3.1432033186167665 0 -0.5112296066931443 -3.1454889186487947 0
          0.6619640059603369 -5.500147297739996 0
          <InformationKey name="L2_NORM_RANGE" location="vtkDataArray" length="2">
            <Value index="0">
              0
            </Value>
            <Value index="1">
              5.5398390448
            </Value>
          </InformationKey>
        </DataArray>
        <DataArray type="Float64" Name="Acceleration" NumberOfComponents="3" format="ascii" RangeMin="0" RangeMax="386.657333553018">
          0 0 0 0 0 0
          6.672039448457838 -20.96378462414964 0 -11.404042514480238 -20.76442829029952 0
          16.864272297739262 -76.61294961249496 0 -18.760875233372644 -76.52450242127816 0
          19.992800512716713 -161.99820459171679 0 -25.522435946944825 -163.50643184965338 0
          19.022527187433298 -252.0746878564496 0 -23.266580178886215 -252.87701290964833 0
          14.61738393222231 -330.0795707194047 0 -19.220081222842964 -330.47064197692816 0
          8.8152383643328 -386.55683303093974 0
          <InformationKey name="L2_NORM_RANGE" location="vtkDataArray" length="2">
            <Value index="0">
              0
            </Value>
            <Value index="1">
              386.65733355
            </Value>
          </InformationKey>
        </DataArray>
        <DataArray type="Float64" Name="Sigma" NumberOfComponents="6" format="ascii" RangeMin="40805.02693782365" RangeMax="3140296.2685508835">
          2727471.6107171895 588193.8255315007 0 1440967.484231688 0 0
          -266303.7251450462 -252760.21401006638 0 -238238.50237952912 0 0
          -622490.7567185066 -57887.48354934846 0 -233249.65899967225 0 0
          331529.7162912099 88792.87331918968 0 62773.10813803182 0 0
          42897.72197318639 69230.47043914294 0 88738.13755475645 0 0
          71619.61518644402 7572.30012910253 0 -70755.09988162726 0 0
          -135962.304476867 -29555.709202887934 0 30440.908938970428 0 0
          78947.28774848992 -26480.220193386427 0 -13768.93238051043 0 0
          -74537.4201176271 -2252.970905332752 0 25414.50717039567 0 0
          52982.622511907204 -12257.719341567714 0 -21213.103643375365 0 0
          -61352.540175668786 -9996.872428465853 0 21016.14165068858 0 0
          35949.60868508018 -14917.591010534821 0 -12253.217423539494 0 0
          -43916.65815633007 -7365.776716481081 0 13771.147939879402 0 0
          <InformationKey name="L2_NORM_RANGE" location="vtkDataArray" length="2">
            <Value index="0">
              40805.026938
            </Value>
            <Value index="1">
              3140296.2686
            </Value>
          </InformationKey>
        </DataArray>
        <DataArray type="Float64" Name="Press" format="ascii" RangeMin="-24465.660703522615" RangeMax="15567.359324526285">
          -24465.660703522615 -20152.821036812016 -22871.204578090885 -13122.640668914652 -21821.94066001293 -8145.004295325336
          6388.782514559776 15567.359324526285 -2620.000869051451 5799.6916739579665 985.2104568354723 7025.003511782745
          837.4634638631317
        </DataArray>
        <DataArray type="Float64" Name="Dev strain" NumberOfComponents="6" format="ascii" RangeMin="0.0012485426818314408" RangeMax="0.10127676839831519">
          0.07380854933605416 -0.025309543147889746 0 0.06456553947546896 0 0
          0.00869392388513694 -0.0073592105427131484 0 0.0011288472971284675 0 0
          -0.004911937987944855 0.002376347178315283 0 -0.0019707421490587807 0 0
          0.002858217073756758 -0.00004404023413836465 0 -0.0019765892528821167 0 0
          0.00026724372148482025 0.0021907976784504724 0 0.0028005008194700526 0 0
          0.003336413940265112 -0.0008329570756105529 0 -0.0012247172370070387 0 0
          -0.0028106751263674533 0.0007438527604512029 0 0.00114062530209553 0 0
          0.0017314200315173515 -0.0018799247505320023 0 -0.0005613479070476159 0 0
          -0.0018774190581599699 0.0003559136088422231 0 0.0011962501925380487 0 0
          0.001373420344517166 -0.0013092271986912827 0 -0.0005396381609119073 0 0
          -0.0014686283064618345 0.00018096324744156853 0 0.0008781237757194358 0 0
          0.0009214090026447145 -0.001118282301820024 0 -0.0002958519588439996 0 0
          -0.0010685905228748572 0.00003345650365145738 0 0.0006448672616440576 0 0
          <InformationKey name="L2_NORM_RANGE" location="vtkDataArray" length="2">
            <Value index="0">
              0.0012485426818
            </Value>
            <Value index="1">
              0.1012767684
            </Value>
          </InformationKey>
        </DataArray>
        <DataArray type="Float64" Name="J2 Stresses" format="ascii" RangeMin="794989777.3911239" RangeMax="4411633504484.051">
          4411633504484.051 81592095910.28168 209024202331.6934 59883179344.531166 5285150558.02864 3844925544.1645274
          9911306326.830652 3514334026.891316 2941925731.5244823 1591203927.394096 2042455374.649489 794989777.3911239
          1038874894.0240151
        </DataArray>
      </PointData>
      <CellData>
        <DataArray type="UInt8" Name="vtkGhostType" format="ascii" RangeMin="0" RangeMax="0">
          0 0 0 0 0 0
          0 0 0 0 0
        </DataArray>
        <DataArray type="Float64" Name="Gauss Stress" NumberOfComponents="6" format="ascii" RangeMin="16377.157780031674" RangeMax="676684.632168169">
          -204470.4772853867 -92667.16350801422 0 -136238.3510803898 0 0
          590395.8141784034 70018.81388455346 0 323159.7742841622 0 0
          134319.15594219576 40835.35275439407 0 26918.715270386987 0 0
          -101959.70145370955 14106.691433988566 0 -27246.1377689613 0 0
          9471.912000609242 -11550.83057447037 0 -18027.707774389084 0 0
          -15007.709919338376 7889.632974859676 0 16141.31553736655 0 0
          25379.84675740094 -7414.62010361803 0 -3189.1762844967125 0 0
          -37405.43195865652 -12984.253110524167 0 14028.827909618558 0 0
          13796.532221298261 -7787.42571266407 0 -4150.05980540876 0 0
          -26247.47883988224 -6780.887137874777 0 8405.84839256963 0 0
          -20157.304071479113 -7810.8542410001355 0 7511.357389009498 0 0
          <InformationKey name="L2_NORM_RANGE" location="vtkDataArray" length="2">
            <Value index="0">
              16377.15778
            </Value>
            <Value index="1">
              676684.63217
            </Value>
          </InformationKey>
        </DataArray>
        <DataArray type="Float64" Name="Gauss Strain" NumberOfComponents="6" format="ascii" RangeMin="0.0014217919732427656" RangeMax="0.055057123615477294">
          -0.01129549253795569 0.0006834339381913677 0 -0.014596966187184623 0 0
          0.03967045765972335 -0.016084220943189162 0 0.034624261530445954 0 0
          0.008135819968928483 -0.0018803018011931292 0 0.00288414806468432 0 0
          -0.007786646226478847 0.004649038725774525 0 -0.0029192290466744254 0 0
          0.0010890948062746014 -0.0011633418981982133 0 -0.001931540118684545 0 0
          -0.0013537518861977296 0.0010995348524663472 0 0.0017294266647178438 0 0
          0.002077654057800711 -0.0014360388201656066 0 -0.0003416974590532191 0 0
          -0.0022080932430996033 0.00040846163348600686 0 0.0015030887046019884 0 0
          0.0012635889341164497 -0.0010489779873795145 0 -0.00044464926486522446 0 0
          -0.0016326453764960612 0.0004530608772904529 0 0.0009006266134896032 0 0
          -0.0011608483536413611 0.0001619855567671015 0 0.0008047882916795888 0 0
          <InformationKey name="L2_NORM_RANGE" location="vtkDataArray" length="2">
            <Value index="0">
              0.0014217919732
            </Value>
            <Value index="1">
              0.055057123615
            </Value>
          </InformationKey>
        </DataArray>
      </CellData>
      <Points>
        <DataArray type="Float32" Name="Points" NumberOfComponents="3" format="ascii" RangeMin="0" RangeMax="0.6020797527609908">
          0 0.05000000074505806 0 0 0 0
          0.10000000149011612 0.05000000074505806 0 0.10000000149011612 0 0
          0.20000000298023224 0.05000000074505806 0 0.20000000298023224 0 0
          0.30000001192092896 0.05000000074505806 0 0.30000001192092896 0 0
          0.4000000059604645 0.05000000074505806 0 0.4000000059604645 0 0
          0.5 0.05000000074505806 0 0.5 0 0
          0.6000000238418579 0.05000000074505806 0
          <InformationKey name="L2_NORM_RANGE" location="vtkDataArray" length="2">
            <Value index="0">
              0
            </Value>
            <Value index="1">
              0.60207975276
            </Value>
          </InformationKey>
        </DataArray>
      </Points>
      <Cells>
        <DataArray type="Int64" Name="connectivity" format="ascii" RangeMin="0" RangeMax="12">
          3 2 1 2 0 1
          5 4 3 4 2 3
          7 6 5 6 4 5
          9 8 7 8 6 7
          11 10 9 10 8 9
          12 10 11
        </DataArray>
        <DataArray type="Int64" Name="offsets" format="ascii" RangeMin="3" RangeMax="33">
          3 6 9 12 15 18
          21 24 27 30 33
        </DataArray>
        <DataArray type="UInt8" Name="types" format="ascii" RangeMin="5" RangeMax="5">
          5 5 5 5 5 5
          5 5 5 5 5
        </DataArray>
      </Cells>
    </Piece>
  </UnstructuredGrid>
</VTKFile>
