<?xml version="1.0"?>
<VTKFile type="UnstructuredGrid" version="0.1" byte_order="LittleEndian" header_type="UInt32" compressor="vtkZLibDataCompressor">
  <UnstructuredGrid>
    <Piece NumberOfPoints="13" NumberOfCells="11">
      <PointData>
        <DataArray type="Float64" Name="Disp" NumberOfComponents="3" format="ascii" RangeMin="0" RangeMax="0.05603755996014617">
          0 0 0 0 0 0
          0.00027837258431536496 -0.0009143263768626386 0 -0.0006113127325212771 -0.0008360678547297974 0
          0.00119045844358871 -0.004206017275550127 0 -0.0013746138945149283 -0.0040794388287535045 0
          0.0021653969316917424 -0.011527942173150356 0 -0.002549381943528911 -0.011569804266633121 0
          0.0031119685947495045 -0.02278166078274208 0 -0.0034151248233803074 -0.02278821800529822 0
          0.003991479700485496 -0.03767887397439967 0 -0.0043066186524732715 -0.03771391807057801 0
          0.004728521188048068 -0.0558377042298585 0
          <InformationKey name="L2_NORM_RANGE" location="vtkDataArray" length="2">
            <Value index="0">
              0
            </Value>
            <Value index="1">
              0.05603755996
            </Value>
          </InformationKey>
        </DataArray>
        <DataArray type="Float64" Name="Nodal Stress" NumberOfComponents="6" format="ascii" RangeMin="34298.97908719904" RangeMax="1268019.4680186172">
          -1111672.9883341542 -157296.2530854021 0 -589333.8841842724 0 0
          -76917.34666348704 100871.32625718502 0 -987.9279749335863 0 0
          92128.6580314968 22364.790954270287 0 23097.59990079981 0 0
          -46197.113753352656 -21048.620741577208 0 20752.673649684864 0 0
          -7420.29819788971 -38316.49172526626 0 -25052.327215126905 0 0
          -64072.6459281437 -18403.573755083955 0 17133.378688780846 0 0
          51665.902508041974 1122.537546531607 0 -12776.101151697118 0 0
          -43185.96643882835 2753.033603429355 0 12544.365146228807 0 0
          44306.911882891494 2737.8552861469184 0 -16119.247753532418 0 0
          -39672.74193273646 3379.3479559228736 0 12890.419282284689 0 0
          43463.02482828916 6541.3563662547485 0 -15410.827708131643 0 0
          -31884.80224987257 7837.505482435064 0 9917.301030191562 0 0
          39091.08350380604 9882.102295215 0 -14373.704800227872 0 0
          <InformationKey name="L2_NORM_RANGE" location="vtkDataArray" length="2">
            <Value index="0">
              34298.979087
            </Value>
            <Value index="1">
              1268019.468
            </Value>
          </InformationKey>
        </DataArray>
        <DataArray type="Float64" Name="Nodal Strain" NumberOfComponents="6" format="ascii" RangeMin="0.0029661907809922367" RangeMax="0.10120277053404036">
          -0.07378749012796096 0.028467160077262493 0 -0.06314291616260059 0 0
          -0.009096643556577112 0.00995214282778061 0 -0.00010584942588573955 0 0
          0.005781875896740121 -0.0016928241472484373 0 0.002474742846514264 0 0
          -0.0025480573844688615 0.00014642400964993713 0 0.002223500748180521 0 0
          0.0008384248331959582 -0.0024718816161658145 0 -0.0026841779159064542 0 0
          -0.0039193470750429815 0.0009737678006419921 0 0.0018357191452265192 0 0
          0.0036503309810554407 -0.0017650295505349553 0 -0.0013688679805389768 0 0
          -0.0031830345171816456 0.0017390012016316805 0 0.0013440391228102292 0 0
          0.003066998874272717 -0.0013868286182356305 0 -0.0017270622593070447 0 0
          -0.0029544582793355643 0.0016582656373065074 0 0.0013811163516733596 0 0
          0.0028708819032258427 -0.0010850111462778452 0 -0.0016511601115855327 0 0
          -0.002557396785077864 0.0016985647576693817 0 0.0010625679675205244 0 0
          0.0024392880254427533 -0.0006902456754777153 0 -0.0015400398000244148 0 0
          <InformationKey name="L2_NORM_RANGE" location="vtkDataArray" length="2">
            <Value index="0">
              0.002966190781
            </Value>
            <Value index="1">
              0.10120277053
            </Value>
          </InformationKey>
        </DataArray>
        <DataArray type="Float64" Name="Sld_traction" NumberOfComponents="3" format="ascii" RangeMin="18727.02301965091" RangeMax="140802.7791179622">
          -13067.831383787268 76912.80741021755 0 139528.17854319443 -18902.64531117574 0
          -95090.70658146833 -51032.811955912875 0 -13785.931569992817 12674.757667348535 0
          -27118.88164278286 -23602.97811950761 0 -50246.90645997775 20608.227798573014 0
          -50037.29984458545 -340.6251957247787 0 -42706.09974695152 -391.5667722839835 0
          -43115.29085445851 3903.078840448535 0 -40224.193568362614 -3109.737104534306 0
          -42459.381407208646 7150.17451414505 0 -35144.769977325355 -7059.365710434847 0
          -37138.87456623926 10428.434537504683 0
          <InformationKey name="L2_NORM_RANGE" location="vtkDataArray" length="2">
            <Value index="0">
              18727.02302
            </Value>
            <Value index="1">
              140802.77912
            </Value>
          </InformationKey>
        </DataArray>
        <DataArray type="Float64" Name="Velocity" NumberOfComponents="3" format="ascii" RangeMin="0" RangeMax="8.188770751326448">
          0 0 0 0 0 0
          -0.12213461345972426 0.3842026561740228 0 0.21211301552268225 0.37837772720034335 0
          -0.3229760149013179 1.429627397042931 0 0.3597366024973827 1.4243945679168895 0
          -0.40486962433234397 3.1001009755767654 0 0.5088610793386799 3.1272018731925826 0
          -0.41481686997795486 4.96270090776218 0 0.4940758889136223 4.976845794173002 0
          -0.36246200907157355 6.717106713376072 0 0.44786327722346053 6.725046862264332 0
          -0.28057762093560523 8.183962525354673 0
          <InformationKey name="L2_NORM_RANGE" location="vtkDataArray" length="2">
            <Value index="0">
              0
            </Value>
            <Value index="1">
              8.1887707513
            </Value>
          </InformationKey>
        </DataArray>
        <DataArray type="Float64" Name="Acceleration" NumberOfComponents="3" format="ascii" RangeMin="0" RangeMax="968.3483482600366">
          0 0 0 0 0 0
          37.24901690340778 -115.53023109186734 0 -58.81453274363048 -116.99833607518713 0
          76.66076802052703 -391.5284371888538 0 -83.52425162033524 -395.6422296731871 0
          63.2514392016883 -732.7494888544425 0 -88.69718509507129 -742.272103100473 0
          20.407729121971897 -961.5985162703219 0 -39.75893157255905 -967.5317829085252 0
          -46.45388592681775 -962.4827210697331 0 24.808559408900692 -964.4110413255476 0
          -119.86077290379762 -673.8607941038354 0
          <InformationKey name="L2_NORM_RANGE" location="vtkDataArray" length="2">
            <Value index="0">
              0
            </Value>
            <Value index="1">
              968.34834826
            </Value>
          </InformationKey>
        </DataArray>
        <DataArray type="Float64" Name="Sigma" NumberOfComponents="6" format="ascii" RangeMin="103339.86477320503" RangeMax="3110283.4882069584">
          -2714270.4437711397 -533130.3063792889 0 -1422101.0553062642 0 0
          253261.47459158974 298478.62268937146 0 251736.66924107616 0 0
          627545.9231696251 37555.44128315081 0 235129.90463436273 0 0
          -355373.79464575666 -115092.17729040909 0 -63008.854726234575 0 0
          -31876.59730822351 -81237.77921420598 0 -88962.80271999752 0 0
          -111043.60005402034 -17465.20855766852 0 83014.33908381918 0 0
          165124.540010352 12807.773300803667 0 -41991.98361106976 0 0
          -133472.95859576575 16159.838378554257 0 32432.937150824244 0 0
          121692.96446560026 -7988.009850595168 0 -43293.0619032362 0 0
          -113997.22010268836 9891.089113619802 0 43490.51079459296 0 0
          119997.89719975604 4529.618264285738 0 -43527.513902736464 0 0
          -95477.64414015 18483.288754924557 0 34950.18108097959 0 0
          104986.1385448366 8718.28070667546 0 -37353.17092906981 0 0
          <InformationKey name="L2_NORM_RANGE" location="vtkDataArray" length="2">
            <Value index="0">
              103339.86477
            </Value>
            <Value index="1">
              3110283.4882
            </Value>
          </InformationKey>
        </DataArray>
        <DataArray type="Float64" Name="Press" format="ascii" RangeMin="-14420.536420044864" RangeMax="26623.221171566678">
          26142.01556983866 22461.452308767475 26296.0529960022 17587.7896064776 26623.221171566678 10494.138291164525
          181.09587355492823 -14420.536420044864 8603.340021451368 -7527.8260474494955 3438.6649206220836 -11017.220350909345
          1694.3034677073488
        </DataArray>
        <DataArray type="Float64" Name="Dev strain" NumberOfComponents="6" format="ascii" RangeMin="0.0030208384276800247" RangeMax="0.10161397839002013">
          -0.0746896467033578 0.027565003501865637 0 -0.06314291616260059 0 0
          -0.009927749451235108 0.009121036933122615 0 -0.00010584942588573955 0 0
          0.0049168757820142 -0.002557824261974357 0 0.002474742846514264 0 0
          -0.003275202850462717 -0.0005807214563439186 0 0.002223500748180521 0 0
          0.0001170547983916681 -0.003193251650970105 0 -0.0026841779159064542 0 0
          -0.004275718256661025 0.0006173966190239473 0 0.0018357191452265192 0 0
          0.0035656275876727412 -0.0018497329439176547 0 -0.0013688679805389768 0 0
          -0.0029866415574002717 0.0019353941614130541 0 0.0013440391228102292 0 0
          0.0030332397195468345 -0.001420587772961513 0 -0.0017270622593070447 0 0
          -0.00281600380561085 0.0017967201110312228 0 0.0013811163516733596 0 0
          0.0028892166049634214 -0.0010666764445402665 0 -0.0016511601115855327 0 0
          -0.0023379002228444182 0.0019180613199028275 0 0.0010625679675205244 0 0
          0.0025282894573280244 -0.0006012442435924439 0 -0.0015400398000244148 0 0
          <InformationKey name="L2_NORM_RANGE" location="vtkDataArray" length="2">
            <Value index="0">
              0.0030208384277
            </Value>
            <Value index="1">
              0.10161397839
            </Value>
          </InformationKey>
        </DataArray>
        <DataArray type="Float64" Name="J2 Stresses" format="ascii" RangeMin="5034185036.273836" RangeMax="4331338835630.624">
          4331338835630.624 92458269017.57309 211433666441.7357 70760900540.66362 5786442180.752659 8040702434.84087
          14155908057.17565 9301059379.421328 7905065253.138887 7019456049.790823 7683667503.629914 5034185036.273836
          5897863697.132085
        </DataArray>
      </PointData>
      <CellData>
        <DataArray type="UInt8" Name="vtkGhostType" format="ascii" RangeMin="0" RangeMax="0">
          0 0 0 0 0 0
          0 0 0 0 0
        </DataArray>
        <DataArray type="Float64" Name="Gauss Stress" NumberOfComponents="6" format="ascii" RangeMin="30185.563968084887" RangeMax="665176.7723233628">
          197259.6326755684 95762.39386445345 0 141285.90638306807 0 0
          -586187.8417117719 -40732.240510719406 0 -311744.8271436084 0 0
          -147862.9476462639 -53030.00533102492 0 -22985.772787470953 0 0
          103600.86499656379 -29422.483815805925 0 27719.41572937685 0 0
          -27712.44029825317 2585.700288787998 0 24485.097541191226 0 0
          19834.265994798116 -16198.91971159489 0 -15980.149082416043 0 0
          -46374.07889296563 1572.6317318453002 0 10876.795347393674 0 0
          49236.14845171599 5114.500434574728 0 -17617.369454493906 0 0
          -34861.116173606366 5932.538218364447 0 11637.725990945366 0 0
          44069.27348576397 3648.958807311443 0 -14443.355003793242 0 0
          41207.37988062092 8615.645254435281 0 -15310.167916942233 0 0
          <InformationKey name="L2_NORM_RANGE" location="vtkDataArray" length="2">
            <Value index="0">
              30185.563968
            </Value>
            <Value index="1">
              665176.77232
            </Value>
          </InformationKey>
        </DataArray>
        <DataArray type="Float64" Name="Gauss Strain" NumberOfComponents="6" format="ascii" RangeMin="0.0032203857471035154" RangeMax="0.05544378114189505">
          0.010669888267381548 -0.00020481589095219452 0 0.015137775683900151 0 0
          -0.0404158372468866 0.018025834310369034 0 -0.033401231479672326 0 0
          -0.008667710355767962 0.001492962035150501 0 -0.0024627613700861726 0 0
          0.008450864778890484 -0.005801636879577701 0 0.0029699373995760916 0 0
          -0.0020718064601890846 0.0011744228884224706 0 0.002623403307984774 0 0
          0.0019952661321853975 -0.001865432336356711 0 -0.0017121588302588609 0 0
          -0.003368599625634877 0.001768547941309151 0 0.0011653709300778934 0 0
          0.0033342070167449037 -0.0013931124136630905 0 -0.0018875752986957759 0 0
          -0.0027019560916277563 0.0016687925932262595 0 0.001246899213315575 0 0
          0.003017485291579162 -0.0013132627096836104 0 -0.0015475023218349902 0 0
          0.0026356826609573777 -0.0008562889061339411 0 -0.0016403751339580963 0 0
          <InformationKey name="L2_NORM_RANGE" location="vtkDataArray" length="2">
            <Value index="0">
              0.0032203857471
            </Value>
            <Value index="1">
              0.055443781142
            </Value>
          </InformationKey>
        </DataArray>
      </CellData>
      <Points>
        <DataArray type="Float32" Name="Points" NumberOfComponents="3" format="ascii" RangeMin="0" RangeMax="0.6020797527609908">
          0 0.05000000074505806 0 0 0 0
          0.10000000149011612 0.05000000074505806 0 0.10000000149011612 0 0
          0.20000000298023224 0.05000000074505806 0 0.20000000298023224 0 0
          0.30000001192092896 0.05000000074505806 0 0.30000001192092896 0 0
          0.4000000059604645 0.05000000074505806 0 0.4000000059604645 0 0
          0.5 0.05000000074505806 0 0.5 0 0
          0.6000000238418579 0.05000000074505806 0
          <InformationKey name="L2_NORM_RANGE" location="vtkDataArray" length="2">
            <Value index="0">
              0
            </Value>
            <Value index="1">
              0.60207975276
            </Value>
          </InformationKey>
        </DataArray>
      </Points>
      <Cells>
        <DataArray type="Int64" Name="connectivity" format="ascii" RangeMin="0" RangeMax="12">
          3 2 1 2 0 1
          5 4 3 4 2 3
          7 6 5 6 4 5
          9 8 7 8 6 7
          11 10 9 10 8 9
          12 10 11
        </DataArray>
        <DataArray type="Int64" Name="offsets" format="ascii" RangeMin="3" RangeMax="33">
          3 6 9 12 15 18
          21 24 27 30 33
        </DataArray>
        <DataArray type="UInt8" Name="types" format="ascii" RangeMin="5" RangeMax="5">
          5 5 5 5 5 5
          5 5 5 5 5
        </DataArray>
      </Cells>
    </Piece>
  </UnstructuredGrid>
</VTKFile>
