<?xml version="1.0"?>
<VTKFile type="UnstructuredGrid" version="0.1" byte_order="LittleEndian" header_type="UInt32" compressor="vtkZLibDataCompressor">
  <UnstructuredGrid>
    <Piece NumberOfPoints="13" NumberOfCells="11">
      <PointData>
        <DataArray type="Float64" Name="Disp" NumberOfComponents="3" format="ascii" RangeMin="0.01686948994793183" RangeMax="0.11198370540723485">
          -0.0032572785530253696 -0.027861168118878135 0 0.003648238987711333 -0.04170940320164823 0
          -0.003872790331532624 -0.041744321342071025 0 0.004120681522462469 -0.057802699311914896 0
          -0.004338474124504047 -0.05784920181404188 0 0.004383307113119136 -0.07537929107622914 0
          -0.004605783096090873 -0.07542037557714097 0 0.00446558244748603 -0.09361481558053619 0
          -0.004679696457012572 -0.09364656172881783 0 0.004445957667609175 -0.11188803970220675 0
          -0.004655310661059423 -0.11188689985598575 0 0.003021284637333249 -0.02783953581329734 0
          -0.002537849650600505 -0.016677500120051567 0
          <InformationKey name="L2_NORM_RANGE" location="vtkDataArray" length="2">
            <Value index="0">
              0.016869489948
            </Value>
            <Value index="1">
              0.11198370541
            </Value>
          </InformationKey>
        </DataArray>
        <DataArray type="Float64" Name="Nodal Stress" NumberOfComponents="6" format="ascii" RangeMin="2823.86663106535" RangeMax="35761.13169743052">
          -26881.252487886362 4681.830743277456 0 8597.37518404718 0 0
          31409.932284407547 7071.09671608996 0 -11772.867857450014 0 0
          -19555.111880553028 8256.574015383989 0 6156.9137792486845 0 0
          26903.286918599537 10370.099406120498 0 -10454.97220775043 0 0
          -11238.782121893315 10874.179671808113 0 2979.663556210775 0 0
          20121.22010672038 11036.304166734248 0 -7653.000054211346 0 0
          -4364.917509738888 10342.133153092664 0 318.2254289586683 0 0
          12460.953886593305 8815.415524761038 0 -3932.253248916252 0 0
          -922.3103784071147 6711.700616200642 0 -844.6926454277458 0 0
          6101.947467760405 4095.4202787905797 0 -1223.29548190443 0 0
          -1658.3100784923984 2183.8138242899827 0 -674.6759329151026 0 0
          33572.76979057615 3364.983693672811 0 -11849.242744212115 0 0
          -32234.685690294104 801.7951676392291 0 10540.283894685144 0 0
          <InformationKey name="L2_NORM_RANGE" location="vtkDataArray" length="2">
            <Value index="0">
              2823.8666311
            </Value>
            <Value index="1">
              35761.131697
            </Value>
          </InformationKey>
        </DataArray>
        <DataArray type="Float64" Name="Nodal Strain" NumberOfComponents="6" format="ascii" RangeMin="0.0003002197069694444" RangeMax="0.0028583105578506166">
          -0.002087297704251792 0.0012944612133729027 0 0.000921147341147912 0 0
          0.001991027423311612 -0.0006167049590081295 0 -0.0012613786990125016 0 0
          -0.0016916713491603589 0.001288152139690036 0 0.0006596693334909304 0 0
          0.001551302658252806 -0.0002201102895128049 0 -0.0011201755936875461 0 0
          -0.0011911337112712407 0.0011781121951967694 0 0.0003192496667368688 0 0
          0.0010430762873823755 0.00006969243666957586 0 -0.0008199642915226441 0 0
          -0.0006811417204489441 0.0008946137077115793 0 0.000034095581674143034 0 0
          0.0005752318660151991 0.00018463847010459904 0 -0.00042131284809816984 0 0
          -0.00030558290617910256 0.0005123468432431572 0 -0.00009050278343868703 0 0
          0.0002895883805975083 0.00007460332463645558 0 -0.00013106737306118894 0 0
          -0.00019644407075981355 0.00021521206168115587 0 -0.0000722867070980467 0 0
          0.002277876995981411 -0.0009586715144010903 0 -0.0012695617225941553 0 0
          -0.0023311130910081235 0.0012085098580561632 0 0.0011293161315734084 0 0
          <InformationKey name="L2_NORM_RANGE" location="vtkDataArray" length="2">
            <Value index="0">
              0.00030021970697
            </Value>
            <Value index="1">
              0.0028583105579
            </Value>
          </InformationKey>
        </DataArray>
        <DataArray type="Float64" Name="Sld_traction" NumberOfComponents="3" format="ascii" RangeMin="1975.2314437267353" RangeMax="33716.994891250215">
          -29269.682799418202 -4010.01954888225 0 -30886.122735227116 7677.9052274631185 0
          -23400.190545388316 -7652.928108641005 0 -25328.29357033428 10706.380276540769 0
          -15167.394253880066 -10468.45374450699 0 -16770.798926630097 11016.646421608666 0
          -6581.215791360965 -10281.147739436416 0 -7542.584307391318 8356.001421557497 0
          -787.82271923238 -7008.189933301027 0 373.05237193628847 2739.0935145419667 0
          860.3256412863345 -1778.026728492027 0 -33486.08947144129 3939.2329719402965 0
          -31899.533891684307 -624.0625115247528 0
          <InformationKey name="L2_NORM_RANGE" location="vtkDataArray" length="2">
            <Value index="0">
              1975.2314437
            </Value>
            <Value index="1">
              33716.994891
            </Value>
          </InformationKey>
        </DataArray>
        <DataArray type="Float64" Name="Velocity" NumberOfComponents="3" format="ascii" RangeMin="6.62323020501842" RangeMax="11.924471211918874">
          -0.6218124366821074 -9.11035419613998 0 0.30942944574553666 -11.018634718464622 0
          -0.417395770263407 -11.039343895796131 0 0.011388319000692482 -11.922649994151143 0
          -0.13040812361514353 -11.923758107458283 0 -0.27650929809740354 -11.60311272630226 0
          0.14730181788023478 -11.577547505144935 0 -0.4016257282082081 -10.389350368928149 0
          0.2648705206395854 -10.354954018393911 0 -0.37069371286435704 -9.083308183861156 0
          0.2528671403114533 -9.072024958485521 0 0.5186324813309215 -9.081497708630941 0
          -0.6977401325072912 -6.586375107459114 0
          <InformationKey name="L2_NORM_RANGE" location="vtkDataArray" length="2">
            <Value index="0">
              6.623230205
            </Value>
            <Value index="1">
              11.924471212
            </Value>
          </InformationKey>
        </DataArray>
        <DataArray type="Float64" Name="Acceleration" NumberOfComponents="3" format="ascii" RangeMin="404.4923360125635" RangeMax="1751.617666515754">
          -54.24225376471486 -1124.5872955728282 0 -117.0940385782269 -1058.927707862691 0
          73.05566949265312 -1061.6005417675206 0 -275.1363454759926 -331.40331471866375 0
          246.33295981519768 -320.833481422349 0 -358.88562435434415 925.9133608051852 0
          248.70119058758382 998.7856705339873 0 -9.70282885866527 1751.5907926117434 0
          37.2126003354615 1691.3742245978865 0 100.61373620073391 1385.3043685348384 0
          -53.260482016536116 1438.905482962975 0 46.703089188149534 -1104.9437642065477 0
          -108.56017472200085 -757.6621613354084 0
          <InformationKey name="L2_NORM_RANGE" location="vtkDataArray" length="2">
            <Value index="0">
              404.49233601
            </Value>
            <Value index="1">
              1751.6176665
            </Value>
          </InformationKey>
        </DataArray>
        <DataArray type="Float64" Name="Sigma" NumberOfComponents="6" format="ascii" RangeMin="2747.9501041853164" RangeMax="100077.91631605692">
          -79404.80544644406 12400.413116090287 0 29336.44216416842 0 0
          85418.6594480264 5800.615521017708 0 -31270.563031912337 0 0
          -60681.1928053111 16125.707465823692 0 23955.28192872517 0 0
          70339.96079038228 11913.823706152716 0 -25943.80785748568 0 0
          -37898.97383838278 19282.99874599479 0 15243.573393260789 0 0
          49931.467093052845 13730.337664665747 0 -16923.966960150643 0 0
          -17620.017548189742 17091.32122406052 0 6074.790021512076 0 0
          28636.15098206485 11463.450643527773 0 -6985.117861692321 0 0
          -6355.176754802119 11427.085515145654 0 -55.43873114330909 0 0
          14287.622372788825 4791.291406015127 0 -391.06743742798545 0 0
          -1690.6671366851774 1850.6150172925477 0 -1126.0987815445578 0 0
          94015.95127425123 860.0874333835909 0 -34290.67642622765 0 0
          -91496.37066552525 5170.231997852348 0 34317.0462111104 0 0
          <InformationKey name="L2_NORM_RANGE" location="vtkDataArray" length="2">
            <Value index="0">
              2747.9501042
            </Value>
            <Value index="1">
              100077.91632
            </Value>
          </InformationKey>
        </DataArray>
        <DataArray type="Float64" Name="Press" format="ascii" RangeMin="-8457.738066831735" RangeMax="3475.94316447596">
          -8281.754700775251 1805.6212788256953 -8457.738066831735 -607.370138607166 -8155.966105431633 -2324.107075446737
          -6456.698718263192 -2294.9480382973716 -3405.721742279642 -2735.5238868107685 -2521.5530147477675 3475.94316447596
          -5252.717764810955
        </DataArray>
        <DataArray type="Float64" Name="Dev strain" NumberOfComponents="6" format="ascii" RangeMin="0.0003373786868164891" RangeMax="0.002827269385714136">
          -0.0019300421829729502 0.0014517167346517446 0 0.000921147341147912 0 0
          0.0020498866043723 -0.000557845777947442 0 -0.0012613786990125016 0 0
          -0.0014988509714021438 0.001480972517448251 0 0.0006596693334909304 0 0
          0.0016625827623384932 -0.00010883018542711808 0 -0.0011201755936875461 0 0
          -0.0009836539855397153 0.001385591920928295 0 0.0003192496667368688 0 0
          0.0011801961989209905 0.00020681234820819092 0 -0.0008199642915226441 0 0
          -0.0005039393681132933 0.00107181606004723 0 0.000034095581674143034 0 0
          0.0006899763901614117 0.00029938299425081157 0 -0.00042131284809816984 0 0
          -0.00018810217392640875 0.0006298275754958507 0 -0.00009050278343868703 0 0
          0.0003903474881191489 0.0001753624321580962 0 -0.00013106737306118894 0 0
          -0.00009658378809386761 0.00031507234434710184 0 -0.0000722867070980467 0 0
          0.0022695489918321383 -0.0009669995185503629 0 -0.0012695617225941553 0 0
          -0.002246063479038781 0.0012935594700255058 0 0.0011293161315734084 0 0
          <InformationKey name="L2_NORM_RANGE" location="vtkDataArray" length="2">
            <Value index="0">
              0.00033737868682
            </Value>
            <Value index="1">
              0.0028272693857
            </Value>
          </InformationKey>
        </DataArray>
        <DataArray type="Float64" Name="J2 Stresses" format="ascii" RangeMin="3458590.2710970105" RangeMax="4713832044.639784">
          3444603396.4315686 3909459289.243492 2114586683.8455076 2713094931.183436 962174761.7691616 1412441953.6422467
          310514908.2426337 487917889.74753875 85484045.8408421 113584546.63753921 3458590.2710970105 4713832044.639784
          4493573487.101274
        </DataArray>
      </PointData>
      <CellData>
        <DataArray type="UInt8" Name="vtkGhostType" format="ascii" RangeMin="0" RangeMax="1">
          1 1 0 0 0 0
          0 0 0 0 0
        </DataArray>
        <DataArray type="Float64" Name="Gauss Stress" NumberOfComponents="6" format="ascii" RangeMin="3279.7509602644604" RangeMax="34936.34762372493">
          -28981.25137960945 2790.734415405326 0 9787.60398301706 0 0
          32343.205006120006 5353.641937672663 0 -12074.932431323856 0 0
          -23200.403430836686 6464.2882047168 0 7340.387020327088 0 0
          -15153.760054727385 10033.818535700224 0 4418.349154833428 0 0
          29272.646835494794 8860.219922126971 0 -11086.362986890947 0 0
          -7508.098730887077 11055.961911859833 0 1464.7988182074064 0 0
          23761.6702418556 11279.90559910924 0 -9208.067141458516 0 0
          -2498.8039399224062 9274.82962796458 0 -321.92219044118497 0 0
          16623.948898306884 10403.118566748914 0 -5944.76493344363 0 0
          -807.0067208455503 3135.3977648717164 0 -524.2016500386176 0 0
          9377.467644221259 6415.211299100256 0 -2477.2080100878716 0 0
          <InformationKey name="L2_NORM_RANGE" location="vtkDataArray" length="2">
            <Value index="0">
              3279.7509603
            </Value>
            <Value index="1">
              34936.347624
            </Value>
          </InformationKey>
        </DataArray>
        <DataArray type="Float64" Name="Gauss Strain" NumberOfComponents="6" format="ascii" RangeMin="0.00030955299782920164" RangeMax="0.0027076309824478127">
          -0.0021697584705222934 0.0012343828646578605 0 0.0010486718553232564 0 0
          0.0021190274312345484 -0.0007727114689562384 0 -0.0012937427604989844 0 0
          -0.0018880391095139352 0.0012903207085810816 0 0.000786470037892188 0 0
          -0.0014407620944698212 0.0012579070402188512 0 0.0004733945523035815 0 0
          0.0017744669196022363 -0.00041257882111574466 0 -0.001187824605738316 0 0
          -0.0009311485490583566 0.0010578579483788123 0 0.00015694273052222223 0 0
          0.0012944083887357846 -0.00004292353727275433 0 -0.0009865786222991268 0 0
          -0.0005097299109931927 0.0007517308284232701 0 -0.00003449166326155548 0 0
          0.0008158849724951735 0.00014936743697110505 0 -0.0006369391000118174 0 0
          -0.0001696218288058149 0.0002527786518067494 0 -0.000056164462504137595 0 0
          0.00044070442819079504 0.0001233198197849734 0 -0.00026541514393798617 0 0
          <InformationKey name="L2_NORM_RANGE" location="vtkDataArray" length="2">
            <Value index="0">
              0.00030955299783
            </Value>
            <Value index="1">
              0.0027076309824
            </Value>
          </InformationKey>
        </DataArray>
      </CellData>
      <Points>
        <DataArray type="Float32" Name="Points" NumberOfComponents="3" format="ascii" RangeMin="0.4000000059604645" RangeMax="1.0012492197622458">
          0.5 0 0 0.6000000238418579 0.05000000074505806 0
          0.6000000238418579 0 0 0.699999988079071 0.05000000074505806 0
          0.699999988079071 0 0 0.800000011920929 0.05000000074505806 0
          0.800000011920929 0 0 0.8999999761581421 0.05000000074505806 0
          0.8999999761581421 0 0 1 0.05000000074505806 0
          1 0 0 0.5 0.05000000074505806 0
          0.4000000059604645 0 0
          <InformationKey name="L2_NORM_RANGE" location="vtkDataArray" length="2">
            <Value index="0">
              0.40000000596
            </Value>
            <Value index="1">
              1.0012492198
            </Value>
          </InformationKey>
        </DataArray>
      </Points>
      <Cells>
        <DataArray type="Int64" Name="connectivity" format="ascii" RangeMin="0" RangeMax="12">
          0 11 12 1 11 0
          2 1 0 4 3 2
          3 1 2 6 5 4
          5 3 4 8 7 6
          7 5 6 10 9 8
          9 7 8
        </DataArray>
        <DataArray type="Int64" Name="offsets" format="ascii" RangeMin="3" RangeMax="33">
          3 6 9 12 15 18
          21 24 27 30 33
        </DataArray>
        <DataArray type="UInt8" Name="types" format="ascii" RangeMin="5" RangeMax="5">
          5 5 5 5 5 5
          5 5 5 5 5
        </DataArray>
      </Cells>
    </Piece>
  </UnstructuredGrid>
</VTKFile>
