<?xml version="1.0"?>
<VTKFile type="UnstructuredGrid" version="0.1" byte_order="LittleEndian" header_type="UInt32" compressor="vtkZLibDataCompressor">
  <UnstructuredGrid>
    <Piece NumberOfPoints="13" NumberOfCells="11">
      <PointData>
        <DataArray type="Float64" Name="Disp" NumberOfComponents="3" format="ascii" RangeMin="0" RangeMax="0.04834318478792659">
          0 0 0 0 0 0
          0.00018012289244412154 -0.0006039729312678705 0 -0.00043683818030468415 -0.0005322876036992704 0
          0.0009174007858452055 -0.0030279027476153267 0 -0.0010688693790577393 -0.002908923349359832 0
          0.0018033189633819588 -0.008902949478234168 0 -0.002099050282271968 -0.008923701607608367 0
          0.002714210813529199 -0.018451634138602215 0 -0.002949670857582252 -0.018447735470072748 0
          0.0036051080779586067 -0.03161274910276425 0 -0.0038476509306553754 -0.03164106543395208 0
          0.004378732259158969 -0.04814447236435578 0
          <InformationKey name="L2_NORM_RANGE" location="vtkDataArray" length="2">
            <Value index="0">
              0
            </Value>
            <Value index="1">
              0.048343184788
            </Value>
          </InformationKey>
        </DataArray>
        <DataArray type="Float64" Name="Nodal Stress" NumberOfComponents="6" format="ascii" RangeMin="35408.29951057091" RangeMax="952222.4503177346">
          -838136.7936218425 -103063.57716926988 0 -440036.5997590217 0 0
          -59924.80832815957 86974.84561656672 0 3484.3648139881134 0 0
          70465.3937370078 16926.42054629605 0 19561.257831485327 0 0
          -39255.612595123406 -21049.780958539857 0 16723.95724294445 0 0
          -4675.886598768093 -33759.452949598104 0 -18474.948721499957 0 0
          -55610.15205266689 -18029.074948886748 0 15492.52044781864 0 0
          42848.615898811884 -3068.0223042858443 0 -10610.889730193814 0 0
          -41664.24213358977 -1450.3150293451677 0 12731.56767336975 0 0
          40347.69355820752 -272.5871189536519 0 -14392.593290627652 0 0
          -39694.522192733086 896.6427242268622 0 13238.476120539159 0 0
          41829.29316685101 4364.106927670872 0 -14860.165491696775 0 0
          -33213.76879858002 6042.288739050949 0 10681.010402518423 0 0
          39328.56622514041 8847.36366313511 0 -14582.984621155878 0 0
          <InformationKey name="L2_NORM_RANGE" location="vtkDataArray" length="2">
            <Value index="0">
              35408.299511
            </Value>
            <Value index="1">
              952222.45032
            </Value>
          </InformationKey>
        </DataArray>
        <DataArray type="Float64" Name="Nodal Strain" NumberOfComponents="6" format="ascii" RangeMin="0.002726271079163643" RangeMax="0.07674098200437478">
          -0.05618607178837199 0.022571772831546526 0 -0.04714677854560947 0 0
          -0.007386587938317351 0.008352660698617606 0 0.00037332480149872727 0 0
          0.004428727390275699 -0.0013075911658719892 0 0.002095849053373427 0 0
          -0.002052194436846677 -0.00010156961864129629 0 0.0017918525617440476 0 0
          0.0008717028482879251 -0.0022443935464438614 0 -0.0019794587915892806 0 0
          -0.0033282581841588225 0.0006982857912461925 0 0.0016599129051234256 0 0
          0.0031701876464967716 -0.0017494521609779843 0 -0.001136881042520766 0 0
          -0.0029242203299226564 0.001384414716960694 0 0.0013640965364324728 0 0
          0.002891713365548882 -0.0014604595641469578 0 -0.0015420635668529626 0 0
          -0.002867345968203323 0.0014817074157566716 0 0.0014184081557720527 0 0
          0.0028319456930725414 -0.0011821814039824738 0 -0.001592160588396083 0 0
          -0.002588208083436107 0.0016177980813100686 0 0.0011443939716984021 0 0
          0.002493206028112347 -0.0007726371035310781 0 -0.0015624626379809872 0 0
          <InformationKey name="L2_NORM_RANGE" location="vtkDataArray" length="2">
            <Value index="0">
              0.0027262710792
            </Value>
            <Value index="1">
              0.076740982004
            </Value>
          </InformationKey>
        </DataArray>
        <DataArray type="Float64" Name="Sld_traction" NumberOfComponents="3" format="ascii" RangeMin="17914.352094353693" RangeMax="105989.75612155">
          -6911.794380935607 65146.508705985776 0 103275.48246883742 -23832.816105833976 0
          -70018.99135235068 -39956.831374381705 0 -12264.7501712632 13057.561571632501 0
          -21301.16344639627 -21990.51309193942 0 -43004.8791376814 20114.153891610003 0
          -42612.140156577494 -4115.4862602612675 0 -40383.79562377353 3278.3079411701287 0
          -40425.547002854335 860.0957476770352 0 -40082.25596221468 -427.3978797181426 0
          -41849.5377670753 5068.204192243875 0 -36405.80325888727 -5214.409996245912 0
          -38285.82459403904 9509.471856661501 0
          <InformationKey name="L2_NORM_RANGE" location="vtkDataArray" length="2">
            <Value index="0">
              17914.352094
            </Value>
            <Value index="1">
              105989.75612
            </Value>
          </InformationKey>
        </DataArray>
        <DataArray type="Float64" Name="Velocity" NumberOfComponents="3" format="ascii" RangeMin="0" RangeMax="7.424731241124876">
          0 0 0 0 0 0
          -0.08163026928508926 0.25889655058811456 0 0.1483944364585601 0.25164963119923023 0
          -0.239175646995203 1.0043756935241115 0 0.26899465070677997 0.9948993471014083 0
          -0.3346441110748606 2.3017179663792016 0 0.41185422509890524 2.318621217327622 0
          -0.3898401156936464 3.909327490644243 0 0.4492597681161705 3.9171867066194697 0
          -0.40850783874994745 5.651147388946477 0 0.4718757402222131 5.657083397026334 0
          -0.4046618589556483 7.413695622484262 0
          <InformationKey name="L2_NORM_RANGE" location="vtkDataArray" length="2">
            <Value index="0">
              0
            </Value>
            <Value index="1">
              7.4247312411
            </Value>
          </InformationKey>
        </DataArray>
        <DataArray type="Float64" Name="Acceleration" NumberOfComponents="3" format="ascii" RangeMin="0" RangeMax="1304.5775050119673">
          0 0 0 0 0 0
          47.769843176961444 -147.69842115850884 0 -75.27692661217861 -149.19495233963198 0
          99.83671431562698 -503.0257382162599 0 -107.98417408038677 -507.7581770464358 0
          85.58331204512069 -950.216561321151 0 -117.05883616347273 -962.1984283356542 0
          34.11817751529861 -1265.3485272446123 0 -57.24384623113201 -1272.7265178950693 0
          -47.819226910634825 -1301.9636834813355 0 22.20888918887249 -1304.3884512767836 0
          -138.42261590698854 -981.4613197039143 0
          <InformationKey name="L2_NORM_RANGE" location="vtkDataArray" length="2">
            <Value index="0">
              0
            </Value>
            <Value index="1">
              1304.577505
            </Value>
          </InformationKey>
        </DataArray>
        <DataArray type="Float64" Name="Sigma" NumberOfComponents="6" format="ascii" RangeMin="96824.69181964154" RangeMax="2340424.6505656512">
          -2047918.2700711545 -379061.0774206685 0 -1067675.5142218086 0 0
          185832.27685338855 246035.6890476987 0 196460.64114010957 0 0
          477066.1654822254 19441.233797234625 0 178743.9882674204 0 0
          -279482.3075985061 -98706.05409844057 0 -47780.108361565675 0 0
          -19247.526781374283 -66782.13899920817 0 -67414.38696197775 0 0
          -101518.7359404739 -17590.601690525305 0 68248.29333373246 0 0
          137858.74853092642 2279.7818129321295 0 -36893.42109788699 0 0
          -125190.30758295093 7664.716534310005 0 32816.209852724125 0 0
          112978.0682961091 -10579.494349682967 0 -40684.76958593924 0 0
          -113341.13426656346 6440.7707584302625 0 42789.64099801222 0 0
          116798.94380014822 1006.0599824515333 0 -42920.78257548206 0 0
          -98676.53535574568 15571.882307527807 0 36518.76192851508 0 0
          106527.33294596335 7199.3182512394915 0 -38729.32671458429 0 0
          <InformationKey name="L2_NORM_RANGE" location="vtkDataArray" length="2">
            <Value index="0">
              96824.69182
            </Value>
            <Value index="1">
              2340424.6506
            </Value>
          </InformationKey>
        </DataArray>
        <DataArray type="Float64" Name="Press" format="ascii" RangeMin="-10417.826200275713" RangeMax="22258.716359683258">
          20500.21280745338 17995.906750039627 21394.59095437779 15267.650950011335 22258.716359683258 8967.24905670903
          3035.0054419186004 -10417.826200275713 9150.850408237324 -6474.827107771927 4554.303014542519 -10118.159965886583
          2397.09885569319
        </DataArray>
        <DataArray type="Float64" Name="Dev strain" NumberOfComponents="6" format="ascii" RangeMin="0.003080897990324571" RangeMax="0.0770614287756777">
          -0.05690384788943738 0.021853996730481128 0 -0.04714677854560947 0 0
          -0.00805864451272083 0.00768060412421413 0 0.00037332480149872727 0 0
          0.003721425038211695 -0.0020148935179359942 0 0.002095849053373427 0 0
          -0.002664919663438757 -0.000714294845233377 0 0.0017918525617440476 0 0
          0.0002572632811217444 -0.0028588331136100422 0 -0.0019794587915892806 0 0
          -0.0036533795016980893 0.000373164473706926 0 0.0016599129051234256 0 0
          0.003031144655031597 -0.00188849515244316 0 -0.001136881042520766 0 0
          -0.0028181404979214495 0.0014904945489619002 0 0.0013640965364324728 0 0
          0.0028062696027816502 -0.001545903326914189 0 -0.0015420635668529626 0 0
          -0.00277218334330084 0.0015768700406591544 0 0.0014184081557720527 0 0
          0.002815017737108646 -0.0011991093599463684 0 -0.001592160588396083 0 0
          -0.002398896988517071 0.0018071091762291043 0 0.0011443939716984021 0 0
          0.0025596840088048666 -0.000706159122838558 0 -0.0015624626379809872 0 0
          <InformationKey name="L2_NORM_RANGE" location="vtkDataArray" length="2">
            <Value index="0">
              0.0030808979903
            </Value>
            <Value index="1">
              0.077061428776
            </Value>
          </InformationKey>
        </DataArray>
        <DataArray type="Float64" Name="J2 Stresses" format="ascii" RangeMin="3551335580.619459" RangeMax="2453811021570.475">
          2453811021570.475 57182793582.14091 121972397245.17236 44497357376.89587 3551335580.619459 6472198893.134987
          9845397105.890394 8134906403.407101 6851797427.372875 6901586466.5816 7282051108.982187 5323176067.404503
          6074941610.872633
        </DataArray>
      </PointData>
      <CellData>
        <DataArray type="UInt8" Name="vtkGhostType" format="ascii" RangeMin="0" RangeMax="0">
          0 0 0 0 0 0
          0 0 0 0 0
        </DataArray>
        <DataArray type="Float64" Name="Gauss Stress" NumberOfComponents="6" format="ascii" RangeMin="26300.327821730843" RangeMax="498705.66798963473">
          146024.76113051217 73809.6724669738 0 109141.50701532142 0 0
          -441709.7057412231 -17897.814687954815 0 -230823.62827142613 0 0
          -117918.3179846502 -45528.392807256794 0 -15648.733996603642 0 0
          79085.7631221391 -29042.000345447235 0 21183.16431462565 0 0
          -29088.622231382185 -2020.5583483104178 0 21390.360696189866 0 0
          17117.818889129736 -15943.99600616348 0 -12019.838242044098 0 0
          -44431.725484405215 -1405.269985584338 0 11640.360421599038 0 0
          42471.51296465496 377.6778824797925 0 -14920.660277034043 0 0
          -35752.46996042565 3660.009663097871 0 12129.206783681751 0 0
          41222.06804823393 1365.8875687355826 0 -13605.30372113637 0 0
          40494.32776490501 6870.167481855987 0 -15043.782453850421 0 0
          <InformationKey name="L2_NORM_RANGE" location="vtkDataArray" length="2">
            <Value index="0">
              26300.327822
            </Value>
            <Value index="1">
              498705.66799
            </Value>
          </InformationKey>
        </DataArray>
        <DataArray type="Float64" Name="Gauss Strain" NumberOfComponents="6" format="ascii" RangeMin="0.002816644622146118" RangeMax="0.042158135823383895">
          0.007794280349787521 0.000056949421551267566 0 0.011693732894498723 0 0
          -0.030911485599803265 0.014496931298761192 0 -0.024731103029081374 0 0
          -0.006796722970072987 0.0009593404417905934 0 -0.001676650071064676 0 0
          0.006686197378204482 -0.004898920136179771 0 0.002269624747995605 0 0
          -0.00200559593265907 0.0008945537690986194 0 0.002291824360306057 0 0
          0.001792129778015105 -0.0017502075321948816 0 -0.0012878398116475819 0 0
          -0.0031235064636866467 0.0014864709111870192 0 0.0012471814737427544 0 0
          0.003020191001672504 -0.0014898627571319767 0 -0.0015986421725393616 0 0
          -0.0026844624851410422 0.001538303188807907 0 0.0012995578696801873 0 0
          0.002895651733133296 -0.0013746533182415273 0 -0.0014577111129788966 0 0
          0.0026470888588555038 -0.0009554997428997515 0 -0.0016118338343411166 0 0
          <InformationKey name="L2_NORM_RANGE" location="vtkDataArray" length="2">
            <Value index="0">
              0.0028166446221
            </Value>
            <Value index="1">
              0.042158135823
            </Value>
          </InformationKey>
        </DataArray>
      </CellData>
      <Points>
        <DataArray type="Float32" Name="Points" NumberOfComponents="3" format="ascii" RangeMin="0" RangeMax="0.6020797527609908">
          0 0.05000000074505806 0 0 0 0
          0.10000000149011612 0.05000000074505806 0 0.10000000149011612 0 0
          0.20000000298023224 0.05000000074505806 0 0.20000000298023224 0 0
          0.30000001192092896 0.05000000074505806 0 0.30000001192092896 0 0
          0.4000000059604645 0.05000000074505806 0 0.4000000059604645 0 0
          0.5 0.05000000074505806 0 0.5 0 0
          0.6000000238418579 0.05000000074505806 0
          <InformationKey name="L2_NORM_RANGE" location="vtkDataArray" length="2">
            <Value index="0">
              0
            </Value>
            <Value index="1">
              0.60207975276
            </Value>
          </InformationKey>
        </DataArray>
      </Points>
      <Cells>
        <DataArray type="Int64" Name="connectivity" format="ascii" RangeMin="0" RangeMax="12">
          3 2 1 2 0 1
          5 4 3 4 2 3
          7 6 5 6 4 5
          9 8 7 8 6 7
          11 10 9 10 8 9
          12 10 11
        </DataArray>
        <DataArray type="Int64" Name="offsets" format="ascii" RangeMin="3" RangeMax="33">
          3 6 9 12 15 18
          21 24 27 30 33
        </DataArray>
        <DataArray type="UInt8" Name="types" format="ascii" RangeMin="5" RangeMax="5">
          5 5 5 5 5 5
          5 5 5 5 5
        </DataArray>
      </Cells>
    </Piece>
  </UnstructuredGrid>
</VTKFile>
