<?xml version="1.0"?>
<VTKFile type="UnstructuredGrid" version="0.1" byte_order="LittleEndian" header_type="UInt32" compressor="vtkZLibDataCompressor">
  <UnstructuredGrid>
    <Piece NumberOfPoints="13" NumberOfCells="11">
      <PointData>
        <DataArray type="Float64" Name="Disp" NumberOfComponents="3" format="ascii" RangeMin="0" RangeMax="0.09111840384449098">
          0 0 0 0 0 0
          0.00047288335339779394 -0.0015507698676715067 0 -0.0010247797939871308 -0.001425620463329541 0
          0.0019682159791867804 -0.007038080640725256 0 -0.002271603445870109 -0.0068359803312242435 0
          0.0035329798503775664 -0.01906654429846466 0 -0.004171943736457481 -0.019138388193640943 0
          0.0050418337627119725 -0.03738359073071723 0 -0.005547044445963129 -0.03739521800809301 0
          0.006440485092468929 -0.061495101075631504 0 -0.0069664417296887125 -0.06155033177395726 0
          0.007617076040637267 -0.09079946955659432 0
          <InformationKey name="L2_NORM_RANGE" location="vtkDataArray" length="2">
            <Value index="0">
              0
            </Value>
            <Value index="1">
              0.091118403844
            </Value>
          </InformationKey>
        </DataArray>
        <DataArray type="Float64" Name="Nodal Stress" NumberOfComponents="6" format="ascii" RangeMin="54886.02401488442" RangeMax="2108041.4810999455">
          -1846827.309923767 -267182.38445448485 0 -980653.5304555881 0 0
          -127169.08840204593 163437.14603348583 0 -3238.2763334437864 0 0
          152620.8282657074 37109.97963874163 0 37564.03357305645 0 0
          -75237.53785332109 -33051.44152774488 0 34077.692433592754 0 0
          -12682.790452647729 -61924.76371778948 0 -41733.43997915953 0 0
          -104056.42085885446 -29193.107859497773 0 27560.630131078553 0 0
          84431.40431187663 3000.25099866224 0 -20789.271060411585 0 0
          -69079.48626212445 5457.756288646361 0 19814.16866361681 0 0
          71260.63387504745 4846.177463530513 0 -25919.38704127328 0 0
          -63457.506617011895 5598.587651965147 0 20486.788558010223 0 0
          69423.84407259781 10443.50778077444 0 -24533.380570893307 0 0
          -51076.25225571713 12389.59016419992 0 15817.400015046083 0 0
          62304.388362653604 15505.968310221811 0 -22864.659232597995 0 0
          <InformationKey name="L2_NORM_RANGE" location="vtkDataArray" length="2">
            <Value index="0">
              54886.024015
            </Value>
            <Value index="1">
              2108041.4811
            </Value>
          </InformationKey>
        </DataArray>
        <DataArray type="Float64" Name="Nodal Strain" NumberOfComponents="6" format="ascii" RangeMin="0.004736389484901149" RangeMax="0.1679650186135765">
          -0.1223740084068946 0.0468736621790999 0 -0.10507002112024157 0 0
          -0.014920547244199198 0.016215835016750627 0 -0.00034695817858326067 0 0
          0.009576131317595474 -0.002800031035293718 0 0.004024717882827475 0 0
          -0.004193701220674902 0.00032623767135111814 0 0.0036511813321706537 0 0
          0.001305685100446215 -0.003970240606533259 0 -0.004471439997767093 0 0
          -0.006389990494936111 0.0016310787549949593 0 0.002952924656901273 0 0
          0.00592366277232468 -0.0028011036540911477 0 -0.0022274218993298123 0 0
          -0.005129168886174832 0.002856964244264899 0 0.0021229466425303728 0 0
          0.0049169675102344445 -0.002198867105285229 0 -0.0027770771829935654 0 0
          -0.004732628603071033 0.002666238640033649 0 0.00219501305978681 0 0
          0.004585863584443614 -0.00173345816110889 0 -0.0026285764897385684 0 0
          -0.004090789095558364 0.002709122592289892 0 0.0016947214301835088 0 0
          0.0038965288719673354 -0.001117587562221785 0 -0.002449784917778356 0 0
          <InformationKey name="L2_NORM_RANGE" location="vtkDataArray" length="2">
            <Value index="0">
              0.0047363894849
            </Value>
            <Value index="1">
              0.16796501861
            </Value>
          </InformationKey>
        </DataArray>
        <DataArray type="Float64" Name="Sld_traction" NumberOfComponents="3" format="ascii" RangeMin="29725.22527454842" RangeMax="234214.42124110553">
          -22794.430748633262 125062.93553912248 0 232561.56021817296 -27776.17371408717 0
          -158591.7222549585 -84245.04788859932 0 -22196.774193362933 19770.99474056653 0
          -44681.64297311937 -37759.27780773419 0 -81630.15831624172 32677.441602454834 0
          -81290.27973352112 519.9389535391265 0 -68234.88456551525 -1582.088709506424 0
          -68926.58691342617 6675.185353176332 0 -64002.45427167331 -5267.670626091036 0
          -67625.27605309499 11386.367523325436 0 -56011.56155889475 -11172.175902357565 0
          -59184.925544029094 16379.270243674015 0
          <InformationKey name="L2_NORM_RANGE" location="vtkDataArray" length="2">
            <Value index="0">
              29725.225275
            </Value>
            <Value index="1">
              234214.42124
            </Value>
          </InformationKey>
        </DataArray>
        <DataArray type="Float64" Name="Velocity" NumberOfComponents="3" format="ascii" RangeMin="0" RangeMax="0.9489409849635133">
          0 0 0 0 0 0
          0.0050841887408424324 -0.018851032839406034 0 -0.012984689748137934 -0.018250801251296966 0
          0.020352651398682697 -0.08258263672287924 0 -0.027197263144535855 -0.08119985478314895 0
          0.0346119585616802 -0.21393095961055053 0 -0.04750857502898986 -0.21530902815868203 0
          0.04787406062352506 -0.40549414638657666 0 -0.06112617330468728 -0.4060750029298035 0
          0.06015314029831442 -0.650961384397732 0 -0.07532998584684458 -0.6517152291158474 0
          0.07124456092759113 -0.9462627571038382 0
          <InformationKey name="L2_NORM_RANGE" location="vtkDataArray" length="2">
            <Value index="0">
              0
            </Value>
            <Value index="1">
              0.94894098496
            </Value>
          </InformationKey>
        </DataArray>
        <DataArray type="Float64" Name="Acceleration" NumberOfComponents="3" format="ascii" RangeMin="0" RangeMax="1465.0136965680201">
          0 0 0 0 0 0
          46.03268812582496 -141.14351964425782 0 -73.81484792953665 -141.67188280789583 0
          104.37287987533955 -497.896360063638 0 -112.45397836473057 -501.7305751637923 0
          100.87380024433651 -984.1840705812574 0 -131.2001448152414 -998.0355493223105 0
          51.847136797729945 -1369.84363065246 0 -73.63419787993189 -1380.5062464843286 0
          -43.656767654944815 -1458.6508104726527 0 18.83128357280384 -1464.8926629247944 0
          -165.18895139125925 -1101.2405940283352 0
          <InformationKey name="L2_NORM_RANGE" location="vtkDataArray" length="2">
            <Value index="0">
              0
            </Value>
            <Value index="1">
              1465.0136966
            </Value>
          </InformationKey>
        </DataArray>
        <DataArray type="Float64" Name="Sigma" NumberOfComponents="6" format="ascii" RangeMin="165098.62661543136" RangeMax="5168744.678441464">
          -4508528.103282832 -894292.2077543737 0 -2364177.9416904454 0 0
          422501.78338445723 487928.3094763742 0 415685.300630571 0 0
          1041054.3518013528 65735.73652964816 0 390056.4609279674 0 0
          -586260.1101736818 -186715.00404214446 0 -104582.39335532344 0 0
          -54632.4881440619 -133030.14001279057 0 -147598.23555117636 0 0
          -178519.71538611266 -27551.188079472537 0 135824.91795090062 0 0
          269730.43164108106 23504.012067101896 0 -67753.37656197803 0 0
          -214246.35730781578 28005.271598501553 0 51063.6714491713 0 0
          195341.3228255113 -12516.660046372417 0 -69129.93660203823 0 0
          -182104.95538605013 16032.459370381457 0 69329.70364550578 0 0
          191721.341852595 7344.09439417541 0 -69286.39851042614 0 0
          -152630.52205020303 29436.95239322108 0 55632.239598845445 0 0
          167554.1137257592 13501.767446568609 0 -59476.12567482703 0 0
          <InformationKey name="L2_NORM_RANGE" location="vtkDataArray" length="2">
            <Value index="0">
              165098.62662
            </Value>
            <Value index="1">
              5168744.6784
            </Value>
          </InformationKey>
        </DataArray>
        <DataArray type="Float64" Name="Press" format="ascii" RangeMin="-24005.402929372467" RangeMax="43461.99720094142">
          43105.610429132656 36894.234154794525 43085.37667172527 28466.368707850303 43461.99720094142 17097.21734208154
          -608.2208674838901 -24005.402929372467 13621.27178098422 -12085.43105246826 5392.779586817371 -17618.91057745673
          2764.3300348010935
        </DataArray>
        <DataArray type="Float64" Name="Dev strain" NumberOfComponents="6" format="ascii" RangeMin="0.00482244920871688" RangeMax="0.16864374569166657">
          -0.12385785511836592 0.04538981546762859 0 -0.10507002112024157 0 0
          -0.01628358148125104 0.014852800779698788 0 -0.00034695817858326067 0 0
          0.008160056694423701 -0.004216105658465492 0 0.004024717882827475 0 0
          -0.005377881016774043 -0.0008579421247480235 0 0.0036511813321706537 0 0
          0.00013194607928623445 -0.005143979627693241 0 -0.004471439997767093 0 0
          -0.006963656633322665 0.0010574126166084054 0 0.002952924656901273 0 0
          0.005805753330055511 -0.0029190130963603154 0 -0.0022274218993298123 0 0
          -0.004792875643735484 0.0031932574867042465 0 0.0021229466425303728 0 0
          0.004874317148801237 -0.0022415174667184358 0 -0.0027770771829935654 0 0
          -0.00450611432602926 0.0028927529170754214 0 0.00219501305978681 0 0
          0.004617608834214925 -0.0017017129113375798 0 -0.0026285764897385684 0 0
          -0.0037395714498649605 0.003060340237983294 0 0.0016947214301835088 0 0
          0.00403739942406068 -0.0009767170101284404 0 -0.002449784917778356 0 0
          <InformationKey name="L2_NORM_RANGE" location="vtkDataArray" length="2">
            <Value index="0">
              0.0048224492087
            </Value>
            <Value index="1">
              0.16864374569
            </Value>
          </InformationKey>
        </DataArray>
        <DataArray type="Float64" Name="J2 Stresses" format="ascii" RangeMin="12855041734.454975" RangeMax="11960626440464.559">
          11960626440464.559 251489463365.84167 582093685908.7277 192016074007.6396 15787173240.772001 20926280457.15679
          37801102177.15449 23994773063.95428 20352186624.618996 17911279216.702534 19605655576.751476 12855041734.454975
          15012691756.624887
        </DataArray>
      </PointData>
      <CellData>
        <DataArray type="UInt8" Name="vtkGhostType" format="ascii" RangeMin="0" RangeMax="0">
          0 0 0 0 0 0
          0 0 0 0 0
        </DataArray>
        <DataArray type="Float64" Name="Gauss Stress" NumberOfComponents="6" format="ascii" RangeMin="48979.42350535385" RangeMax="1106218.3037452707">
          328580.668182166 158465.0071660826 0 233719.78940107155 0 0
          -973962.248947123 -72514.31349756627 0 -519478.7267106356 0 0
          -243462.24348432772 -86090.24962784475 0 -38785.2369851997 0 0
          171725.16535470865 -46331.88831492331 0 45958.61067382253 0 0
          -43517.34916920744 5480.563043785366 0 39711.73761269795 0 0
          32176.407262148547 -25708.774116540702 0 -26508.898054084595 0 0
          -74493.18402307037 3017.1695738846943 0 17087.812830879626 0 0
          79944.34838096816 9333.423867786294 0 -28606.547238281655 0 0
          -55775.2325422553 9500.648038223442 0 18558.514911308368 0 0
          70628.77653579653 5929.504677839261 0 -23028.877155652866 0 0
          65727.71085743765 13607.004426042276 0 -24376.761528802588 0 0
          <InformationKey name="L2_NORM_RANGE" location="vtkDataArray" length="2">
            <Value index="0">
              48979.423505
            </Value>
            <Value index="1">
              1106218.3037
            </Value>
          </InformationKey>
        </DataArray>
        <DataArray type="Float64" Name="Gauss Strain" NumberOfComponents="6" format="ascii" RangeMin="0.005140822169728967" RangeMax="0.09198087670652372">
          0.017810583185651766 -0.00041609478035716744 0 0.02504140600725767 0 0
          -0.06697893515702427 0.02960477221257108 0 -0.05565843500471096 0 0
          -0.014315508476457526 0.00254577657959422 0 -0.004155561105557111 0 0
          0.013920793536583598 -0.009442462213734116 0 0.004924136857909553 0 0
          -0.003304116477935724 0.0019456598305992202 0 0.004254829029931925 0 0
          0.0032164853086013526 -0.0029854984105439283 0 -0.0028402390772233506 0 0
          -0.005428697772143765 0.0028759829703871344 0 0.0018308370890228172 0 0
          0.005376974031933933 -0.0021884821659069855 0 -0.003064987204101606 0 0
          -0.0043232540400976426 0.0026705903078107916 0 0.0019884123119258963 0 0
          0.004833144585491208 -0.002098920256432785 0 -0.002467379695248522 0 0
          0.004208872046029751 -0.0013754893573340388 0 -0.0026117958780859907 0 0
          <InformationKey name="L2_NORM_RANGE" location="vtkDataArray" length="2">
            <Value index="0">
              0.0051408221697
            </Value>
            <Value index="1">
              0.091980876707
            </Value>
          </InformationKey>
        </DataArray>
      </CellData>
      <Points>
        <DataArray type="Float32" Name="Points" NumberOfComponents="3" format="ascii" RangeMin="0" RangeMax="0.6020797527609908">
          0 0.05000000074505806 0 0 0 0
          0.10000000149011612 0.05000000074505806 0 0.10000000149011612 0 0
          0.20000000298023224 0.05000000074505806 0 0.20000000298023224 0 0
          0.30000001192092896 0.05000000074505806 0 0.30000001192092896 0 0
          0.4000000059604645 0.05000000074505806 0 0.4000000059604645 0 0
          0.5 0.05000000074505806 0 0.5 0 0
          0.6000000238418579 0.05000000074505806 0
          <InformationKey name="L2_NORM_RANGE" location="vtkDataArray" length="2">
            <Value index="0">
              0
            </Value>
            <Value index="1">
              0.60207975276
            </Value>
          </InformationKey>
        </DataArray>
      </Points>
      <Cells>
        <DataArray type="Int64" Name="connectivity" format="ascii" RangeMin="0" RangeMax="12">
          3 2 1 2 0 1
          5 4 3 4 2 3
          7 6 5 6 4 5
          9 8 7 8 6 7
          11 10 9 10 8 9
          12 10 11
        </DataArray>
        <DataArray type="Int64" Name="offsets" format="ascii" RangeMin="3" RangeMax="33">
          3 6 9 12 15 18
          21 24 27 30 33
        </DataArray>
        <DataArray type="UInt8" Name="types" format="ascii" RangeMin="5" RangeMax="5">
          5 5 5 5 5 5
          5 5 5 5 5
        </DataArray>
      </Cells>
    </Piece>
  </UnstructuredGrid>
</VTKFile>
