<?xml version="1.0"?>
<VTKFile type="UnstructuredGrid" version="0.1" byte_order="LittleEndian" header_type="UInt32" compressor="vtkZLibDataCompressor">
  <UnstructuredGrid>
    <Piece NumberOfPoints="13" NumberOfCells="11">
      <PointData>
        <DataArray type="Float64" Name="Disp" NumberOfComponents="3" format="ascii" RangeMin="0" RangeMax="0.09859037240035391">
          0 0 0 0 0 0
          0.0007855556001871307 -0.002519460696374348 0 -0.0015225727716417982 -0.002402318488057275 0
          0.002636764259286257 -0.010365322220656377 0 -0.0029982791048881637 -0.010190989325235492 0
          0.004132951590744486 -0.025439729000809944 0 -0.004985248774955704 -0.025590247895642872 0
          0.0053312552822875 -0.0460454585758611 0 -0.005995151831756014 -0.0461057142846182 0
          0.0062180094211006336 -0.07072785240359628 0 -0.006919833116879993 -0.07080054398066157 0
          0.006819738231291323 -0.0983542205525372 0
          <InformationKey name="L2_NORM_RANGE" location="vtkDataArray" length="2">
            <Value index="0">
              0
            </Value>
            <Value index="1">
              0.0985903724
            </Value>
          </InformationKey>
        </DataArray>
        <DataArray type="Float64" Name="Nodal Stress" NumberOfComponents="6" format="ascii" RangeMin="33232.292146956825" RangeMax="2932466.9350576494">
          -2553128.9835609496 -437737.5999900622 0 -1374511.0083452864 0 0
          -167199.54227794718 177831.32232746825 0 -23041.23882721379 0 0
          206560.48976018187 51011.00904871327 0 42496.04304776868 0 0
          -84376.10844555454 -22865.927851789507 0 42361.44816376909 0 0
          -21650.511073349022 -64002.39580618299 0 -59589.5551798615 0 0
          -111162.74641917921 -21755.48441045708 0 26660.753854047507 0 0
          99380.88360244596 22003.99860045743 0 -24574.74418297549 0 0
          -54106.09809211943 23902.743347582396 0 12605.639513407674 0 0
          67398.71934509306 18104.90849147708 0 -26026.88434561676 0 0
          -42419.72135190976 16241.454395440076 0 12081.181379812844 0 0
          54853.96335258341 18180.81151582023 0 -19380.823870022305 0 0
          -27324.99859923634 17680.576210118736 0 6717.657163818642 0 0
          40659.611672704385 16054.420179637114 0 -14377.12459035965 0 0
          <InformationKey name="L2_NORM_RANGE" location="vtkDataArray" length="2">
            <Value index="0">
              33232.292147
            </Value>
            <Value index="1">
              2932466.9351
            </Value>
          </InformationKey>
        </DataArray>
        <DataArray type="Float64" Name="Nodal Strain" NumberOfComponents="6" format="ascii" RangeMin="0.0028105408427385563" RangeMax="0.23038656856479886">
          -0.16673287025470843 0.05991620655645802 0 -0.14726903660842353 0 0
          -0.01829394310297723 0.01867364953331728 0 -0.0024687041600586187 0 0
          0.012932498945416092 -0.0037335168450984037 0 0.0045531474694037915 0 0
          -0.005210224608547131 0.001380151883641984 0 0.004538726588975259 0 0
          0.0007393347735530336 -0.0037983671621077504 0 -0.006384595197842304 0 0
          -0.0071632145867107635 0.0024161349142237513 0 0.0028565093415050895 0 0
          0.006312777450158374 -0.0019776030857689667 0 -0.0026330083053188024 0 0
          -0.004718390697565046 0.003639699456688722 0 0.0013506042335793937 0 0
          0.004167590364239609 -0.0011138893700763887 0 -0.0027885947513160815 0 0
          -0.003610032039259272 0.0026750939336710683 0 0.0012944122906942334 0 0
          0.003268825542476664 -0.0006604407257479617 0 -0.0020765168432166753 0 0
          -0.0025832347645925505 0.00223879110783835 0 0.0007197489818377118 0 0
          0.0023308858273489884 -0.0003053846897653625 0 -0.0015404062061099627 0 0
          <InformationKey name="L2_NORM_RANGE" location="vtkDataArray" length="2">
            <Value index="0">
              0.0028105408427
            </Value>
            <Value index="1">
              0.23038656856
            </Value>
          </InformationKey>
        </DataArray>
        <DataArray type="Float64" Name="Sld_traction" NumberOfComponents="3" format="ascii" RangeMin="25431.988422197177" RangeMax="329907.429640638">
          -44432.41075521121 141348.20341122334 0 329885.8320945409 3774.9060100750157 0
          -226614.91035906854 -109931.0283284337 0 -22471.96807431392 11907.841364990845 0
          -58112.44404994314 -33522.36090771994 0 -90189.73034466243 24748.056288458785 0
          -90907.66588853076 18387.83793052995 0 -57650.075921393036 -18694.98075805264 0
          -59952.00566574364 19538.498559600273 0 -43958.1438105103 -16919.385510507735 0
          -48722.950451743716 18361.326339119656 0 -31247.01784347533 -17087.33066038398 0
          -33975.223763896516 16045.260532688593 0
          <InformationKey name="L2_NORM_RANGE" location="vtkDataArray" length="2">
            <Value index="0">
              25431.988422
            </Value>
            <Value index="1">
              329907.42964
            </Value>
          </InformationKey>
        </DataArray>
        <DataArray type="Float64" Name="Velocity" NumberOfComponents="3" format="ascii" RangeMin="0" RangeMax="2.918515632487119">
          0 0 0 0 0 0
          0.12050699096186718 -0.3728633679144414 0 -0.1870623828323199 -0.37840282907961076 0
          0.2388158029308034 -1.2449469839520688 0 -0.2578044654621321 -1.2593937362673655 0
          0.18263955180570202 -2.277869317922919 0 -0.2600149667588485 -2.30706789343834 0
          0.03622791572977713 -2.9000759767921345 0 -0.09340130620188392 -2.9170206878031344 0
          -0.1779509442113656 -2.769023706091602 0 0.11472669917495848 -2.77253928478153 0
          -0.4021100623631675 -1.730387482409924 0
          <InformationKey name="L2_NORM_RANGE" location="vtkDataArray" length="2">
            <Value index="0">
              0
            </Value>
            <Value index="1">
              2.9185156325
            </Value>
          </InformationKey>
        </DataArray>
        <DataArray type="Float64" Name="Acceleration" NumberOfComponents="3" format="ascii" RangeMin="0" RangeMax="872.1137388837387">
          0 0 0 0 0 0
          -5.531699353363422 15.714898942705759 0 10.483566009610058 13.756539371860072 0
          -24.80149529411824 78.27213201468385 0 25.420349688354236 75.91840404180766 0
          -44.40892911332412 222.63544007068413 0 46.92245932521746 224.6661235836291 0
          -56.535780074217655 432.29428215738153 0 56.30726216201583 434.45138072179543 0
          -56.52179671835802 665.590920552444 0 55.88896360202307 668.228192921888 0
          -43.74080018160748 871.0161398902128 0
          <InformationKey name="L2_NORM_RANGE" location="vtkDataArray" length="2">
            <Value index="0">
              0
            </Value>
            <Value index="1">
              872.11373888
            </Value>
          </InformationKey>
        </DataArray>
        <DataArray type="Float64" Name="Sigma" NumberOfComponents="6" format="ascii" RangeMin="97198.67768330402" RangeMax="7166868.443597684">
          -6226127.49110062 -1337050.3562591423 0 -3288105.244243969 0 0
          606783.3389773731 582084.4330321423 0 545393.9445778233 0 0
          1421847.9279570798 129958.09850290511 0 532772.5105289698 0 0
          -759317.8983437744 -205572.833652655 0 -143345.46574297425 0 0
          -96836.0693540331 -159260.31349986346 0 -202674.26002632297 0 0
          -167206.09179011572 -18227.259666410526 0 162819.72683995756 0 0
          313265.3329206871 66030.21682618723 0 -70750.13472333667 0 0
          -184903.60527439858 59684.20187757674 0 33204.940451118484 0 0
          174466.79814205325 4645.840279659753 0 -59771.19641151487 0 0
          -125503.29500530257 28209.27514934897 0 50260.96688392675 0 0
          144876.42162787067 22910.800040085975 0 -49877.11362506567 0 0
          -85815.52433582747 34828.51545284228 0 29500.054876236274 0 0
          104588.0648430619 17411.710304362987 0 -33058.051798684755 0 0
          <InformationKey name="L2_NORM_RANGE" location="vtkDataArray" length="2">
            <Value index="0">
              97198.677683
            </Value>
            <Value index="1">
              7166868.4436
            </Value>
          </InformationKey>
        </DataArray>
        <DataArray type="Float64" Name="Press" format="ascii" RangeMin="-35475.212118098134" RangeMax="56090.43024533522">
          56090.43024533522 46306.52361216124 52620.39692015653 30462.520862870904 50320.08785082116 18830.505991298716
          -13981.97509939922 -35475.212118098134 6428.4460454101045 -13478.595963835774 -2025.1957095517714 -16443.908891327268
          -1860.4559168517358
        </DataArray>
        <DataArray type="Float64" Name="Dev strain" NumberOfComponents="6" format="ascii" RangeMin="0.002975316910575393" RangeMax="0.23127419250244788">
          -0.1686177611566994 0.05803131565446704 0 -0.14726903660842353 0 0
          -0.019977067386000292 0.016990525250294222 0 -0.0024687041600586187 0 0
          0.011219192431823352 -0.005446823358691141 0 0.0045531474694037915 0 0
          -0.006560799383316898 0.000029577108872218354 0 0.004538726588975259 0 0
          -0.0005676444009529903 -0.005105346336613773 0 -0.006384595197842304 0 0
          -0.007700853188482813 0.0018784963124517 0 0.0028565093415050895 0 0
          0.006492636762520764 -0.0017977437734065771 0 -0.0026330083053188024 0 0
          -0.0040558715880736635 0.0043022185661801046 0 0.0013506042335793937 0 0
          0.004391828788943055 -0.0008896509453729417 0 -0.0027885947513160815 0 0
          -0.003241031455566642 0.0030440945173636972 0 0.0012944122906942334 0 0
          0.0034695046908072543 -0.0004597615774173718 0 -0.0020765168432166753 0 0
          -0.002192137827831239 0.0026298880445996616 0 0.0007197489818377118 0 0
          0.00254383879506807 -0.00009243172204628071 0 -0.0015404062061099627 0 0
          <InformationKey name="L2_NORM_RANGE" location="vtkDataArray" length="2">
            <Value index="0">
              0.0029753169106
            </Value>
            <Value index="1">
              0.2312741925
            </Value>
          </InformationKey>
        </DataArray>
        <DataArray type="Float64" Name="J2 Stresses" format="ascii" RangeMin="4506228162.266172" RangeMax="22979092619611.97">
          22979092619611.97 427867792514.97955 1090231955795.0013 314548910977.8619 27639749811.311344 20772620925.39528
          52498974562.853676 19151415616.20755 16123272723.038006 8904961328.846638 11378972766.978607 4506228162.266172
          5894124178.850922
        </DataArray>
      </PointData>
      <CellData>
        <DataArray type="UInt8" Name="vtkGhostType" format="ascii" RangeMin="0" RangeMax="0">
          0 0 0 0 0 0
          0 0 0 0 0
        </DataArray>
        <DataArray type="Float64" Name="Gauss Stress" NumberOfComponents="6" format="ascii" RangeMin="38715.135618666034" RangeMax="1543673.6823826015">
          466234.2699952889 211953.0464258603 0 311606.9964546062 0 0
          -1347492.957796171 -156663.4913154806 0 -736646.263045725 0 0
          -307915.64826097747 -94482.43070464606 0 -61066.66630977985 0 0
          233032.32196437358 -33824.01433858827 0 62250.92825322413 0 0
          -23157.015123341975 25620.15927038493 0 41758.17752257979 0 0
          34797.26350641971 -18762.91253245536 0 -36868.222636567356 0 0
          -59488.488058057235 16671.31842335389 0 7898.236974510128 0 0
          86599.92820541818 29110.505937112157 0 -32438.79689457769 0 0
          -32796.69942599139 18000.296692520802 0 9961.302711699122 0 0
          61588.193045548 15563.52328037242 0 -19795.7810508846 0 0
          47773.133872458115 18273.821759853487 0 -17811.703515838053 0 0
          <InformationKey name="L2_NORM_RANGE" location="vtkDataArray" length="2">
            <Value index="0">
              38715.135619
            </Value>
            <Value index="1">
              1543673.6824
            </Value>
          </InformationKey>
        </DataArray>
        <DataArray type="Float64" Name="Gauss Strain" NumberOfComponents="6" format="ascii" RangeMin="0.0033791742103095905" RangeMax="0.12574476824791156">
          0.025732696198739913 -0.0015117206122702929 0 0.033386463905850663 0 0
          -0.09065437229560216 0.03693449911304319 0 -0.07892638532632769 0 0
          -0.01861960235061818 0.00424824238756019 0 -0.00654285710461927 0 0
          0.01785316636669055 -0.010738583951483931 0 0.006669742312845444 0 0
          -0.0025690781970381747 0.0026570476308611373 0 0.004474090448847834 0 0
          0.0031556228409033832 -0.0025829674489760857 0 -0.00395016671106079 0 0
          -0.004844581947838157 0.0033153973180273222 0 0.0008462396758403708 0 0
          0.005146048231204438 -0.0010135327261140662 0 -0.003475585381561895 0 0
          -0.002985489126589415 0.0024570461718226083 0 0.0010672824333963346 0 0
          0.0038433165289544127 -0.0010878980887429695 0 -0.002120976541166208 0 0
          0.0027597302137522418 -0.00040091036974111184 0 -0.0019083968052683628 0 0
          <InformationKey name="L2_NORM_RANGE" location="vtkDataArray" length="2">
            <Value index="0">
              0.0033791742103
            </Value>
            <Value index="1">
              0.12574476825
            </Value>
          </InformationKey>
        </DataArray>
      </CellData>
      <Points>
        <DataArray type="Float32" Name="Points" NumberOfComponents="3" format="ascii" RangeMin="0" RangeMax="0.6020797527609908">
          0 0.05000000074505806 0 0 0 0
          0.10000000149011612 0.05000000074505806 0 0.10000000149011612 0 0
          0.20000000298023224 0.05000000074505806 0 0.20000000298023224 0 0
          0.30000001192092896 0.05000000074505806 0 0.30000001192092896 0 0
          0.4000000059604645 0.05000000074505806 0 0.4000000059604645 0 0
          0.5 0.05000000074505806 0 0.5 0 0
          0.6000000238418579 0.05000000074505806 0
          <InformationKey name="L2_NORM_RANGE" location="vtkDataArray" length="2">
            <Value index="0">
              0
            </Value>
            <Value index="1">
              0.60207975276
            </Value>
          </InformationKey>
        </DataArray>
      </Points>
      <Cells>
        <DataArray type="Int64" Name="connectivity" format="ascii" RangeMin="0" RangeMax="12">
          3 2 1 2 0 1
          5 4 3 4 2 3
          7 6 5 6 4 5
          9 8 7 8 6 7
          11 10 9 10 8 9
          12 10 11
        </DataArray>
        <DataArray type="Int64" Name="offsets" format="ascii" RangeMin="3" RangeMax="33">
          3 6 9 12 15 18
          21 24 27 30 33
        </DataArray>
        <DataArray type="UInt8" Name="types" format="ascii" RangeMin="5" RangeMax="5">
          5 5 5 5 5 5
          5 5 5 5 5
        </DataArray>
      </Cells>
    </Piece>
  </UnstructuredGrid>
</VTKFile>
