<?xml version="1.0"?>
<VTKFile type="UnstructuredGrid" version="0.1" byte_order="LittleEndian" header_type="UInt32" compressor="vtkZLibDataCompressor">
  <UnstructuredGrid>
    <Piece NumberOfPoints="13" NumberOfCells="11">
      <PointData>
        <DataArray type="Float64" Name="Disp" NumberOfComponents="3" format="ascii" RangeMin="0" RangeMax="0.045823625734111424">
          0 0 0 0 0 0
          0.0004574881770947738 -0.001456752829158565 0 -0.0008477314556773791 -0.0014092230702756141 0
          0.0013923240032297868 -0.00574291186588662 0 -0.0015734465004978908 -0.005677345260698585 0
          0.0020159786784039583 -0.013420111228314702 0 -0.0024697117105784796 -0.013513409779562275 0
          0.0024274418868650157 -0.023228985775639442 0 -0.002779938828814814 -0.023271069219344076 0
          0.002639926793662876 -0.03421793971329932 0 -0.0030156789293524066 -0.0342539293878791 0
          0.0027154809018589115 -0.04574309607898834 0
          <InformationKey name="L2_NORM_RANGE" location="vtkDataArray" length="2">
            <Value index="0">
              0
            </Value>
            <Value index="1">
              0.045823625734
            </Value>
          </InformationKey>
        </DataArray>
        <DataArray type="Float64" Name="Nodal Stress" NumberOfComponents="6" format="ascii" RangeMin="10094.984041252259" RangeMax="1581761.4685588838">
          -1372529.6939641957 -254085.33409436888 0 -744024.3447645115 0 0
          -87671.3447115059 82371.88916518979 0 -17465.13015294625 0 0
          109750.1379388945 27310.966676745436 0 20265.93302106814 0 0
          -40170.901629543885 -6083.5304277243795 0 21480.91775190898 0 0
          -12801.230539544042 -28597.6631679174 0 -32513.1058725307 0 0
          -51194.728580875795 -6785.181126371226 0 11268.411069138552 0 0
          48719.97437927041 16388.586517302792 0 -12008.857672364744 0 0
          -18520.86630010745 16900.73269150051 0 2930.9032958476005 0 0
          27955.18061280746 12299.223220891 0 -11296.47737431665 0 0
          -11610.132330882678 10452.022669751526 0 2431.3359709341757 0 0
          18821.982417683277 10195.05577451843 0 -6590.096381370271 0 0
          -4352.827584748903 9108.318211757847 0 -11.582916177425997 0 0
          10423.601801318777 6797.523439049961 0 -3393.8290287376267 0 0
          <InformationKey name="L2_NORM_RANGE" location="vtkDataArray" length="2">
            <Value index="0">
              10094.984041
            </Value>
            <Value index="1">
              1581761.4686
            </Value>
          </InformationKey>
        </DataArray>
        <DataArray type="Float64" Name="Nodal Strain" NumberOfComponents="6" format="ascii" RangeMin="0.0006299439721005339" RangeMax="0.12337834984356086">
          -0.08896335906550085 0.030869965206266354 0 -0.07971689408191195 0 0
          -0.009204092092435777 0.009014825822924481 0 -0.0018712639449585285 0 0
          0.006863903900037268 -0.0019688644494787 0 0.002171349966543014 0 0
          -0.0026520811725486925 0.0010001371705033962 0 0.0023015269019902476 0 0
          0.0001069715031724753 -0.0015855034212960985 0 -0.0034835470577711455 0 0
          -0.003414438429835013 0.0013437273688619049 0 0.001207329757407702 0 0
          0.0028946915086156435 -0.0005693857623094579 0 -0.0012866633220390798 0 0
          -0.0019265166175612648 0.0018686547029681596 0 0.00031402535312652867 0 0
          0.0015575406430258544 -0.00011988336325090916 0 -0.0012103368615339267 0 0
          -0.0012025816904113172 0.0011612206310852044 0 0.00026050028260009024 0 0
          0.0009803181807445762 0.000056004611834056585 0 -0.0007060817551468148 0 0
          -0.0006362133350448446 0.00080605228600945 0 -0.0000012410267332956536 0 0
          0.0005017742915566998 0.00011326589559932664 0 -0.00036362453879331715 0 0
          <InformationKey name="L2_NORM_RANGE" location="vtkDataArray" length="2">
            <Value index="0">
              0.0006299439721
            </Value>
            <Value index="1">
              0.12337834984
            </Value>
          </InformationKey>
        </DataArray>
        <DataArray type="Float64" Name="Sld_traction" NumberOfComponents="3" format="ascii" RangeMin="9184.306129953691" RangeMax="180193.24293910788">
          -27386.12199795209 67311.47481517094 0 179678.47214872984 13610.710753317275 0
          -123825.96732973859 -57336.481066880966 0 -9834.455708177087 2221.720563324561 0
          -30194.809131681985 -13036.146835256399 0 -42370.02626134096 7876.039286614386 0
          -43004.83810204429 14366.682823054538 0 -21315.61183985139 -14169.839823997048 0
          -22837.466331049534 12760.26106653344 0 -12267.632012664646 -11142.657182220864 0
          -14706.57871869377 10007.82711607945 0 -5456.014710461119 -9072.323881980908 0
          -6471.7386601100925 6516.753624615662 0
          <InformationKey name="L2_NORM_RANGE" location="vtkDataArray" length="2">
            <Value index="0">
              9184.30613
            </Value>
            <Value index="1">
              180193.24294
            </Value>
          </InformationKey>
        </DataArray>
        <DataArray type="Float64" Name="Velocity" NumberOfComponents="3" format="ascii" RangeMin="0" RangeMax="6.919191226083574">
          0 0 0 0 0 0
          0.04437813477309757 -0.14375803520339003 0 -0.09063402101486268 -0.13480738634032896 0
          0.16527543949558593 -0.6197042992293678 0 -0.1893482571128552 -0.6057246185507879 0
          0.27815550815740364 -1.5976833604917253 0 -0.3316573617953955 -1.6054415173886039 0
          0.3792321021182423 -3.014091724296735 0 -0.4212236856396854 -3.0165262767770225 0
          0.46563098053467356 -4.801764230784091 0 -0.5096951503797688 -4.806437637720238 0
          0.5334295702165386 -6.89859841683298 0
          <InformationKey name="L2_NORM_RANGE" location="vtkDataArray" length="2">
            <Value index="0">
              0
            </Value>
            <Value index="1">
              6.9191912261
            </Value>
          </InformationKey>
        </DataArray>
        <DataArray type="Float64" Name="Acceleration" NumberOfComponents="3" format="ascii" RangeMin="0" RangeMax="1019.455568285343">
          0 0 0 0 0 0
          -29.706646766252817 92.60514715853083 0 48.22373673444383 93.04357400947595 0
          -65.87057489009987 322.0535859270585 0 72.3494276312125 323.98421608929993 0
          -63.82391772137919 631.1213656624814 0 85.58006904267768 638.2290790956959 0
          -40.867744555657964 890.4723265183056 0 57.422493936786395 894.5432308634281 0
          -1.2351358258727032 1017.8932010274057 0 19.448566066557987 1019.270037323744 0
          42.97088639121148 971.2828458489748 0
          <InformationKey name="L2_NORM_RANGE" location="vtkDataArray" length="2">
            <Value index="0">
              0
            </Value>
            <Value index="1">
              1019.4555683
            </Value>
          </InformationKey>
        </DataArray>
        <DataArray type="Float64" Name="Sigma" NumberOfComponents="6" format="ascii" RangeMin="23217.40814405835" RangeMax="3858751.180173167">
          -3345080.8395103053 -746352.0208243917 0 -1772950.5093600862 0 0
          332222.22002302983 287551.4293919824 0 285176.1641793824 0 0
          759591.2470154485 80581.83975397733 0 284627.47548274347 0 0
          -394438.45406505355 -96119.42469026874 0 -76730.13954650059 0 0
          -57774.73667920613 -79013.64442955589 0 -108515.19654932038 0 0
          -68852.3333044478 -4550.634476633144 0 80751.12825568268 0 0
          152512.5783176311 44156.7841355218 0 -31735.54407555377 0 0
          -70656.96181787267 37317.789159427426 0 7945.784091815544 0 0
          68755.02186006484 7599.140749229472 0 -22571.65576073035 0 0
          -35842.55184567193 16089.781947897698 0 15359.406416163527 0 0
          47182.88009829442 14788.30270067894 0 -15002.630867822048 0 0
          -15762.093311909686 16515.929973884577 0 4222.382319518201 0 0
          24746.034854529247 8325.546474351555 0 -5657.293080144068 0 0
          <InformationKey name="L2_NORM_RANGE" location="vtkDataArray" length="2">
            <Value index="0">
              23217.408144
            </Value>
            <Value index="1">
              3858751.1802
            </Value>
          </InformationKey>
        </DataArray>
        <DataArray type="Float64" Name="Press" format="ascii" RangeMin="-19595.159539228975" RangeMax="29149.72283581256">
          29149.72283581256 23568.024832667234 26361.96562105565 13931.40835170191 24421.83451671701 8852.922226303655
          -10950.230870737598 -19595.159539228975 366.5530427998033 -6263.549234379749 -3296.0647343796036 -6687.547354829638
          -2213.229435101478
        </DataArray>
        <DataArray type="Float64" Name="Dev strain" NumberOfComponents="6" format="ascii" RangeMin="0.0007492665474695277" RangeMax="0.1238400584883168">
          -0.08992969331661999 0.029903630955147177 0 -0.07971689408191195 0 0
          -0.01005265085029423 0.008166267065066027 0 -0.0018712639449585285 0 0
          0.006010504443347979 -0.002822263906167992 0 0.002171349966543014 0 0
          -0.00329963176018181 0.0003525865828702783 0 0.0023015269019902476 0 0
          -0.0005106219581567841 -0.0022030968826253585 0 -0.0034835470577711455 0 0
          -0.003635858041329816 0.0011223077573671019 0 0.001207329757407702 0 0
          0.0030803982713857613 -0.0003836789995393402 0 -0.0012866633220390798 0 0
          -0.0015213114392894625 0.002273859881239962 0 0.00031402535312652867 0 0
          0.001747315627833997 0.00006989162155723342 0 -0.0012103368615339267 0 0
          -0.0009950726854009103 0.0013687296360956117 0 0.00026050028260009024 0 0
          0.0011217624009142132 0.0001974488320036938 0 -0.0007060817551468148 0 0
          -0.00045557334305093106 0.0009866922780033638 0 -0.0000012410267332956536 0 0
          0.0006147944261849594 0.00022628603022758614 0 -0.00036362453879331715 0 0
          <InformationKey name="L2_NORM_RANGE" location="vtkDataArray" length="2">
            <Value index="0">
              0.00074926654747
            </Value>
            <Value index="1">
              0.12384005849
            </Value>
          </InformationKey>
        </DataArray>
        <DataArray type="Float64" Name="J2 Stresses" format="ascii" RangeMin="265066892.3508485" RangeMax="6659141958083.86">
          6659141958083.86 116860075165.21785 311989347670.2299 83882197502.71518 7734425072.730356 4010862216.444776
          12856740254.584166 3208295691.7483354 2519869896.4975247 830762644.3345087 1278728768.8074996 265066892.3508485
          348841723.8077435
        </DataArray>
      </PointData>
      <CellData>
        <DataArray type="UInt8" Name="vtkGhostType" format="ascii" RangeMin="0" RangeMax="0">
          0 0 0 0 0 0
          0 0 0 0 0
        </DataArray>
        <DataArray type="Float64" Name="Gauss Stress" NumberOfComponents="6" format="ascii" RangeMin="12553.439878380414" RangeMax="834275.3696533964">
          253745.47059294983 111958.41442037189 0 164357.83337187505 0 0
          -724729.2197274301 -99713.01279629885 0 -401048.95656598656 0 0
          -157953.11965132828 -44159.17950057839 0 -34831.40261337941 0 0
          124031.08825355451 -9945.340292124249 0 33127.37979564081 0 0
          -2896.394996117444 18410.490211551056 0 18987.122757314813 0 0
          16070.011402086759 -5694.322966128049 0 -19833.204123063824 0 0
          -21078.882511429554 11838.185375248559 0 244.5115824162408 0 0
          40143.93366421884 19631.625559003973 0 -15453.805248156195 0 0
          -6889.642127625397 10382.28443295741 0 1526.3859559532266 0 0
          23634.096395575925 9761.388157282188 0 -7404.960070796294 0 0
          14656.660038867756 9144.312541534784 0 -5479.180542815972 0 0
          <InformationKey name="L2_NORM_RANGE" location="vtkDataArray" length="2">
            <Value index="0">
              12553.439878
            </Value>
            <Value index="1">
              834275.36965
            </Value>
          </InformationKey>
        </DataArray>
        <DataArray type="Float64" Name="Gauss Strain" NumberOfComponents="6" format="ascii" RangeMin="0.0009382550088126199" RangeMax="0.0672464868270762">
          0.014126161670197417 -0.001065308634007357 0 0.017609767861272326 0 0
          -0.04820519380923436 0.018760828361958304 0 -0.042969531060641414 0 0
          -0.009705252135788506 0.0024869557375061238 0 -0.0037319359942906516 0 0
          0.009214554171401183 -0.005140063172778678 0 0.0035493621209615155 0 0
          -0.0008644028644209263 0.001418477693543556 0 0.002034334581140873 0 0
          0.0013512266346536277 -0.0009806663333693883 0 -0.0021249861560425527 0 0
          -0.0019284267999324172 0.001598401902211667 0 0.000026197669544597276 0 0
          0.002166294348908347 -0.000031452948078960347 0 -0.0016557648480167348 0 0
          -0.000862913167436007 0.0009876503926264364 0 0.00016354135242356002 0 0
          0.001339528736923917 -0.000146832860036127 0 -0.0007933885790138885 0 0
          0.0007203216977214549 0.00012971303729292195 0 -0.000587055058158854 0 0
          <InformationKey name="L2_NORM_RANGE" location="vtkDataArray" length="2">
            <Value index="0">
              0.00093825500881
            </Value>
            <Value index="1">
              0.067246486827
            </Value>
          </InformationKey>
        </DataArray>
      </CellData>
      <Points>
        <DataArray type="Float32" Name="Points" NumberOfComponents="3" format="ascii" RangeMin="0" RangeMax="0.6020797527609908">
          0 0.05000000074505806 0 0 0 0
          0.10000000149011612 0.05000000074505806 0 0.10000000149011612 0 0
          0.20000000298023224 0.05000000074505806 0 0.20000000298023224 0 0
          0.30000001192092896 0.05000000074505806 0 0.30000001192092896 0 0
          0.4000000059604645 0.05000000074505806 0 0.4000000059604645 0 0
          0.5 0.05000000074505806 0 0.5 0 0
          0.6000000238418579 0.05000000074505806 0
          <InformationKey name="L2_NORM_RANGE" location="vtkDataArray" length="2">
            <Value index="0">
              0
            </Value>
            <Value index="1">
              0.60207975276
            </Value>
          </InformationKey>
        </DataArray>
      </Points>
      <Cells>
        <DataArray type="Int64" Name="connectivity" format="ascii" RangeMin="0" RangeMax="12">
          3 2 1 2 0 1
          5 4 3 4 2 3
          7 6 5 6 4 5
          9 8 7 8 6 7
          11 10 9 10 8 9
          12 10 11
        </DataArray>
        <DataArray type="Int64" Name="offsets" format="ascii" RangeMin="3" RangeMax="33">
          3 6 9 12 15 18
          21 24 27 30 33
        </DataArray>
        <DataArray type="UInt8" Name="types" format="ascii" RangeMin="5" RangeMax="5">
          5 5 5 5 5 5
          5 5 5 5 5
        </DataArray>
      </Cells>
    </Piece>
  </UnstructuredGrid>
</VTKFile>
