<?xml version="1.0"?>
<VTKFile type="UnstructuredGrid" version="0.1" byte_order="LittleEndian" header_type="UInt32" compressor="vtkZLibDataCompressor">
  <UnstructuredGrid>
    <Piece NumberOfPoints="13" NumberOfCells="11">
      <PointData>
        <DataArray type="Float64" Name="Disp" NumberOfComponents="3" format="ascii" RangeMin="0.0328024209654721" RangeMax="0.1234662059837928">
          0.004102952933940801 0.04758738383171818 0 -0.003620215497629041 0.06306887447053221 0
          0.004138252596765675 0.06309936476293106 0 -0.0035655096373691437 0.0785233126402462 0
          0.004081995600834033 0.078530930981328 0 -0.0034946324571233367 0.09367260112955611 0
          0.004006846406692152 0.09367027209029609 0 -0.0034531227451793036 0.10857077784892585 0
          0.00396740279925732 0.1085605688356705 0 -0.0034566024002865886 0.1234027123741691 0
          0.003967540570728853 0.1234024417985802 0 -0.0035724922938233624 0.04753700321261974 0
          0.00383085717659404 0.032577958108030367 0
          <InformationKey name="L2_NORM_RANGE" location="vtkDataArray" length="2">
            <Value index="0">
              0.032802420965
            </Value>
            <Value index="1">
              0.12346620598
            </Value>
          </InformationKey>
        </DataArray>
        <DataArray type="Float64" Name="Nodal Stress" NumberOfComponents="6" format="ascii" RangeMin="1062.6834357700927" RangeMax="29447.991143475683">
          3671.734159891845 -12843.373856986593 0 885.5540657723936 0 0
          -12064.269849933413 -9231.071393308985 0 3782.578299779809 0 0
          -420.4085553710736 -6818.878720863271 0 1594.871186131643 0 0
          -3294.816012620229 -4021.389741378818 0 601.9894123865457 0 0
          -1675.0943482866999 -2333.015963203681 0 1453.5482306504086 0 0
          1083.2381804662025 -202.17866426611167 0 -988.0448061249604 0 0
          -898.2364824049903 878.1023952566388 0 692.0368704649651 0 0
          2615.7007618437874 1914.805097522547 0 -1122.001546477049 0 0
          12.140844033204436 1952.2637000303366 0 -29.217054186839757 0 0
          2063.95569174726 1590.0586545806027 0 -520.4435238035576 0 0
          -199.9820310883357 1027.293221011822 0 -184.3147036051882 0 0
          -24158.199723463636 -14571.746246867184 0 8439.773683243877 0 0
          13769.579669261966 -15231.299569211038 0 -2482.651354826209 0 0
          <InformationKey name="L2_NORM_RANGE" location="vtkDataArray" length="2">
            <Value index="0">
              1062.6834358
            </Value>
            <Value index="1">
              29447.991143
            </Value>
          </InformationKey>
        </DataArray>
        <DataArray type="Float64" Name="Nodal Strain" NumberOfComponents="6" format="ascii" RangeMin="0.00009732316212119679" RangeMax="0.0022134992315819726">
          0.000720958649170367 -0.001048517209780894 0 0.00009488079276132787 0 0
          -0.0005320524395199231 -0.0002284954620244485 0 0.0004052762464049797 0 0
          0.00021350220036146867 -0.00047204817451269534 0 0.00017087905565696176 0 0
          -0.00009172293870934429 -0.00016957012393347887 0 0.00006449886561284417 0 0
          -0.000036327597620347096 -0.0001068191992185951 0 0.0001557373104268295 0 0
          0.00008459482232851847 -0.00005312841103565806 0 -0.00010586194351338863 0 0
          -0.00009552054857380783 0.00009480147403279529 0 0.00007414680754981767 0 0
          0.00011844987236303674 0.0000433539083286181 0 -0.00012021445140825527 0 0
          -0.00006885650042728313 0.00013901380557240962 0 -0.000003130398662875688 0 0
          0.00009063759746121137 0.000039862914907640925 0 -0.000055761806121809736 0 0
          -0.00005097347439958905 0.00008052030261114215 0 -0.00001974800395769874 0 0
          -0.0012051661857164322 -0.00017804617036681176 0 0.0009042614660618438 0 0
          0.0015275163895619637 -0.0015797206717030013 0 -0.0002659983594456653 0 0
          <InformationKey name="L2_NORM_RANGE" location="vtkDataArray" length="2">
            <Value index="0">
              9.7323162121e-05
            </Value>
            <Value index="1">
              0.0022134992316
            </Value>
          </InformationKey>
        </DataArray>
        <DataArray type="Float64" Name="Sld_traction" NumberOfComponents="3" format="ascii" RangeMin="811.8152235889514" RangeMax="23052.219606368773">
          5027.275491220043 12858.162995883016 0 6361.460037836345 -8766.164460253958 0
          -1194.1392439145402 7404.412374371947 0 -286.27684384547155 -3672.5315184953433 0
          -3149.247721649799 2741.780207673402 0 -2925.5906194901345 56.12068913597829 0
          -2536.311311254363 -542.234922288375 0 -2475.6802222027363 1904.2993526080916 0
          -820.3834108566243 -1830.845226161434 0 -75.50316735608232 936.4585822319555 0
          216.14259241036115 -782.5128350365301 0 18127.94170093772 -14240.174102434848 0
          14700.417585352407 16281.27996099368 0
          <InformationKey name="L2_NORM_RANGE" location="vtkDataArray" length="2">
            <Value index="0">
              811.81522359
            </Value>
            <Value index="1">
              23052.219606
            </Value>
          </InformationKey>
        </DataArray>
        <DataArray type="Float64" Name="Velocity" NumberOfComponents="3" format="ascii" RangeMin="3.2094469332310065" RangeMax="14.459264318059814">
          0.458528767877703 4.827463076538635 0 -0.44171792249688147 6.632513676848891 0
          0.49018390537093603 6.6363909454146395 0 -0.4601154409126076 8.541201098794172 0
          0.5080405001540458 8.543809556646181 0 -0.46823645345066156 10.499178237131147 0
          0.5160149969467571 10.500812220381817 0 -0.47046205769572325 12.47474583594439 0
          0.5175897357434929 12.475744184108976 0 -0.46981697249021614 14.450068288992163 0
          0.516663603961091 14.450030565360741 0 -0.40867878444197303 4.822574660225328 0
          0.40379539386422714 3.1839439217925847 0
          <InformationKey name="L2_NORM_RANGE" location="vtkDataArray" length="2">
            <Value index="0">
              3.2094469332
            </Value>
            <Value index="1">
              14.459264318
            </Value>
          </InformationKey>
        </DataArray>
        <DataArray type="Float64" Name="Acceleration" NumberOfComponents="3" format="ascii" RangeMin="248.78578560021353" RangeMax="1599.0861880153714">
          -26.439301279066513 -1598.8675992868848 0 -74.24029845703899 -1501.6873566937793 0
          45.67563566358467 -1500.5913484581615 0 -138.2381431829358 -1126.5782254230362 0
          108.71647065526213 -1122.0190628322234 0 -180.14804339720604 -533.5558881442266 0
          151.4792984268911 -528.6255740740671 0 -198.08330369088753 178.728511866575 0
          167.1050409150821 184.3102612918883 0 -195.38759757345224 909.728105723334 0
          164.64729160842808 909.7066052813461 0 -2.196078132857565 -1596.6833114414148 0
          -88.58318037254958 -1414.2867391892069 0
          <InformationKey name="L2_NORM_RANGE" location="vtkDataArray" length="2">
            <Value index="0">
              248.7857856
            </Value>
            <Value index="1">
              1599.086188
            </Value>
          </InformationKey>
        </DataArray>
        <DataArray type="Float64" Name="Sigma" NumberOfComponents="6" format="ascii" RangeMin="1207.5363143381435" RangeMax="66007.1537507296">
          15054.353676974315 -22913.37474403875 0 -3211.469586948559 0 0
          -27569.279197559525 -11600.470203802284 0 5132.629886282389 0 0
          1100.795811127667 -10948.40813743341 0 1689.9293858359902 0 0
          -5850.45968788911 -5646.83534067437 0 -835.7498870721427 0 0
          -4929.677084334307 -3793.2336398051066 0 3616.5875070918405 0 0
          3640.634994210228 -443.2838198747716 0 -3507.291401066642 0 0
          -3902.738138940083 1193.3346971825238 0 2739.2069156954412 0 0
          6110.839854523189 2520.6936937270602 0 -2688.6282256020977 0 0
          -1826.4894212178858 3124.8265992190786 0 644.4526976525685 0 0
          4985.640344359816 2104.9104382475607 0 -592.2770297413826 0 0
          -325.44361222149763 1093.8138348164632 0 -394.71724116596937 0 0
          -59585.32050407701 -21569.552595193745 0 18473.99056896066 0 0
          43260.943575243626 -23033.93195793914 0 -19007.70398536201 0 0
          <InformationKey name="L2_NORM_RANGE" location="vtkDataArray" length="2">
            <Value index="0">
              1207.5363143
            </Value>
            <Value index="1">
              66007.153751
            </Value>
          </InformationKey>
        </DataArray>
        <DataArray type="Float64" Name="Press" format="ascii" RangeMin="-926.6219008771557" RangeMax="8967.760751846072">
          8967.760751846072 3434.0927423751136 3972.464611961225 2089.121125509943 1216.1474876548364 805.3290309875858
          -359.72780914967115 -74.43618819801735 -628.7584654699674 -826.1895558279983 -926.6219008771557 5195.789894543098
          8643.353476883927
        </DataArray>
        <DataArray type="Float64" Name="Dev strain" NumberOfComponents="6" format="ascii" RangeMin="0.00011385162113070761" RangeMax="0.002259604512424343">
          0.0004719046376413254 -0.0012975712213099356 0 0.00009488079276132787 0 0
          -0.0006920819579780133 -0.0003885249804825388 0 0.0004052762464049797 0 0
          0.00007937980855480683 -0.0006061705663193571 0 0.00017087905565696176 0 0
          -0.00017253059563093504 -0.00025037778085506966 0 0.00006449886561284417 0 0
          -0.00008602557988741744 -0.00015651718148566545 0 0.0001557373104268295 0 0
          0.000059120124470638186 -0.00007860310889353834 0 -0.00010586194351338863 0 0
          -0.00009519557194543279 0.00009512645066117034 0 0.00007414680754981767 0 0
          0.00012572502177752424 0.00005062905774310557 0 -0.00012021445140825527 0 0
          -0.0000484393814067514 0.00015943092459294136 0 -0.000003130398662875688 0 0
          0.00011547390658320739 0.00006469922402963692 0 -0.000055761806121809736 0 0
          -0.000021436047408050853 0.00011005772960268033 0 -0.00001974800395769874 0 0
          -0.0014136130500184835 -0.0003864930346688634 0 0.0009042614660618438 0 0
          0.001231441290676433 -0.001875795770588533 0 -0.0002659983594456653 0 0
          <InformationKey name="L2_NORM_RANGE" location="vtkDataArray" length="2">
            <Value index="0">
              0.00011385162113
            </Value>
            <Value index="1">
              0.0022596045124
            </Value>
          </InformationKey>
        </DataArray>
        <DataArray type="Float64" Name="J2 Stresses" format="ascii" RangeMin="690121.5501042551" RangeMax="2093150091.2507164">
          378406537.62306523 453904004.5985364 61253661.41308517 33231933.43058756 22615095.100093145 9800635.096014438
          10203519.972067036 23655310.64648825 6654132.260381877 14731326.818165718 690121.5501042551 2093150091.2507164
          1291358832.9304783
        </DataArray>
      </PointData>
      <CellData>
        <DataArray type="UInt8" Name="vtkGhostType" format="ascii" RangeMin="0" RangeMax="1">
          1 1 0 0 0 0
          0 0 0 0 0
        </DataArray>
        <DataArray type="Float64" Name="Gauss Stress" NumberOfComponents="6" format="ascii" RangeMin="1327.5280603321644" RangeMax="23256.179933395077">
          7178.9602904713465 -14903.318391299512 0 -1248.3943344499703 0 0
          -18167.53421196598 -12828.584718090166 0 6798.383622764831 0 0
          1653.3961322416244 -9695.97832636401 0 1203.6965617232734 0 0
          -800.5359119899163 -4370.247964262293 0 1490.255668618563 0 0
          -7607.754864824892 -6233.345067354592 0 1995.6031283487453 0 0
          -1176.6771731904707 -460.478017668201 0 949.5010072402135 0 0
          -1009.6347112869407 -1924.2517187339604 0 -242.15126034898208 0 0
          -227.10338948414505 1925.3108424370025 0 231.67712924863747 0 0
          2073.300581144411 1213.9698682249034 0 -1152.237570324433 0 0
          150.71246291510317 1313.9936500359936 0 -114.18052441826123 0 0
          2580.2021893897127 2073.6821738992385 0 -878.8175192303037 0 0
          <InformationKey name="L2_NORM_RANGE" location="vtkDataArray" length="2">
            <Value index="0">
              1327.5280603
            </Value>
            <Value index="1">
              23256.179933
            </Value>
          </InformationKey>
        </DataArray>
        <DataArray type="Float64" Name="Gauss Strain" NumberOfComponents="6" format="ascii" RangeMin="0.00009635923942346261" RangeMax="0.001689622019065105">
          0.0010450442490086505 -0.001320914181181085 0 -0.00013375653583392536 0 0
          -0.0008395172752086357 -0.0002674869722933699 0 0.0007283982452962318 0 0
          0.0004643846639588305 -0.0007516197423203444 0 0.00012896748875606504 0 0
          0.00009889914786723078 -0.000283570000590524 0 0.00015967025020913173 0 0
          -0.0003207915950819713 -0.00017353340249586766 0 0.00021381462089450838 0 0
          -0.00006760272602545505 0.000009132897780502457 0 0.00010173225077573715 0 0
          -0.0000033934894228543214 -0.0001013881687921779 0 -0.000025944777894533775 0 0
          -0.00008498277219304618 0.00014563303836993393 0 0.000024822549562354 0 0
          0.00010473683193085428 0.000012665684118049863 0 -0.00012345402539190356 0 0
          -0.00003616316872163524 0.00008847410132703156 0 -0.000012233627616242285 0 0
          0.00011024007874572094 0.00005597007708602734 0 -0.00009415901991753254 0 0
          <InformationKey name="L2_NORM_RANGE" location="vtkDataArray" length="2">
            <Value index="0">
              9.6359239423e-05
            </Value>
            <Value index="1">
              0.0016896220191
            </Value>
          </InformationKey>
        </DataArray>
      </CellData>
      <Points>
        <DataArray type="Float32" Name="Points" NumberOfComponents="3" format="ascii" RangeMin="0.4000000059604645" RangeMax="1.0012492197622458">
          0.5 0 0 0.6000000238418579 0.05000000074505806 0
          0.6000000238418579 0 0 0.699999988079071 0.05000000074505806 0
          0.699999988079071 0 0 0.800000011920929 0.05000000074505806 0
          0.800000011920929 0 0 0.8999999761581421 0.05000000074505806 0
          0.8999999761581421 0 0 1 0.05000000074505806 0
          1 0 0 0.5 0.05000000074505806 0
          0.4000000059604645 0 0
          <InformationKey name="L2_NORM_RANGE" location="vtkDataArray" length="2">
            <Value index="0">
              0.40000000596
            </Value>
            <Value index="1">
              1.0012492198
            </Value>
          </InformationKey>
        </DataArray>
      </Points>
      <Cells>
        <DataArray type="Int64" Name="connectivity" format="ascii" RangeMin="0" RangeMax="12">
          0 11 12 1 11 0
          2 1 0 4 3 2
          3 1 2 6 5 4
          5 3 4 8 7 6
          7 5 6 10 9 8
          9 7 8
        </DataArray>
        <DataArray type="Int64" Name="offsets" format="ascii" RangeMin="3" RangeMax="33">
          3 6 9 12 15 18
          21 24 27 30 33
        </DataArray>
        <DataArray type="UInt8" Name="types" format="ascii" RangeMin="5" RangeMax="5">
          5 5 5 5 5 5
          5 5 5 5 5
        </DataArray>
      </Cells>
    </Piece>
  </UnstructuredGrid>
</VTKFile>
