<?xml version="1.0"?>
<VTKFile type="UnstructuredGrid" version="0.1" byte_order="LittleEndian" header_type="UInt32" compressor="vtkZLibDataCompressor">
  <UnstructuredGrid>
    <Piece NumberOfPoints="13" NumberOfCells="11">
      <PointData>
        <DataArray type="Float64" Name="Disp" NumberOfComponents="3" format="ascii" RangeMin="0" RangeMax="0.04810292123747631">
          0 0 0 0 0 0
          -0.0003372753868190671 0.001088130945104498 0 0.0006736021028200063 0.0010279675911017089 0
          -0.0012013647674097463 0.004596332203871206 0 0.001372535821125336 0.004503889080416399 0
          -0.0019643633623487437 0.011606443517531095 0 0.0023537875461681775 0.011667747092370402 0
          -0.00262174639760382 0.021528985540483193 0 0.0029267526575706758 0.021550474039903927 0
          -0.003159196302615999 0.03380793425701573 0 0.0034802855955111275 0.03384131148422405 0
          -0.003564911142671001 0.04797064143956915 0
          <InformationKey name="L2_NORM_RANGE" location="vtkDataArray" length="2">
            <Value index="0">
              0
            </Value>
            <Value index="1">
              0.048102921237
            </Value>
          </InformationKey>
        </DataArray>
        <DataArray type="Float64" Name="Nodal Stress" NumberOfComponents="6" format="ascii" RangeMin="20307.791944196688" RangeMax="1321489.3168063804">
          1152693.773512768 188687.65824995798 0 618084.1743342375 0 0
          76639.19241545799 -86572.55107448611 0 7962.9624418446765 0 0
          -93817.6155127193 -23059.682138200435 0 -20425.156082543697 0 0
          40694.27527123806 13321.094883457417 0 -19748.956320743728 0 0
          9254.010650426822 31731.958570477735 0 26655.09721005978 0 0
          54497.91518766267 12264.364016862777 0 -13539.138071028143 0 0
          -47125.82026323511 -7592.78471660979 0 11643.411286914985 0 0
          29874.545326738596 -8648.792781907967 0 -7631.004002448469 0 0
          -34494.820471667146 -6683.885593664394 0 13039.39053243503 0 0
          25103.587271503573 -6224.990679988801 0 -7582.371104810254 0 0
          -30142.086524783947 -7726.262609363512 0 10657.848393097003 0 0
          18015.192820331285 -7918.945763749526 0 -5014.931633218689 0 0
          -24300.939693589855 -7961.679293139302 0 8749.304606512544 0 0
          <InformationKey name="L2_NORM_RANGE" location="vtkDataArray" length="2">
            <Value index="0">
              20307.791944
            </Value>
            <Value index="1">
              1321489.3168
            </Value>
          </InformationKey>
        </DataArray>
        <DataArray type="Float64" Name="Nodal Strain" NumberOfComponents="6" format="ascii" RangeMin="0.001753554229174852" RangeMax="0.10424528049311556">
          0.07559642459912778 -0.02768994489331614 0 0.06622330439295401 0 0
          0.00856610485376436 -0.008920867663015364 0 0.0008531745473404993 0 0
          -0.005877698174544221 0.001703508972725658 0 -0.0021884095802725406 0 0
          0.002430980559250668 -0.0005018601965829726 0 -0.0021159596057939703 0 0
          -0.00047228347391514567 0.0019360680889474523 0 0.002855903272506406 0 0
          0.0034546952270879485 -0.0010703281126406108 0 -0.001450621936181587 0 0
          -0.0030949591360664433 0.0011407232439291256 0 0.0012475083521694625 0 0
          0.002442781551263756 -0.0016847189603769477 0 -0.0008176075716909074 0 0
          -0.002225205548202497 0.0007545374744406555 0 0.0013970775570466103 0 0
          0.0020154344722498555 -0.0013411988796957564 0 -0.000812396904086813 0 0
          -0.0018770682300072998 0.0005246271895020329 0 0.001141912327831822 0 0
          0.0015696189787290033 -0.0012090387267082263 0 -0.0005373141035591453 0 0
          -0.0014514357176443004 0.000299199325261116 0 0.0009374254935549156 0 0
          <InformationKey name="L2_NORM_RANGE" location="vtkDataArray" length="2">
            <Value index="0">
              0.0017535542292
            </Value>
            <Value index="1">
              0.10424528049
            </Value>
          </InformationKey>
        </DataArray>
        <DataArray type="Float64" Name="Sld_traction" NumberOfComponents="3" format="ascii" RangeMin="13448.398649223918" RangeMax="147889.85665830402">
          18355.231982170564 -67934.26541329476 0 -147840.7258230987 3811.756880109969 0
          101343.05063505565 50493.03776625887 0 11225.225411923133 -7406.331121409767 0
          26718.448959971014 17586.88229813198 0 43695.218484864694 -13854.583374760026 0
          43864.43148791472 -5985.425693188827 0 30842.249789269772 6277.228241855092 0
          31706.164441119035 -7475.170184060557 0 25683.52500884872 6381.617750646507 0
          27867.775081112304 -7955.040618706388 0 20155.31931191691 7508.046179957368 0
          21605.051136409602 -8116.488891008832 0
          <InformationKey name="L2_NORM_RANGE" location="vtkDataArray" length="2">
            <Value index="0">
              13448.398649
            </Value>
            <Value index="1">
              147889.85666
            </Value>
          </InformationKey>
        </DataArray>
        <DataArray type="Float64" Name="Velocity" NumberOfComponents="3" format="ascii" RangeMin="0" RangeMax="5.269207945659216">
          0 0 0 0 0 0
          -0.013009106602319298 0.03492832678741642 0 0.0018136260039343655 0.04509229540217119 0
          0.040579266929690716 -0.0028564453214712238 0 -0.05268764709151719 0.015496388036134068 0
          0.16183828145160462 -0.4034894796925377 0 -0.17411652803336364 -0.3974077603336461 0
          0.312429941454651 -1.358168135834502 0 -0.32310403375454766 -1.3525990801491616 0
          0.48095222951937 -2.960677992209593 0 -0.4904799225850862 -2.9627912529854967 0
          0.6392619698766562 -5.230286465239512 0
          <InformationKey name="L2_NORM_RANGE" location="vtkDataArray" length="2">
            <Value index="0">
              0
            </Value>
            <Value index="1">
              5.2692079457
            </Value>
          </InformationKey>
        </DataArray>
        <DataArray type="Float64" Name="Acceleration" NumberOfComponents="3" format="ascii" RangeMin="0" RangeMax="112.2851520259287">
          0 0 0 0 0 0
          -6.851364301154092 21.0553857096088 0 10.080682935753089 21.695093657104962 0
          -11.44338532084248 66.51104662040143 0 12.132297065960984 67.90150573865867 0
          -4.472967331008931 108.85714270000426 0 8.316032018397891 110.65631176889838 0
          8.406476124284836 111.00518962660863 0 -5.552846199657324 112.1477653124166 0
          25.70168196745817 50.88827478533494 0 -22.442410667661534 51.05847529755556 0
          43.388386738976806 -81.23155857677193 0
          <InformationKey name="L2_NORM_RANGE" location="vtkDataArray" length="2">
            <Value index="0">
              0
            </Value>
            <Value index="1">
              112.28515203
            </Value>
          </InformationKey>
        </DataArray>
        <DataArray type="Float64" Name="Sigma" NumberOfComponents="6" format="ascii" RangeMin="60778.559398040794" RangeMax="3232795.264893209">
          2811815.892808307 590454.0764716256 0 1481897.6325119818 0 0
          -270955.30716795236 -274895.51693263813 0 -250077.63844489044 0 0
          -644201.0380082366 -53561.656621429465 0 -241380.92924212338 0 0
          349542.1277116183 99692.0724138754 0 64878.47928658407 0 0
          40930.124906639125 75131.38354156187 0 91684.38826684648 0 0
          85947.21068678438 10828.307541100092 0 -76787.6311729848 0 0
          -149250.24853247902 -25423.889801357294 0 34954.069934563464 0 0
          98084.25561119977 -24210.11899863913 0 -19899.26550383298 0 0
          -91300.47538080737 763.095668089668 0 31685.920922388035 0 0
          73212.25329804853 -11962.512761030079 0 -28668.805547301963 0 0
          -81154.63075386704 -8692.915904502917 0 28539.233022598568 0 0
          55136.444514819785 -16514.09173530051 0 -19526.662360051483 0 0
          -63851.72903903789 -8045.0975806766055 0 21363.797473891515 0 0
          <InformationKey name="L2_NORM_RANGE" location="vtkDataArray" length="2">
            <Value index="0">
              60778.559398
            </Value>
            <Value index="1">
              3232795.2649
            </Value>
          </InformationKey>
        </DataArray>
        <DataArray type="Float64" Name="Press" format="ascii" RangeMin="-25768.21286363929" RangeMax="15728.049936267094">
          -25768.21286363929 -21508.468997239714 -24655.451664832937 -14908.184325714534 -23990.587406945036 -9121.887235407261
          4599.107337944211 15728.049936267094 -4517.316108187076 6520.999253694828 -316.44097605771236 8472.50832313449
          106.5018307782022
        </DataArray>
        <DataArray type="Float64" Name="Dev strain" NumberOfComponents="6" format="ascii" RangeMin="0.0018192309374379613" RangeMax="0.10465266551400242">
          0.0764687491204613 -0.026817620371982646 0 0.06622330439295401 0 0
          0.009351913677460695 -0.008135058839319033 0 0.0008531745473404993 0 0
          -0.005072564790896929 0.002508642356372951 0 -0.0021884095802725406 0 0
          0.003077919667377129 0.0001450789115434864 0 -0.0021159596057939703 0 0
          0.000158847513855101 0.0025671990767176978 0 0.002855903272506406 0 0
          0.0037305714709566767 -0.0007944518687718829 0 -0.001450621936181587 0 0
          -0.003131563498906482 0.0011041188810890876 0 0.0012475083521694625 0 0
          0.00216917740217029 -0.0019583231094704133 0 -0.0008176075716909074 0 0
          -0.002289720036573592 0.0006900229860695606 0 0.0013970775570466103 0 0
          0.0018557349495918762 -0.0015008984023537355 0 -0.000812396904086813 0 0
          -0.0019475371437570126 0.0004541582757523202 0 0.001141912327831822 0 0
          0.0013802698353128015 -0.001398387870124428 0 -0.0005373141035591453 0 0
          -0.001545568638960356 0.00020506640394506027 0 0.0009374254935549156 0 0
          <InformationKey name="L2_NORM_RANGE" location="vtkDataArray" length="2">
            <Value index="0">
              0.0018192309374
            </Value>
            <Value index="1">
              0.10465266551
            </Value>
          </InformationKey>
        </DataArray>
        <DataArray type="Float64" Name="J2 Stresses" format="ascii" RangeMin="1751694005.5197234" RangeMax="4676477464046.822">
          4676477464046.822 90126868168.61421 223498102465.90836 67111408442.304245 5761506721.837642 5226172709.811162
          11766452181.066748 5202320722.263729 4419178956.054992 2957042975.1449656 3534442395.2391763 1751694005.5197234
          2184986408.805025
        </DataArray>
      </PointData>
      <CellData>
        <DataArray type="UInt8" Name="vtkGhostType" format="ascii" RangeMin="0" RangeMax="0">
          0 0 0 0 0 0
          0 0 0 0 0
        </DataArray>
        <DataArray type="Float64" Name="Gauss Stress" NumberOfComponents="6" format="ascii" RangeMin="22901.516757479567" RangeMax="694959.9743459874">
          -208895.4408174525 -96612.40204265976 0 -142193.3628001432 0 0
          608242.4713688017 63354.92313061532 0 330146.35494165594 0 0
          142799.6014456583 45877.034842823494 0 26591.745460148566 0 0
          -105761.0029291572 19235.8586455051 0 -28272.687229564257 0 0
          15328.829268103062 -9200.143740030764 0 -20577.60891408477 0 0
          -16962.093414487892 10674.144658965522 0 16616.94234280839 0 0
          32575.922203405265 -5892.60100326823 0 -5627.383376248972 0 0
          -42218.87571202081 -11020.35732196084 0 15580.241784372845 0 0
          20623.7112199243 -7497.484600020633 0 -6552.078294918295 0 0
          -32518.536889058625 -6068.363609331097 0 10518.782799228216 0 0
          -27202.448700076726 -8329.845347541683 0 10125.456045479534 0 0
          <InformationKey name="L2_NORM_RANGE" location="vtkDataArray" length="2">
            <Value index="0">
              22901.516757
            </Value>
            <Value index="1">
              694959.97435
            </Value>
          </InformationKey>
        </DataArray>
        <DataArray type="Float64" Name="Gauss Strain" NumberOfComponents="6" format="ascii" RangeMin="0.0020066165772808565" RangeMax="0.0569477926447428">
          -0.011470659985437337 0.0005596655975761782 0 -0.015235003157158202 0 0
          0.04118321498596388 -0.017197593753841823 0 0.03537282374374885 0 0
          0.0085615060017319 -0.0018230547057146891 0 0.002849115585015918 0 0
          -0.00824135230370784 0.005151168579291692 0 -0.003029216488881884 0 0
          0.001423492938437032 -0.0012046113124344502 0 -0.002204743812223368 0 0
          -0.0015927975531407606 0.0013682279547292473 0 0.0017803866795866137 0 0
          0.0025373016217885274 -0.0015843258646407758 0 -0.0006029339331695328 0 0
          -0.0026220497893600274 0.0007206486095749677 0 0.0016693116197542335 0 0
          0.0017408895371381868 -0.0012720957292844848 0 -0.0007020083887412458 0 0
          -0.002106025363170934 0.0007279217739427294 0 0.0011270124427744516 0 0
          -0.0016455375733075634 0.0003765270716069055 0 0.001084870290587093 0 0
          <InformationKey name="L2_NORM_RANGE" location="vtkDataArray" length="2">
            <Value index="0">
              0.0020066165773
            </Value>
            <Value index="1">
              0.056947792645
            </Value>
          </InformationKey>
        </DataArray>
      </CellData>
      <Points>
        <DataArray type="Float32" Name="Points" NumberOfComponents="3" format="ascii" RangeMin="0" RangeMax="0.6020797527609908">
          0 0.05000000074505806 0 0 0 0
          0.10000000149011612 0.05000000074505806 0 0.10000000149011612 0 0
          0.20000000298023224 0.05000000074505806 0 0.20000000298023224 0 0
          0.30000001192092896 0.05000000074505806 0 0.30000001192092896 0 0
          0.4000000059604645 0.05000000074505806 0 0.4000000059604645 0 0
          0.5 0.05000000074505806 0 0.5 0 0
          0.6000000238418579 0.05000000074505806 0
          <InformationKey name="L2_NORM_RANGE" location="vtkDataArray" length="2">
            <Value index="0">
              0
            </Value>
            <Value index="1">
              0.60207975276
            </Value>
          </InformationKey>
        </DataArray>
      </Points>
      <Cells>
        <DataArray type="Int64" Name="connectivity" format="ascii" RangeMin="0" RangeMax="12">
          3 2 1 2 0 1
          5 4 3 4 2 3
          7 6 5 6 4 5
          9 8 7 8 6 7
          11 10 9 10 8 9
          12 10 11
        </DataArray>
        <DataArray type="Int64" Name="offsets" format="ascii" RangeMin="3" RangeMax="33">
          3 6 9 12 15 18
          21 24 27 30 33
        </DataArray>
        <DataArray type="UInt8" Name="types" format="ascii" RangeMin="5" RangeMax="5">
          5 5 5 5 5 5
          5 5 5 5 5
        </DataArray>
      </Cells>
    </Piece>
  </UnstructuredGrid>
</VTKFile>
