<?xml version="1.0"?>
<VTKFile type="UnstructuredGrid" version="0.1" byte_order="LittleEndian" header_type="UInt32" compressor="vtkZLibDataCompressor">
  <UnstructuredGrid>
    <Piece NumberOfPoints="8" NumberOfCells="6">
      <PointData>
        <DataArray type="Float64" Name="Disp" NumberOfComponents="3" format="ascii" RangeMin="0.0014152606515269188" RangeMax="0.005935292438329674">
          0.00021964699440511643 -0.005920046030523693 0 -0.00030309421394459686 -0.005927548416163862 0
          0.000216455839088445 -0.004062788307550938 0 -0.0002671520850728372 -0.004069198190363748 0
          0.00016969592190673713 -0.002498533224945496 0 -0.00020796157061635397 -0.0024984432662314383 0
          -0.00016039574956351252 -0.001409768203511464 0 0.00011610481432495966 -0.0014104901218551535 0
          <InformationKey name="L2_NORM_RANGE" location="vtkDataArray" length="2">
            <Value index="0">
              0.0014152606515
            </Value>
            <Value index="1">
              0.0059352924383
            </Value>
          </InformationKey>
        </DataArray>
        <DataArray type="Float64" Name="Sld_traction" NumberOfComponents="3" format="ascii" RangeMin="123.22987214488488" RangeMax="2120.903214589669">
          -1090.1973550748085 773.0897850774301 0 -15.83077182821367 -122.20878876810666 0
          -1453.870882796035 1187.5810573832382 0 -332.5600494859296 315.6176278586508 0
          -1295.517815197543 1372.6952887187463 0 -1267.8534697965142 1051.096199869677 0
          -1237.4890784307242 1463.049320170713 0 -1085.0503682537317 1822.3326106968595 0
          <InformationKey name="L2_NORM_RANGE" location="vtkDataArray" length="2">
            <Value index="0">
              123.22987214
            </Value>
            <Value index="1">
              2120.9032146
            </Value>
          </InformationKey>
        </DataArray>
        <DataArray type="Float64" Name="Velocity" NumberOfComponents="3" format="ascii" RangeMin="0.004783980968635946" RangeMax="0.13614770563908896">
          0.00755193100829477 -0.13512601437300067 0 -0.011432888466931863 -0.13566682281269327 0
          0.007485881542176071 -0.06669946532752787 0 -0.00882637851321871 -0.06718298362604501 0
          0.0044425299063105515 -0.018577778210931324 0 -0.004483063266953583 -0.01855409375675238 0
          -0.001532015280690357 -0.004532041823284751 0 0.000896584744243058 -0.004878497259548418 0
          <InformationKey name="L2_NORM_RANGE" location="vtkDataArray" length="2">
            <Value index="0">
              0.0047839809686
            </Value>
            <Value index="1">
              0.13614770564
            </Value>
          </InformationKey>
        </DataArray>
        <DataArray type="Float64" Name="Acceleration" NumberOfComponents="3" format="ascii" RangeMin="0.6096510488213501" RangeMax="2.906554559702174">
          -0.4451773544687643 2.752222387596303 0 0.6708565073573055 2.828075486096836 0
          -0.3870844391021304 -1.3983485080609337 0 0.31138988939560563 -1.3504469777254045 0
          0.09352877944043819 -2.2874080679627324 0 -0.14876296606845543 -2.3424435102973873 0
          -0.14721584382830447 0.5916095812737421 0 0.4005026073502515 0.6635289892726356 0
          <InformationKey name="L2_NORM_RANGE" location="vtkDataArray" length="2">
            <Value index="0">
              0.60965104882
            </Value>
            <Value index="1">
              2.9065545597
            </Value>
          </InformationKey>
        </DataArray>
      </PointData>
      <CellData>
        <DataArray type="UInt8" Name="vtkGhostType" format="ascii" RangeMin="0" RangeMax="0">
          0 0 0 0 0 0
        </DataArray>
        <DataArray type="Float64" Name="Gauss Stress" NumberOfComponents="6" format="ascii" RangeMin="822.3127332054381" RangeMax="2974.7326568255244">
          -2047.5310593846852 -1372.5172657612611 0 1665.1868650774618 0 0
          2224.569919135788 1422.8867507830576 0 -859.2223534335009 0 0
          -1895.748052568329 -729.675133978093 0 870.520074515567 0 0
          1995.0005792388579 1322.5038266544348 0 -1731.8132769615843 0 0
          -790.1383876299407 98.43987826079182 0 -205.39997554370854 0 0
          777.7520805668715 1052.6582881120412 0 -1175.928488630485 0 0
          <InformationKey name="L2_NORM_RANGE" location="vtkDataArray" length="2">
            <Value index="0">
              822.31273321
            </Value>
            <Value index="1">
              2974.7326568
            </Value>
          </InformationKey>
        </DataArray>
        <DataArray type="Float64" Name="Gauss Strain" NumberOfComponents="6" format="ascii" RangeMin="0.0007570410845372823" RangeMax="0.0035274568113334006">
          -0.0006795117293263066 -0.000004497935702882372 0 0.003330373730154923 0 0
          0.0007655872511682498 -0.00003609591718448102 0 -0.001718444706867002 0 0
          -0.0008455787779497601 0.000320494140640476 0 0.001741040149031134 0 0
          0.0006679988168815407 -0.000004497935702882372 0 -0.0034636265539231678 0 0
          -0.000513458983882281 0.00037511928200845135 0 -0.00041079995108741693 0 0
          0.00004558793309530646 0.000320494140640476 0 -0.0023518569772609695 0 0
          <InformationKey name="L2_NORM_RANGE" location="vtkDataArray" length="2">
            <Value index="0">
              0.00075704108454
            </Value>
            <Value index="1">
              0.0035274568113
            </Value>
          </InformationKey>
        </DataArray>
        <DataArray type="Float64" Name="Btraction" NumberOfComponents="3" format="ascii" RangeMin="0" RangeMax="0">
          0 0 0 0 0 0
          0 0 0 0 0 0
          0 0 0 0 0 0
          <InformationKey name="L2_NORM_RANGE" location="vtkDataArray" length="2">
            <Value index="0">
              0
            </Value>
            <Value index="1">
              0
            </Value>
          </InformationKey>
        </DataArray>
      </CellData>
      <Points>
        <DataArray type="Float32" Name="Points" NumberOfComponents="3" format="ascii" RangeMin="0.14000000059604645" RangeMax="0.35057095688290196">
          0.3499999940395355 0.019999999552965164 0 0.3499999940395355 0 0
          0.2800000011920929 0.019999999552965164 0 0.2800000011920929 0 0
          0.20999999344348907 0.019999999552965164 0 0.20999999344348907 0 0
          0.14000000059604645 0 0 0.14000000059604645 0.019999999552965164 0
          <InformationKey name="L2_NORM_RANGE" location="vtkDataArray" length="2">
            <Value index="0">
              0.1400000006
            </Value>
            <Value index="1">
              0.35057095688
            </Value>
          </InformationKey>
        </DataArray>
      </Points>
      <Cells>
        <DataArray type="Int64" Name="connectivity" format="ascii" RangeMin="0" RangeMax="7">
          5 4 6 4 7 6
          3 2 5 2 4 5
          1 0 3 0 2 3
        </DataArray>
        <DataArray type="Int64" Name="offsets" format="ascii" RangeMin="3" RangeMax="18">
          3 6 9 12 15 18
        </DataArray>
        <DataArray type="UInt8" Name="types" format="ascii" RangeMin="5" RangeMax="5">
          5 5 5 5 5 5
        </DataArray>
      </Cells>
    </Piece>
  </UnstructuredGrid>
</VTKFile>
