<?xml version="1.0"?>
<VTKFile type="UnstructuredGrid" version="0.1" byte_order="LittleEndian" header_type="UInt32" compressor="vtkZLibDataCompressor">
  <UnstructuredGrid>
    <Piece NumberOfPoints="13" NumberOfCells="11">
      <PointData>
        <DataArray type="Float64" Name="Disp" NumberOfComponents="3" format="ascii" RangeMin="0" RangeMax="0.07646874429404256">
          0 0 0 0 0 0
          0.001208959974625963 -0.0023014890821782324 0 -0.001339856006667143 -0.0022586229292874426 0
          0.0022041679503554427 -0.010282406534585115 0 -0.002898273771441796 -0.010067708781287581 0
          0.0024620293843070655 -0.02268828033614374 0 -0.004565628622492714 -0.022206173979004734 0
          0.0019379142862688014 -0.0384823465566752 0 -0.006515125157293265 -0.037735035539856604 0
          0.0006734538680110388 -0.05664187134646384 0 -0.008779106191714216 -0.05564467283060999 0
          -0.0012043094360960729 -0.0764592603462118 0
          <InformationKey name="L2_NORM_RANGE" location="vtkDataArray" length="2">
            <Value index="0">
              0
            </Value>
            <Value index="1">
              0.076468744294
            </Value>
          </InformationKey>
        </DataArray>
        <DataArray type="Float64" Name="Nodal Stress" NumberOfComponents="6" format="ascii" RangeMin="29105.560687174606" RangeMax="141069.55096545452">
          136258.82642089654 -1524.3467087957313 0 -36494.202267022374 0 0
          -72336.02011702095 -10733.29025885355 0 660.3730114569775 0 0
          98797.02816066552 6166.541718891853 0 -14755.91831692611 0 0
          -89596.3777551106 -3510.599542182732 0 7488.338129840362 0 0
          78190.20768775321 7040.136572054584 0 -20516.885165639764 0 0
          -79351.57519476897 -4902.642820784202 0 8256.793525129478 0 0
          67131.52600757088 8384.573350660603 0 -20425.85546940742 0 0
          -65596.87062695467 -3866.853297130815 0 9807.929605369882 0 0
          51685.24380221788 8763.254404517638 0 -19318.603415984744 0 0
          -52550.16060590877 -3436.826619053683 0 9507.978978136423 0 0
          37729.28058510683 8312.5891762172 0 -16173.238386075449 0 0
          -39875.30409011288 -2341.1529609831446 0 7976.487962506556 0 0
          25105.876901814503 7286.917304016697 0 -12795.680681783319 0 0
          <InformationKey name="L2_NORM_RANGE" location="vtkDataArray" length="2">
            <Value index="0">
              29105.560687
            </Value>
            <Value index="1">
              141069.55097
            </Value>
          </InformationKey>
        </DataArray>
        <DataArray type="Float64" Name="Nodal Strain" NumberOfComponents="6" format="ascii" RangeMin="0" RangeMax="0">
          0 0 0 0 0 0
          0 0 0 0 0 0
          0 0 0 0 0 0
          0 0 0 0 0 0
          0 0 0 0 0 0
          0 0 0 0 0 0
          0 0 0 0 0 0
          0 0 0 0 0 0
          0 0 0 0 0 0
          0 0 0 0 0 0
          0 0 0 0 0 0
          0 0 0 0 0 0
          0 0 0 0 0 0
          <InformationKey name="L2_NORM_RANGE" location="vtkDataArray" length="2">
            <Value index="0">
              0
            </Value>
            <Value index="1">
              0
            </Value>
          </InformationKey>
        </DataArray>
        <DataArray type="Float64" Name="Sld_traction" NumberOfComponents="3" format="ascii" RangeMin="11151.91567861367" RangeMax="63433.92343515864">
          -60949.648715435666 17578.48013460097 0 22333.293129774273 18060.772228097925 0
          -24479.469308771975 16703.456735582255 0 -17652.9769083918 14705.053227714896 0
          -22484.312276195913 13687.866046576073 0 -14340.581390895624 12822.146551009051 0
          -21251.1301599415 13658.12729594606 0 -12683.859461901273 10989.39562667041 0
          -20061.683907737442 12751.829888251652 0 -11191.90772323566 8973.178779954236 0
          -17541.96591969128 11338.494552157272 0 -8989.10295839999 6600.094795243017 0
          -14641.432190074536 9350.222027391997 0
          <InformationKey name="L2_NORM_RANGE" location="vtkDataArray" length="2">
            <Value index="0">
              11151.915679
            </Value>
            <Value index="1">
              63433.923435
            </Value>
          </InformationKey>
        </DataArray>
        <DataArray type="Float64" Name="Velocity" NumberOfComponents="3" format="ascii" RangeMin="0" RangeMax="1.416464797113209">
          0 0 0 0 0 0
          -0.026243571020800077 0.08646884550770281 0 0.08243519180536342 0.14075064989979108 0
          -0.027107655794632507 0.3567839649217327 0 0.05757509030955407 0.409120053829657 0
          0.06533239699497331 0.5135689311058902 0 0.16159731661915241 0.4672861191439094 0
          0.2384398967818973 0.8811785141158469 0 0.3760184099094249 0.806842340216808 0
          0.6746250694965903 0.6723701318673667 0 0.13638376934739227 0.7506650745266068 0
          0.6037615716213703 -1.2813447959445798 0
          <InformationKey name="L2_NORM_RANGE" location="vtkDataArray" length="2">
            <Value index="0">
              0
            </Value>
            <Value index="1">
              1.4164647971
            </Value>
          </InformationKey>
        </DataArray>
        <DataArray type="Float64" Name="Acceleration" NumberOfComponents="3" format="ascii" RangeMin="0" RangeMax="731.4368239133667">
          0 0 0 0 0 0
          36.46329311159553 -399.267394181854 0 -209.2405108811169 -439.94315308815476 0
          10.773727256751073 -684.961250297426 0 142.96688716051813 -717.3285833926493 0
          -193.8710751461703 138.86353757605184 0 63.929661158297364 -192.04065472461798 0
          -143.02521025818737 439.2103259568762 0 -194.5004420884875 254.69178326265796 0
          116.46559715562796 -253.90923984265373 0 -173.7815967203543 -199.32078147687707 0
          -718.0624242577903 -15.022246762777286 0
          <InformationKey name="L2_NORM_RANGE" location="vtkDataArray" length="2">
            <Value index="0">
              0
            </Value>
            <Value index="1">
              731.43682391
            </Value>
          </InformationKey>
        </DataArray>
        <DataArray type="Float64" Name="Sigma" NumberOfComponents="6" format="ascii" RangeMin="57316.5526832635" RangeMax="204049.3313972416">
          134974.2425552311 -134974.24255522975 0 -72111.28439394882 0 0
          -132984.38147030704 132984.38147031268 0 25793.692489885954 0 0
          138602.24261923425 -138602.2426192328 0 -27547.93277007776 0 0
          -129990.0452644155 129990.04526441348 0 30609.401986940684 0 0
          110811.94343542025 -110811.94343542372 0 -50959.90368962585 0 0
          -106610.4575316977 106610.45753170404 0 38658.04149959773 0 0
          92890.98104831809 -92890.98104831798 0 -50279.96924789602 0 0
          -87495.29362774768 87495.2936277384 0 40221.064755089654 0 0
          70222.8422298071 -70222.8422298051 0 -49137.65897032297 0 0
          -66820.9191478871 66820.91914788572 0 37477.173262145065 0 0
          50580.41679035325 -50580.4167903473 0 -41355.21108523234 0 0
          -48842.08216325293 48842.08216325013 0 30611.85463840962 0 0
          33386.89109841447 -33386.89109841336 0 -32493.356506501754 0 0
          <InformationKey name="L2_NORM_RANGE" location="vtkDataArray" length="2">
            <Value index="0">
              57316.552683
            </Value>
            <Value index="1">
              204049.3314
            </Value>
          </InformationKey>
        </DataArray>
        <DataArray type="Float64" Name="Press" format="ascii" RangeMin="-163282.54079005588" RangeMax="162338.71887838806">
          135206.39066793222 -163282.54079005588 162338.71887838806 -142529.72554537427 127308.54553500802 -124428.39937182453
          114761.49627195726 -104098.93979458939 91534.0211990683 -82554.65367361555 70348.22590123347 -61503.55337482327
          49797.12250116559
        </DataArray>
        <DataArray type="Float64" Name="Dev strain" NumberOfComponents="6" format="ascii" RangeMin="0" RangeMax="0">
          0 0 0 0 0 0
          0 0 0 0 0 0
          0 0 0 0 0 0
          0 0 0 0 0 0
          0 0 0 0 0 0
          0 0 0 0 0 0
          0 0 0 0 0 0
          0 0 0 0 0 0
          0 0 0 0 0 0
          0 0 0 0 0 0
          0 0 0 0 0 0
          0 0 0 0 0 0
          0 0 0 0 0 0
          <InformationKey name="L2_NORM_RANGE" location="vtkDataArray" length="2">
            <Value index="0">
              0
            </Value>
            <Value index="1">
              0
            </Value>
          </InformationKey>
        </DataArray>
        <DataArray type="Float64" Name="J2 Stresses" format="ascii" RangeMin="1378639051.4820054" RangeMax="19518055487.594414">
          19518055487.594414 17851174358.106598 19400303809.05706 17131645740.34406 12928514753.949146 11739400698.264751
          9260753187.011322 8059859919.51325 5534874953.103178 4816169864.6985855 2985941933.661579 2619820401.1425934
          1378639051.4820054
        </DataArray>
      </PointData>
      <CellData>
        <DataArray type="UInt8" Name="vtkGhostType" format="ascii" RangeMin="0" RangeMax="0">
          0 0 0 0 0 0
          0 0 0 0 0
        </DataArray>
        <DataArray type="Float64" Name="Gauss Stress" NumberOfComponents="6" format="ascii" RangeMin="35299.82146580211" RangeMax="94892.49456409368">
          -89281.91052417683 -6367.121113849578 0 9618.38723558296 0 0
          91618.2241534743 -2109.8449826284723 0 -24621.84155804688 0 0
          -88479.37958096126 -4620.340007165665 0 6102.513265637528 0 0
          88847.22655275364 9231.132692592924 0 -15966.144824254314 0 0
          -71660.20433519468 -4183.690927777402 0 9533.045668930461 0 0
          71578.03646239381 6849.725161034365 0 -20860.610479308045 0 0
          -59737.64760498813 -3675.400574439207 0 9520.193015637253 0 0
          59271.70244227124 8859.349342017167 0 -19732.187821043106 0 0
          -46264.188555997396 -2875.798875472263 0 8911.27227177412 0 0
          44436.644432986504 8448.417851473187 0 -17671.898931136755 0 0
          31255.673584363518 7838.856434021757 0 -14412.237651108162 0 0
          <InformationKey name="L2_NORM_RANGE" location="vtkDataArray" length="2">
            <Value index="0">
              35299.821466
            </Value>
            <Value index="1">
              94892.494564
            </Value>
          </InformationKey>
        </DataArray>
        <DataArray type="Float64" Name="Gauss Strain" NumberOfComponents="6" format="ascii" RangeMin="0" RangeMax="0">
          0 0 0 0 0 0
          0 0 0 0 0 0
          0 0 0 0 0 0
          0 0 0 0 0 0
          0 0 0 0 0 0
          0 0 0 0 0 0
          0 0 0 0 0 0
          0 0 0 0 0 0
          0 0 0 0 0 0
          0 0 0 0 0 0
          0 0 0 0 0 0
          <InformationKey name="L2_NORM_RANGE" location="vtkDataArray" length="2">
            <Value index="0">
              0
            </Value>
            <Value index="1">
              0
            </Value>
          </InformationKey>
        </DataArray>
      </CellData>
      <Points>
        <DataArray type="Float32" Name="Points" NumberOfComponents="3" format="ascii" RangeMin="0" RangeMax="0.6020797527609908">
          0 0.05000000074505806 0 0 0 0
          0.10000000149011612 0.05000000074505806 0 0.10000000149011612 0 0
          0.20000000298023224 0.05000000074505806 0 0.20000000298023224 0 0
          0.30000001192092896 0.05000000074505806 0 0.30000001192092896 0 0
          0.4000000059604645 0.05000000074505806 0 0.4000000059604645 0 0
          0.5 0.05000000074505806 0 0.5 0 0
          0.6000000238418579 0.05000000074505806 0
          <InformationKey name="L2_NORM_RANGE" location="vtkDataArray" length="2">
            <Value index="0">
              0
            </Value>
            <Value index="1">
              0.60207975276
            </Value>
          </InformationKey>
        </DataArray>
      </Points>
      <Cells>
        <DataArray type="Int64" Name="connectivity" format="ascii" RangeMin="0" RangeMax="12">
          3 2 1 2 0 1
          5 4 3 4 2 3
          7 6 5 6 4 5
          9 8 7 8 6 7
          11 10 9 10 8 9
          12 10 11
        </DataArray>
        <DataArray type="Int64" Name="offsets" format="ascii" RangeMin="3" RangeMax="33">
          3 6 9 12 15 18
          21 24 27 30 33
        </DataArray>
        <DataArray type="UInt8" Name="types" format="ascii" RangeMin="5" RangeMax="5">
          5 5 5 5 5 5
          5 5 5 5 5
        </DataArray>
      </Cells>
    </Piece>
  </UnstructuredGrid>
</VTKFile>
