<?xml version="1.0"?>
<VTKFile type="UnstructuredGrid" version="0.1" byte_order="LittleEndian" header_type="UInt32" compressor="vtkZLibDataCompressor">
  <UnstructuredGrid>
    <Piece NumberOfPoints="13" NumberOfCells="11">
      <PointData>
        <DataArray type="Float64" Name="Disp" NumberOfComponents="3" format="ascii" RangeMin="0" RangeMax="0.06790296999602802">
          0 0 0 0 0 0
          0.0013367244134544543 -0.002803661160275127 0 -0.0016548877617606611 -0.002712663240967962 0
          0.00208890838715104 -0.011766399604899256 0 -0.003240967739161797 -0.011445643110476038 0
          0.0018564992546565113 -0.023932924675510232 0 -0.004680031847736256 -0.023440254734605835 0
          0.0010945944727021424 -0.03795962546422545 0 -0.0061329397006633125 -0.037373184277604415 0
          -0.000015335874676474263 -0.052823745231732916 0 -0.007486815548079832 -0.05218559074395254 0
          -0.001277136989743398 -0.0678909585688029 0
          <InformationKey name="L2_NORM_RANGE" location="vtkDataArray" length="2">
            <Value index="0">
              0
            </Value>
            <Value index="1">
              0.067902969996
            </Value>
          </InformationKey>
        </DataArray>
        <DataArray type="Float64" Name="Nodal Stress" NumberOfComponents="6" format="ascii" RangeMin="8095.669180780512" RangeMax="151710.3264565307">
          143628.65208502012 -5681.391686640443 0 -48523.75956467448 0 0
          -73060.04112361158 -14045.868773910566 0 -7530.489308845426 0 0
          95028.92056934947 8426.21146307176 0 -21948.720749456163 0 0
          -86868.82102641813 1114.353057062931 0 3851.0324156102015 0 0
          60793.9312920587 10384.049596723575 0 -23575.071370233345 0 0
          -64950.920983078606 -1274.1842809415073 0 3913.603790199019 0 0
          40625.17524306867 8776.443095392922 0 -17616.080917074047 0 0
          -41016.65652117581 146.32728705250116 0 3137.391969168404 0 0
          22728.088535915333 6758.022511086401 0 -12709.691395167103 0 0
          -23397.939834598026 392.05822420055415 0 1329.9054948497994 0 0
          12723.020820615482 4157.985883510672 0 -7775.64967300135 0 0
          -10470.381927587317 384.42207322369063 0 728.0800965527785 0 0
          6625.090724167121 2168.4568873202797 0 -4116.5309556746215 0 0
          <InformationKey name="L2_NORM_RANGE" location="vtkDataArray" length="2">
            <Value index="0">
              8095.6691808
            </Value>
            <Value index="1">
              151710.32646
            </Value>
          </InformationKey>
        </DataArray>
        <DataArray type="Float64" Name="Nodal Strain" NumberOfComponents="6" format="ascii" RangeMin="0" RangeMax="0">
          0 0 0 0 0 0
          0 0 0 0 0 0
          0 0 0 0 0 0
          0 0 0 0 0 0
          0 0 0 0 0 0
          0 0 0 0 0 0
          0 0 0 0 0 0
          0 0 0 0 0 0
          0 0 0 0 0 0
          0 0 0 0 0 0
          0 0 0 0 0 0
          0 0 0 0 0 0
          0 0 0 0 0 0
          <InformationKey name="L2_NORM_RANGE" location="vtkDataArray" length="2">
            <Value index="0">
              0
            </Value>
            <Value index="1">
              0
            </Value>
          </InformationKey>
        </DataArray>
        <DataArray type="Float64" Name="Sld_traction" NumberOfComponents="3" format="ascii" RangeMin="2760.9477148746855" RangeMax="75379.75372623079">
          -72672.50391658353 20020.35080415315 0 26298.298487230826 24395.91324666428 0
          -31891.127131504767 19291.52135711748 0 -14000.092347086827 10609.803975670395 0
          -28020.28738367432 15316.729367013548 0 -10297.389765910024 7749.615043986793 0
          -21991.21466979383 12740.63413510957 0 -6444.871828258073 5119.911841078682 0
          -15959.388123018254 9090.933494311037 0 -3685.95179057764 2727.0981161141494 0
          -10206.680964884414 5388.478792356276 0 -2477.906618618478 1217.7073021372942 0
          -5527.945047557481 2652.420618658404 0
          <InformationKey name="L2_NORM_RANGE" location="vtkDataArray" length="2">
            <Value index="0">
              2760.9477149
            </Value>
            <Value index="1">
              75379.753726
            </Value>
          </InformationKey>
        </DataArray>
        <DataArray type="Float64" Name="Velocity" NumberOfComponents="3" format="ascii" RangeMin="0" RangeMax="4.9572189452307605">
          0 0 0 0 0 0
          0.1052023149412922 -0.21168245036599187 0 -0.13699725640823746 -0.21284359822555898 0
          0.1575021246019681 -0.9378457099636957 0 -0.245586156741618 -0.9323747799902096 0
          0.16685049219515538 -1.7383089050527119 0 -0.17263523813901827 -1.7474370353969908 0
          0.17431966752340486 -2.3432341258835154 0 -0.1353293809007141 -2.326399400265223 0
          0.12475347716569402 -3.205791274911813 0 -0.48633740802222747 -3.05441680281453 0
          -0.08966261263907038 -4.956408002459998 0
          <InformationKey name="L2_NORM_RANGE" location="vtkDataArray" length="2">
            <Value index="0">
              0
            </Value>
            <Value index="1">
              4.9572189452
            </Value>
          </InformationKey>
        </DataArray>
        <DataArray type="Float64" Name="Acceleration" NumberOfComponents="3" format="ascii" RangeMin="0" RangeMax="3272.6769524956076">
          0 0 0 0 0 0
          -171.26002623481583 1190.1495904007973 0 881.9211363804798 1438.4368468892444 0
          473.4847814926934 2933.213351711892 0 391.3874555465643 3249.189175015318 0
          651.2496633561504 1433.8112253766285 0 253.22521021959892 2030.0625576300286 0
          -157.90665083603528 2117.4489888868075 0 582.082029733949 2518.103073349392 0
          707.0006588200771 3087.1268496029757 0 -75.93464455835556 3137.811563552101 0
          936.7159051011463 -10.637545889206194 0
          <InformationKey name="L2_NORM_RANGE" location="vtkDataArray" length="2">
            <Value index="0">
              0
            </Value>
            <Value index="1">
              3272.6769525
            </Value>
          </InformationKey>
        </DataArray>
        <DataArray type="Float64" Name="Sigma" NumberOfComponents="6" format="ascii" RangeMin="13106.006084068526" RangeMax="228498.332160915">
          149087.95655379345 -149087.95655379212 0 -88074.11777331989 0 0
          -131919.14089938544 131919.14089938207 0 17744.243165165608 0 0
          132363.31533511833 -132363.31533512028 0 -35691.04587722377 0 0
          -126344.567311886 126344.5673118872 0 30014.526462739865 0 0
          88047.55379825129 -88047.55379824962 0 -54795.921964900655 0 0
          -82512.993724895 82512.9937248899 0 30570.1130870288 0 0
          56698.91057253861 -56698.910572541805 0 -38689.7682180557 0 0
          -51839.02404976811 51839.02404977763 0 21205.35574529414 0 0
          30581.309891599187 -30581.30989160412 0 -27486.988431149493 0 0
          -28565.380336239483 28565.38033624094 0 12505.693553467321 0 0
          16126.344504480225 -16126.344504481414 0 -16139.894819284413 0 0
          -13088.21217841945 13088.212178418751 0 7066.285335557928 0 0
          7298.042014779116 -7298.0420147820005 0 -8077.410536591333 0 0
          <InformationKey name="L2_NORM_RANGE" location="vtkDataArray" length="2">
            <Value index="0">
              13106.006084
            </Value>
            <Value index="1">
              228498.33216
            </Value>
          </InformationKey>
        </DataArray>
        <DataArray type="Float64" Name="Press" format="ascii" RangeMin="-172066.80081539694" RangeMax="162182.711252858">
          142889.30517964982 -172066.80081539694 162182.711252858 -131545.99342441213 106656.10893902589 -95551.96039997472
          75795.63655376846 -59352.14718377939 43621.97111308896 -33104.799005571775 23902.44674954602 -15305.858371030095
          10989.479194985659
        </DataArray>
        <DataArray type="Float64" Name="Dev strain" NumberOfComponents="6" format="ascii" RangeMin="0" RangeMax="0">
          0 0 0 0 0 0
          0 0 0 0 0 0
          0 0 0 0 0 0
          0 0 0 0 0 0
          0 0 0 0 0 0
          0 0 0 0 0 0
          0 0 0 0 0 0
          0 0 0 0 0 0
          0 0 0 0 0 0
          0 0 0 0 0 0
          0 0 0 0 0 0
          0 0 0 0 0 0
          0 0 0 0 0 0
          <InformationKey name="L2_NORM_RANGE" location="vtkDataArray" length="2">
            <Value index="0">
              0
            </Value>
            <Value index="1">
              0
            </Value>
          </InformationKey>
        </DataArray>
        <DataArray type="Float64" Name="J2 Stresses" format="ascii" RangeMin="69572557.49366143" RangeMax="24166481344.77276">
          24166481344.77276 17481374277.007595 17838509935.456757 16188167638.92347 8503019995.851677 7042027086.982571
          3588991001.304629 2799701192.5040493 1124100147.9397094 855079046.5673672 325183038.27158964 183784395.13819832
          69572557.49366143
        </DataArray>
      </PointData>
      <CellData>
        <DataArray type="UInt8" Name="vtkGhostType" format="ascii" RangeMin="0" RangeMax="0">
          0 0 0 0 0 0
          0 0 0 0 0
        </DataArray>
        <DataArray type="Float64" Name="Gauss Stress" NumberOfComponents="6" format="ascii" RangeMin="11902.654109871972" RangeMax="100742.20495889115">
          -89110.15862103475 -5176.563370267359 0 4022.574583560571 0 0
          94179.11553554577 -5508.971790806481 0 -35340.30682845935 0 0
          -80417.28404129691 122.72078438883432 0 1929.57252828934 0 0
          77119.70952965182 14408.841648663016 0 -20157.480459794853 0 0
          -52253.859410703386 -485.1212759533064 0 4361.900204755745 0 0
          49711.0852462382 8222.10481563937 0 -20971.85903197586 0 0
          -32886.02319022354 329.37313938408624 0 2074.6869558706567 0 0
          31835.552299149254 8208.088022903252 0 -14990.466967970353 0 0
          -16678.486212411524 339.679127707476 0 1144.0280232469463 0 0
          17520.630972301045 5425.781599072872 0 -10373.729898988859 0 0
          9974.080638113826 3083.297744218975 0 -5717.006673439273 0 0
          <InformationKey name="L2_NORM_RANGE" location="vtkDataArray" length="2">
            <Value index="0">
              11902.65411
            </Value>
            <Value index="1">
              100742.20496
            </Value>
          </InformationKey>
        </DataArray>
        <DataArray type="Float64" Name="Gauss Strain" NumberOfComponents="6" format="ascii" RangeMin="0" RangeMax="0">
          0 0 0 0 0 0
          0 0 0 0 0 0
          0 0 0 0 0 0
          0 0 0 0 0 0
          0 0 0 0 0 0
          0 0 0 0 0 0
          0 0 0 0 0 0
          0 0 0 0 0 0
          0 0 0 0 0 0
          0 0 0 0 0 0
          0 0 0 0 0 0
          <InformationKey name="L2_NORM_RANGE" location="vtkDataArray" length="2">
            <Value index="0">
              0
            </Value>
            <Value index="1">
              0
            </Value>
          </InformationKey>
        </DataArray>
      </CellData>
      <Points>
        <DataArray type="Float32" Name="Points" NumberOfComponents="3" format="ascii" RangeMin="0" RangeMax="0.6020797527609908">
          0 0.05000000074505806 0 0 0 0
          0.10000000149011612 0.05000000074505806 0 0.10000000149011612 0 0
          0.20000000298023224 0.05000000074505806 0 0.20000000298023224 0 0
          0.30000001192092896 0.05000000074505806 0 0.30000001192092896 0 0
          0.4000000059604645 0.05000000074505806 0 0.4000000059604645 0 0
          0.5 0.05000000074505806 0 0.5 0 0
          0.6000000238418579 0.05000000074505806 0
          <InformationKey name="L2_NORM_RANGE" location="vtkDataArray" length="2">
            <Value index="0">
              0
            </Value>
            <Value index="1">
              0.60207975276
            </Value>
          </InformationKey>
        </DataArray>
      </Points>
      <Cells>
        <DataArray type="Int64" Name="connectivity" format="ascii" RangeMin="0" RangeMax="12">
          3 2 1 2 0 1
          5 4 3 4 2 3
          7 6 5 6 4 5
          9 8 7 8 6 7
          11 10 9 10 8 9
          12 10 11
        </DataArray>
        <DataArray type="Int64" Name="offsets" format="ascii" RangeMin="3" RangeMax="33">
          3 6 9 12 15 18
          21 24 27 30 33
        </DataArray>
        <DataArray type="UInt8" Name="types" format="ascii" RangeMin="5" RangeMax="5">
          5 5 5 5 5 5
          5 5 5 5 5
        </DataArray>
      </Cells>
    </Piece>
  </UnstructuredGrid>
</VTKFile>
