<?xml version="1.0"?>
<VTKFile type="UnstructuredGrid" version="0.1" byte_order="LittleEndian" header_type="UInt32" compressor="vtkZLibDataCompressor">
  <UnstructuredGrid>
    <Piece NumberOfPoints="13" NumberOfCells="11">
      <PointData>
        <DataArray type="Float64" Name="Disp" NumberOfComponents="3" format="ascii" RangeMin="0.03785762392570653" RangeMax="0.1819538815758859">
          -0.00992359896384707 -0.05664596088430667 0 -0.001521663261012059 -0.08028476034297165 0
          -0.013163244912098356 -0.0788514901645467 0 -0.004274292026969401 -0.10449135157075545 0
          -0.016660509932880548 -0.10289043788156924 0 -0.007402414919117922 -0.1299078750055528 0
          -0.020247693532744474 -0.12820932039709837 0 -0.010849771507218508 -0.15579613737800418 0
          -0.023725248537297176 -0.15408363274460468 0 -0.01434842030497532 -0.18138725935214767 0
          -0.027105166577872774 -0.17969118334083273 0 0.0005998586746785849 -0.05781622224861116 0
          -0.007078477066381178 -0.03718998321754049 0
          <InformationKey name="L2_NORM_RANGE" location="vtkDataArray" length="2">
            <Value index="0">
              0.037857623926
            </Value>
            <Value index="1">
              0.18195388158
            </Value>
          </InformationKey>
        </DataArray>
        <DataArray type="Float64" Name="Nodal Stress" NumberOfComponents="6" format="ascii" RangeMin="1761.4624319582028" RangeMax="73183.80498028938">
          -58930.44138904717 -3869.3360933071463 0 11826.372496435793 0 0
          32942.710445620185 10677.94907843951 0 -16784.21662304754 0 0
          -44225.693727647405 -2509.022455061212 0 9298.483307915443 0 0
          19637.931230611848 8808.237173379997 0 -12492.173325096166 0 0
          -29739.56107282455 -1093.386631899764 0 5756.458477884763 0 0
          7806.251373990311 6589.228969849119 0 -8349.143187926404 0 0
          -17477.568370435576 377.9742643182689 0 2471.035511606742 0 0
          1072.9984988046674 3742.141016173691 0 -4170.975314463372 0 0
          -7653.560332526877 407.9962241490465 0 725.0406923010723 0 0
          -289.8184380757915 2138.6398812889843 0 -2116.6402242721097 0 0
          1541.481840741862 249.3423098593142 0 815.114744301199 0 0
          48133.273782306445 10839.298357786929 0 -19739.778647920364 0 0
          -71695.91766488244 -5417.98547689845 0 13645.883443571707 0 0
          <InformationKey name="L2_NORM_RANGE" location="vtkDataArray" length="2">
            <Value index="0">
              1761.462432
            </Value>
            <Value index="1">
              73183.80498
            </Value>
          </InformationKey>
        </DataArray>
        <DataArray type="Float64" Name="Nodal Strain" NumberOfComponents="6" format="ascii" RangeMin="0" RangeMax="0">
          0 0 0 0 0 0
          0 0 0 0 0 0
          0 0 0 0 0 0
          0 0 0 0 0 0
          0 0 0 0 0 0
          0 0 0 0 0 0
          0 0 0 0 0 0
          0 0 0 0 0 0
          0 0 0 0 0 0
          0 0 0 0 0 0
          0 0 0 0 0 0
          0 0 0 0 0 0
          0 0 0 0 0 0
          <InformationKey name="L2_NORM_RANGE" location="vtkDataArray" length="2">
            <Value index="0">
              0
            </Value>
            <Value index="1">
              0
            </Value>
          </InformationKey>
        </DataArray>
        <DataArray type="Float64" Name="Sld_traction" NumberOfComponents="3" format="ascii" RangeMin="452.6485687887961" RangeMax="22680.550549189404">
          -8107.926513355222 9505.740566502016 0 -15549.94382602823 13458.3525053147 0
          -5709.648173573373 6761.773343564638 0 -12831.447102012331 10786.79446930955 0
          -3226.5923134517543 4140.586837362623 0 -9831.243917321284 7618.507628576285 0
          -830.0710795035359 1572.926675894071 0 -5830.137818225116 4375.651625517229 0
          -595.9581340931171 712.5227205987565 0 -1295.4842893028044 1042.1135964222021 0
          452.6392012002705 -2.9121063384685413 0 -17288.295670248182 14680.674576885547 0
          -11451.314564939483 12090.135004881366 0
          <InformationKey name="L2_NORM_RANGE" location="vtkDataArray" length="2">
            <Value index="0">
              452.64856879
            </Value>
            <Value index="1">
              22680.550549
            </Value>
          </InformationKey>
        </DataArray>
        <DataArray type="Float64" Name="Velocity" NumberOfComponents="3" format="ascii" RangeMin="0.8397423453221317" RangeMax="2.2256839118597185">
          -0.45267931943436956 -1.4384232473760048 0 -0.4107893678585541 -1.5574528923621693 0
          -0.49549767241552056 -1.558150449302102 0 -0.3115869953284453 -1.9362611662110725 0
          -0.4950300616529174 -1.9197699901780685 0 -0.2686926846881505 -2.0948907441216225 0
          -0.17862258062794112 -2.218504642591715 0 0.257158044557533 -1.5719837105231154 0
          0.43311513167590965 -1.8237208755273127 0 0.8808093542029622 -1.4115223808804598 0
          0.9222857540811256 -1.68270164840445 0 -0.2117499749947166 -1.4430886340853317 0
          -0.3397558634540002 -0.7679408569517193 0
          <InformationKey name="L2_NORM_RANGE" location="vtkDataArray" length="2">
            <Value index="0">
              0.83974234532
            </Value>
            <Value index="1">
              2.2256839119
            </Value>
          </InformationKey>
        </DataArray>
        <DataArray type="Float64" Name="Acceleration" NumberOfComponents="3" format="ascii" RangeMin="512.7417887683343" RangeMax="4041.829422928982">
          -16.69961620750155 -2841.016091643228 0 -518.4914911208097 4008.4350634243465 0
          -230.28993263516486 3406.0807505725543 0 2356.806385707059 -2807.904752205941 0
          1118.804192292027 -1317.0633763740034 0 -672.5408632793756 332.8624652341332 0
          1818.6871230607983 1531.8382762620668 0 2562.5333545411977 2253.313679845653 0
          2097.5168473698923 2886.7241457862096 0 1557.3326922987617 3077.227772794842 0
          1061.2404272581507 1422.7188263810058 0 -1167.9142092198936 -2415.116540924363 0
          -469.81871689295133 205.36434745693327 0
          <InformationKey name="L2_NORM_RANGE" location="vtkDataArray" length="2">
            <Value index="0">
              512.74178877
            </Value>
            <Value index="1">
              4041.8294229
            </Value>
          </InformationKey>
        </DataArray>
        <DataArray type="Float64" Name="Sigma" NumberOfComponents="6" format="ascii" RangeMin="4677.408841677201" RangeMax="134997.37339200717">
          -70034.67026880388 70034.67026880659 0 42535.23802693567 0 0
          46106.957407842565 -46106.9574078389 0 -44625.36814923887 0 0
          -49675.126992558115 49675.12699255668 0 33664.82874546711 0 0
          27978.018639266003 -27978.018639258218 0 -32594.889541259134 0 0
          -30895.27621508045 30895.27621507684 0 21902.580631870012 0 0
          11811.85958119518 -11811.859581207584 0 -20556.86299192929 0 0
          -16632.412539000063 16632.41253899502 0 10498.694898241072 0 0
          3408.0237052038847 -3408.0237051816994 0 -8960.350426735495 0 0
          -6930.590619579196 6930.590619571656 0 3829.82150970568 0 0
          -1148.2788690104253 1148.2788689816039 0 -4386.463809292689 0 0
          5331.574275180783 -5331.574275155752 0 1908.5506383959025 0 0
          67612.93122576205 -67612.93122575938 0 -52884.675490599235 0 0
          -88996.74604140231 88996.74604139756 0 48820.58183621059 0 0
          <InformationKey name="L2_NORM_RANGE" location="vtkDataArray" length="2">
            <Value index="0">
              4677.4088417
            </Value>
            <Value index="1">
              134997.37339
            </Value>
          </InformationKey>
        </DataArray>
        <DataArray type="Float64" Name="Press" format="ascii" RangeMin="-110668.19603710108" RangeMax="94420.50294073467">
          -88952.73663135854 71008.3010527459 -64719.85297234899 47538.24456150757 -40948.94414781394 25292.693330112554
          -20573.020848347664 9969.922840603118 -8801.919178224987 2525.6244597375007 4928.9715098414945 94420.50294073467
          -110668.19603710108
        </DataArray>
        <DataArray type="Float64" Name="Dev strain" NumberOfComponents="6" format="ascii" RangeMin="0" RangeMax="0">
          0 0 0 0 0 0
          0 0 0 0 0 0
          0 0 0 0 0 0
          0 0 0 0 0 0
          0 0 0 0 0 0
          0 0 0 0 0 0
          0 0 0 0 0 0
          0 0 0 0 0 0
          0 0 0 0 0 0
          0 0 0 0 0 0
          0 0 0 0 0 0
          0 0 0 0 0 0
          0 0 0 0 0 0
          <InformationKey name="L2_NORM_RANGE" location="vtkDataArray" length="2">
            <Value index="0">
              0
            </Value>
            <Value index="1">
              0
            </Value>
          </InformationKey>
        </DataArray>
        <DataArray type="Float64" Name="J2 Stresses" format="ascii" RangeMin="6128810.548541398" RangeMax="8516283108.66397">
          5357166658.162291 2623707392.022216 2750948415.342112 1048376233.030619 1074448851.9898958 245166180.7832569
          304192795.5089909 31686595.51763075 51699969.53519796 6128810.548541398 29336325.63646639 5270705694.375946
          8516283108.66397
        </DataArray>
      </PointData>
      <CellData>
        <DataArray type="UInt8" Name="vtkGhostType" format="ascii" RangeMin="0" RangeMax="1">
          1 1 0 0 0 0
          0 0 0 0 0
        </DataArray>
        <DataArray type="Float64" Name="Gauss Stress" NumberOfComponents="6" format="ascii" RangeMin="1511.1981189646158" RangeMax="66940.24583279797">
          -65539.63827072305 -4593.981547760064 0 12823.714790849017 0 0
          40053.76190897426 10930.282999110119 0 -18324.93520430081 0 0
          -52089.0428014937 -3020.4828991457553 0 10524.899541054641 0 0
          -36907.64570900932 -1846.0559967600198 0 7657.506612025998 0 0
          26078.847232151646 9805.614529121347 0 -14518.476315010299 0 0
          -23981.7002796448 -171.14749772825826 0 3948.1375127272654 0 0
          13592.198583062309 7662.4639128057415 0 -10416.390633772808 0 0
          -13186.665546448301 249.98742247181485 0 1789.3886604037536 0 0
          4425.688689922339 5367.374858324582 0 -6339.506173474571 0 0
          -1364.8728073516081 466.6573349171713 0 450.6361129362979 0 0
          -325.73922042336835 2788.15796849573 0 -3172.3309087741673 0 0
          <InformationKey name="L2_NORM_RANGE" location="vtkDataArray" length="2">
            <Value index="0">
              1511.198119
            </Value>
            <Value index="1">
              66940.245833
            </Value>
          </InformationKey>
        </DataArray>
        <DataArray type="Float64" Name="Gauss Strain" NumberOfComponents="6" format="ascii" RangeMin="0" RangeMax="0">
          0 0 0 0 0 0
          0 0 0 0 0 0
          0 0 0 0 0 0
          0 0 0 0 0 0
          0 0 0 0 0 0
          0 0 0 0 0 0
          0 0 0 0 0 0
          0 0 0 0 0 0
          0 0 0 0 0 0
          0 0 0 0 0 0
          0 0 0 0 0 0
          <InformationKey name="L2_NORM_RANGE" location="vtkDataArray" length="2">
            <Value index="0">
              0
            </Value>
            <Value index="1">
              0
            </Value>
          </InformationKey>
        </DataArray>
      </CellData>
      <Points>
        <DataArray type="Float32" Name="Points" NumberOfComponents="3" format="ascii" RangeMin="0.4000000059604645" RangeMax="1.0012492197622458">
          0.5 0 0 0.6000000238418579 0.05000000074505806 0
          0.6000000238418579 0 0 0.699999988079071 0.05000000074505806 0
          0.699999988079071 0 0 0.800000011920929 0.05000000074505806 0
          0.800000011920929 0 0 0.8999999761581421 0.05000000074505806 0
          0.8999999761581421 0 0 1 0.05000000074505806 0
          1 0 0 0.5 0.05000000074505806 0
          0.4000000059604645 0 0
          <InformationKey name="L2_NORM_RANGE" location="vtkDataArray" length="2">
            <Value index="0">
              0.40000000596
            </Value>
            <Value index="1">
              1.0012492198
            </Value>
          </InformationKey>
        </DataArray>
      </Points>
      <Cells>
        <DataArray type="Int64" Name="connectivity" format="ascii" RangeMin="0" RangeMax="12">
          0 11 12 1 11 0
          2 1 0 4 3 2
          3 1 2 6 5 4
          5 3 4 8 7 6
          7 5 6 10 9 8
          9 7 8
        </DataArray>
        <DataArray type="Int64" Name="offsets" format="ascii" RangeMin="3" RangeMax="33">
          3 6 9 12 15 18
          21 24 27 30 33
        </DataArray>
        <DataArray type="UInt8" Name="types" format="ascii" RangeMin="5" RangeMax="5">
          5 5 5 5 5 5
          5 5 5 5 5
        </DataArray>
      </Cells>
    </Piece>
  </UnstructuredGrid>
</VTKFile>
