<?xml version="1.0"?>
<VTKFile type="UnstructuredGrid" version="0.1" byte_order="LittleEndian" header_type="UInt32" compressor="vtkZLibDataCompressor">
  <UnstructuredGrid>
    <Piece NumberOfPoints="13" NumberOfCells="11">
      <PointData>
        <DataArray type="Float64" Name="Disp" NumberOfComponents="3" format="ascii" RangeMin="0" RangeMax="0.0022994183302279367">
          0 0 0 0 0 0
          -0.0000898641768566072 0.0002179067927200642 0 0.00014708368462199636 0.0002203260272347822 0
          -0.00017220315597127767 0.000923458676307525 0 0.00022209882291391193 0.0009270010870692366 0
          -0.00014759879517763173 0.001744314025554427 0 0.0002135726731387344 0.001751664848758364 0
          -0.0000023744728057906953 0.002295113494970854 0 0.00007100534868204403 0.0022983217568144747 0
          0.00030967237121166187 0.0019287553477204677 0 -0.00023860231865780596 0.0019295489444123015 0
          0.0007287393270830086 0.000018703046798469736 0
          <InformationKey name="L2_NORM_RANGE" location="vtkDataArray" length="2">
            <Value index="0">
              0
            </Value>
            <Value index="1">
              0.0022994183302
            </Value>
          </InformationKey>
        </DataArray>
        <DataArray type="Float64" Name="Nodal Stress" NumberOfComponents="6" format="ascii" RangeMin="2418.2798926584665" RangeMax="25146.134621304493">
          -6837.267705715905 -325.49292450822026 0 3525.7298065011582 0 0
          3843.4616084267573 -203.50437958696372 0 1525.5765770035773 0 0
          -2227.8236209513525 -580.9416359166186 0 1700.5071335687023 0 0
          3671.8123231997088 -484.5110645848965 0 835.4155832934248 0 0
          2674.5644426458343 -578.5921852698926 0 2361.9756381230586 0 0
          -1178.0470301240339 -838.1239436231552 0 1938.5125971160871 0 0
          9289.451758609603 -566.3055578365413 0 2683.49197422359 0 0
          -7431.404821111576 -1528.5233427282274 0 3079.4890614860838 0 0
          16786.44074742241 -486.80185546902834 0 2360.3708112886443 0 0
          -14545.230157668468 -2096.299828732616 0 3727.0854958139016 0 0
          22812.494168819587 -106.75818302496894 0 581.5353856181877 0 0
          -20399.42338979923 -2147.692627047426 0 3523.350765127145 0 0
          25034.074246684366 769.1775409849968 0 -2243.118123217623 0 0
          <InformationKey name="L2_NORM_RANGE" location="vtkDataArray" length="2">
            <Value index="0">
              2418.2798927
            </Value>
            <Value index="1">
              25146.134621
            </Value>
          </InformationKey>
        </DataArray>
        <DataArray type="Float64" Name="Nodal Strain" NumberOfComponents="6" format="ascii" RangeMin="0" RangeMax="0">
          0 0 0 0 0 0
          0 0 0 0 0 0
          0 0 0 0 0 0
          0 0 0 0 0 0
          0 0 0 0 0 0
          0 0 0 0 0 0
          0 0 0 0 0 0
          0 0 0 0 0 0
          0 0 0 0 0 0
          0 0 0 0 0 0
          0 0 0 0 0 0
          0 0 0 0 0 0
          0 0 0 0 0 0
          <InformationKey name="L2_NORM_RANGE" location="vtkDataArray" length="2">
            <Value index="0">
              0
            </Value>
            <Value index="1">
              0
            </Value>
          </InformationKey>
        </DataArray>
        <DataArray type="Float64" Name="Sld_traction" NumberOfComponents="3" format="ascii" RangeMin="347.49886549833013" RangeMax="8248.907051240818">
          4886.692307053393 -1730.4745329904038 0 -1726.9926743063036 -871.825603440339 0
          2735.8004431810864 -812.7547433848904 0 -2.8252304104183135 347.48738048417613 0
          3221.2971811899106 -552.7151338912772 0 -1338.4409513358376 1163.9910492951435 0
          2687.599240438434 27.646751885109886 0 -3684.072756131666 2522.6622324164987 0
          1090.3519762012488 882.8974368907848 0 -5833.440985086786 3820.997271883006 0
          -1898.4841093188527 1970.8654256819311 0 -6956.049457527907 4433.716667135622 0
          -5338.682528615175 3185.8631477585095 0
          <InformationKey name="L2_NORM_RANGE" location="vtkDataArray" length="2">
            <Value index="0">
              347.4988655
            </Value>
            <Value index="1">
              8248.9070512
            </Value>
          </InformationKey>
        </DataArray>
        <DataArray type="Float64" Name="Velocity" NumberOfComponents="3" format="ascii" RangeMin="0" RangeMax="1.931445466736403">
          0 0 0 0 0 0
          -0.102951917538891 0.26312321936330885 0 0.1746978416968057 0.26679772792215184 0
          -0.18674915678496345 1.0451927568157302 0 0.19234188585292525 1.0489100275688588 0
          -0.0792228086135462 1.6579751193373098 0 0.07196476079068811 1.6610133037423225 0
          0.14191850058620875 1.5613061733019336 0 -0.17793406180270813 1.5588962299890248 0
          0.42097371218132895 0.3364721215909361 0 -0.4662128410844597 0.33448926093533604 0
          0.5356161179624793 -1.855693122570487 0
          <InformationKey name="L2_NORM_RANGE" location="vtkDataArray" length="2">
            <Value index="0">
              0
            </Value>
            <Value index="1">
              1.9314454667
            </Value>
          </InformationKey>
        </DataArray>
        <DataArray type="Float64" Name="Acceleration" NumberOfComponents="3" format="ascii" RangeMin="0" RangeMax="2799.4662302691845">
          0 0 0 0 0 0
          -92.72065515980373 256.1732568580323 0 168.45907243348034 262.79732920675167 0
          -159.64423575744178 920.1370449737171 0 65.98597972484397 926.7483557706094 0
          69.83170583171892 956.6082391018326 0 -196.78320797325568 947.4056671924595 0
          312.65446737394666 -161.1525103976253 0 -452.55521164447305 -171.09759103718716 0
          328.3886426137536 -1917.9373688070777 0 -437.598439769635 -1903.5465831454555 0
          -181.9966394055935 -2793.5440568680187 0
          <InformationKey name="L2_NORM_RANGE" location="vtkDataArray" length="2">
            <Value index="0">
              0
            </Value>
            <Value index="1">
              2799.4662303
            </Value>
          </InformationKey>
        </DataArray>
        <DataArray type="Float64" Name="Sigma" NumberOfComponents="6" format="ascii" RangeMin="4482.514754161183" RangeMax="50428.50975922612">
          -7837.081756797736 7837.081756797794 0 5766.807591411074 0 0
          7142.551255625134 -7142.55125562461 0 888.8074413820377 0 0
          -4491.937304444786 4491.93730444464 0 1680.4966018004507 0 0
          4424.325597485222 -4424.325597486124 0 -471.14810191488687 0 0
          1759.9163307380368 -1759.9163307380659 0 3728.0460752082618 0 0
          -3292.197100026802 3292.197100030142 0 1148.9464807529475 0 0
          11184.74773997903 -11184.747739978375 0 2939.144759984876 0 0
          -12603.168878238925 12603.16887823848 0 3506.7355026801506 0 0
          22038.05448259061 -22038.054482590447 0 1527.3455206778344 0 0
          -23000.573235371383 23000.573235372412 0 5835.495463985953 0 0
          31329.84002304323 -31329.84002304297 0 -2449.7749497573277 0 0
          -31002.29442777882 31002.294427778575 0 8072.8568123785435 0 0
          35249.206012811424 -35249.206012812654 0 -7617.1876351469255 0 0
          <InformationKey name="L2_NORM_RANGE" location="vtkDataArray" length="2">
            <Value index="0">
              4482.5147542
            </Value>
            <Value index="1">
              50428.509759
            </Value>
          </InformationKey>
        </DataArray>
        <DataArray type="Float64" Name="Press" format="ascii" RangeMin="-35721.27569995139" RangeMax="38692.07793758242">
          -8109.903950332482 7384.443683860431 -5490.157043643965 4098.044821518226 1218.9997182869993 -4313.032715090165
          11179.551290614261 -15117.853930727339 22884.348342761707 -26921.6306383683 33276.40668600319 -35721.27569995139
          38692.07793758242
        </DataArray>
        <DataArray type="Float64" Name="Dev strain" NumberOfComponents="6" format="ascii" RangeMin="0" RangeMax="0">
          0 0 0 0 0 0
          0 0 0 0 0 0
          0 0 0 0 0 0
          0 0 0 0 0 0
          0 0 0 0 0 0
          0 0 0 0 0 0
          0 0 0 0 0 0
          0 0 0 0 0 0
          0 0 0 0 0 0
          0 0 0 0 0 0
          0 0 0 0 0 0
          0 0 0 0 0 0
          0 0 0 0 0 0
          <InformationKey name="L2_NORM_RANGE" location="vtkDataArray" length="2">
            <Value index="0">
              0
            </Value>
            <Value index="1">
              0
            </Value>
          </InformationKey>
        </DataArray>
        <DataArray type="Float64" Name="J2 Stresses" format="ascii" RangeMin="6571887.375917419" RangeMax="1257011911.4009228">
          69733867.91182145 51213533.106192455 20883517.954227746 19630152.126051463 6571887.375917419 11168581.249344524
          127258224.98699531 161914164.24484396 486259041.4625122 537539620.9832563 983059225.1955879 977435014.0649695
          1257011911.4009228
        </DataArray>
      </PointData>
      <CellData>
        <DataArray type="UInt8" Name="vtkGhostType" format="ascii" RangeMin="0" RangeMax="0">
          0 0 0 0 0 0
          0 0 0 0 0
        </DataArray>
        <DataArray type="Float64" Name="Gauss Stress" NumberOfComponents="6" format="ascii" RangeMin="1830.7736964180106" RangeMax="23951.588389231798">
          4355.757003466753 -360.8693623104677 0 699.385313755867 0 0
          -3800.6950385778027 -343.04983483273105 0 2778.703878197854 0 0
          1298.6855509705035 -629.344334492996 0 1468.6148180154405 0 0
          506.3973733132443 -621.8057092060965 0 1645.798191697942 0 0
          -4320.651197829983 -1180.2390389709983 0 2531.6089144726584 0 0
          5912.661754833789 -522.3162256250675 0 2605.379105315362 0 0
          -10906.941285784551 -1863.1495317711633 0 3623.19216244798 0 0
          13188.559682326455 -557.8625472272383 0 2657.7419277809536 0 0
          -17346.5090974745 -2231.1573374028276 0 3819.5257755357234 0 0
          19868.81522021969 -376.06562662147076 0 1637.6886783021525 0 0
          23941.320177236692 223.48577185239083 0 -664.7019241752378 0 0
          <InformationKey name="L2_NORM_RANGE" location="vtkDataArray" length="2">
            <Value index="0">
              1830.7736964
            </Value>
            <Value index="1">
              23951.588389
            </Value>
          </InformationKey>
        </DataArray>
        <DataArray type="Float64" Name="Gauss Strain" NumberOfComponents="6" format="ascii" RangeMin="0" RangeMax="0">
          0 0 0 0 0 0
          0 0 0 0 0 0
          0 0 0 0 0 0
          0 0 0 0 0 0
          0 0 0 0 0 0
          0 0 0 0 0 0
          0 0 0 0 0 0
          0 0 0 0 0 0
          0 0 0 0 0 0
          0 0 0 0 0 0
          0 0 0 0 0 0
          <InformationKey name="L2_NORM_RANGE" location="vtkDataArray" length="2">
            <Value index="0">
              0
            </Value>
            <Value index="1">
              0
            </Value>
          </InformationKey>
        </DataArray>
      </CellData>
      <Points>
        <DataArray type="Float32" Name="Points" NumberOfComponents="3" format="ascii" RangeMin="0" RangeMax="0.6020797527609908">
          0 0.05000000074505806 0 0 0 0
          0.10000000149011612 0.05000000074505806 0 0.10000000149011612 0 0
          0.20000000298023224 0.05000000074505806 0 0.20000000298023224 0 0
          0.30000001192092896 0.05000000074505806 0 0.30000001192092896 0 0
          0.4000000059604645 0.05000000074505806 0 0.4000000059604645 0 0
          0.5 0.05000000074505806 0 0.5 0 0
          0.6000000238418579 0.05000000074505806 0
          <InformationKey name="L2_NORM_RANGE" location="vtkDataArray" length="2">
            <Value index="0">
              0
            </Value>
            <Value index="1">
              0.60207975276
            </Value>
          </InformationKey>
        </DataArray>
      </Points>
      <Cells>
        <DataArray type="Int64" Name="connectivity" format="ascii" RangeMin="0" RangeMax="12">
          3 2 1 2 0 1
          5 4 3 4 2 3
          7 6 5 6 4 5
          9 8 7 8 6 7
          11 10 9 10 8 9
          12 10 11
        </DataArray>
        <DataArray type="Int64" Name="offsets" format="ascii" RangeMin="3" RangeMax="33">
          3 6 9 12 15 18
          21 24 27 30 33
        </DataArray>
        <DataArray type="UInt8" Name="types" format="ascii" RangeMin="5" RangeMax="5">
          5 5 5 5 5 5
          5 5 5 5 5
        </DataArray>
      </Cells>
    </Piece>
  </UnstructuredGrid>
</VTKFile>
