<?xml version="1.0"?>
<VTKFile type="UnstructuredGrid" version="0.1" byte_order="LittleEndian" header_type="UInt32" compressor="vtkZLibDataCompressor">
  <UnstructuredGrid>
    <Piece NumberOfPoints="13" NumberOfCells="14">
      <PointData>
        <DataArray type="Float64" Name="Disp" NumberOfComponents="3" format="ascii" RangeMin="0" RangeMax="2.032696595817425">
          0.6159710535088136 -0.19575737288200545 0 1.394721785824236 -0.021604332227572 0
          0.15677611136187444 -0.0928918019713021 0 0.38495239872855813 -0.03223537730352729 0
          0 0 0 0.6234217465663427 0.07174126871146935 0
          0.06818668906853352 -0.002297944318955643 0 0.16743632863252153 0.07601602143476255 0
          0 0 0 1.0020703767648922 -0.11641735154962594 0
          1.6972865796113332 -0.22198485932796946 0 2.029420676215187 -0.11535670590841214 0
          1.3807210924699362 -0.32593510573229895 0
          <InformationKey name="L2_NORM_RANGE" location="vtkDataArray" length="2">
            <Value index="0">
              0
            </Value>
            <Value index="1">
              2.0326965958
            </Value>
          </InformationKey>
        </DataArray>
        <DataArray type="Float64" Name="Sld_traction" NumberOfComponents="3" format="ascii" RangeMin="0" RangeMax="173.2549400673348">
          69.17900372169693 24.516429255491385 0 21.534879870728712 -31.999244014226743 0
          147.59305989746784 41.25481880358794 0 0 0 0
          -47.46769963766862 47.93731409397621 0 55.02788681720134 -56.304141057578484 0
          0 0 0 153.74220317951662 -79.87871568349102 0
          -6.156436273506792 -42.43157211619777 0 0 0 0
          0 0 0 5.832737825276701 -11.494701171188431 0
          24.05317584297616 16.676363013443712 0
          <InformationKey name="L2_NORM_RANGE" location="vtkDataArray" length="2">
            <Value index="0">
              0
            </Value>
            <Value index="1">
              173.25494007
            </Value>
          </InformationKey>
        </DataArray>
        <DataArray type="Float64" Name="Fld_traction" NumberOfComponents="3" format="ascii" RangeMin="0" RangeMax="6.302936627825805">
          3.1556823843000785 -0.8179998803875729 0 4.744621718545347 -1.2929455167968478 0
          3.235333805113562 -0.5507916367303582 0 0 0 0
          1.5776936364358465 1.5405946432630373 0 5.832745580393565 -1.4503883256661616 0
          0 0 0 6.2198789206020315 -1.019860945148232 0
          3.1626719855008436 -3.4762292986828593 0 0 0 0
          0 0 0 3.007922948683891 -0.6949341591436756 0
          3.0640214918102906 -0.9124464023961001 0
          <InformationKey name="L2_NORM_RANGE" location="vtkDataArray" length="2">
            <Value index="0">
              0
            </Value>
            <Value index="1">
              6.3029366278
            </Value>
          </InformationKey>
        </DataArray>
        <DataArray type="Float64" Name="Velocity" NumberOfComponents="3" format="ascii" RangeMin="0" RangeMax="0.018260235632480866">
          -0.004814226247382203 -0.011519103880568274 0 0.010885327392028854 -0.013660459952766713 0
          -0.007549908964441077 -0.0023663366156110935 0 -0.006469715875211474 -0.005829187921174497 0
          0 0 0 -0.0028759663545415703 -0.006240078932102655 0
          -0.0038830039530987313 -0.0016852789060243342 0 -0.007365619311339319 -0.0037157027400926447 0
          0 0 0 0.003189907655164581 -0.012060730349282539 0
          0.006769657990182809 -0.012652673398993619 0 0.0010223352244569384 -0.013773198465644426 0
          0.009959841030712901 -0.015304828388343714 0
          <InformationKey name="L2_NORM_RANGE" location="vtkDataArray" length="2">
            <Value index="0">
              0
            </Value>
            <Value index="1">
              0.018260235632
            </Value>
          </InformationKey>
        </DataArray>
      </PointData>
      <CellData>
        <DataArray type="UInt8" Name="vtkGhostType" format="ascii" RangeMin="0" RangeMax="1">
          0 0 1 1 1 1
          1 1 0 0 0 0
          0 0
        </DataArray>
        <DataArray type="Float64" Name="Gauss Stress" NumberOfComponents="6" format="ascii" RangeMin="32.23557568119743" RangeMax="611.5693880970927">
          113.48914163609479 -269.0635087555548 0 -33.51962395775911 0 0
          -43.29409256419008 60.29479445602382 0 -149.95572479874932 0 0
          36.431910403675055 -56.40953845277993 0 108.21955886469675 0 0
          -2.9844103452137922 19.86381250543607 0 25.21219124032002 0 0
          16.22961574074702 -19.28029686062941 0 34.49632670615211 0 0
          -16.66954837864205 30.70353283694248 0 -49.1777894000352 0 0
          32.85668089146105 -80.60164811239632 0 -2.1021127363087633 0 0
          -13.245980696655248 51.5402919427252 0 60.15257769381223 0 0
          28.723464234247345 -33.5214555811735 0 413.6783713979842 0 0
          186.0211938117398 -582.5910713826918 0 -0.9356577765537128 0 0
          -218.02584170670116 538.2514432367323 0 139.56397538185288 0 0
          -68.20902190742135 65.70340183660245 0 -267.3866721780416 0 0
          87.72382387531351 -94.49652637499486 0 250.05103357763113 0 0
          -61.141300024612335 223.02940731428777 0 127.76024283880321 0 0
          <InformationKey name="L2_NORM_RANGE" location="vtkDataArray" length="2">
            <Value index="0">
              32.235575681
            </Value>
            <Value index="1">
              611.5693881
            </Value>
          </InformationKey>
        </DataArray>
        <DataArray type="Float64" Name="Gauss Strain" NumberOfComponents="6" format="ascii" RangeMin="0.005354254427349987" RangeMax="0.08320563749744454">
          0.013153550722604098 -0.02554864229991316 0 -0.006782245294221624 0 0
          -0.00499921793124003 0.005351330225063344 0 -0.029966997339009184 0 0
          0.0036985873868239927 -0.005601105748912927 0 0.021680159047981745 0 0
          -0.0005512610548541463 0.0017309447153252555 0 0.005036663788132538 0 0
          0.0016412451823796799 -0.0019107733908396707 0 0.006901261320668272 0 0
          -0.0019162455373938903 0.002816750626720599 0 -0.009826605431500794 0 0
          0.00393302804772344 -0.007452571014423424 0 -0.0004218960918811036 0 0
          -0.0019424906602507619 0.004519162366753426 0 0.011998995154447745 0 0
          5.5511151231257815e-17 -0.006242208188691921 0 0.08297115732762306 0 0
          0.022925165407074566 -0.056269285933571375 0 -0.00019281218271487152 0 0
          -0.028315748865615713 0.04575637170019997 0 0.027338648976882533 0 0
          -0.008096386410672559 0.005312443894179619 0 -0.053547571058350105 0 0
          0.007668865241989176 -0.010581315825518578 0 0.05008745326897434 0 0
          -0.008883008145923132 0.01922116832874493 0 0.02527070045193684 0 0
          <InformationKey name="L2_NORM_RANGE" location="vtkDataArray" length="2">
            <Value index="0">
              0.0053542544273
            </Value>
            <Value index="1">
              0.083205637497
            </Value>
          </InformationKey>
        </DataArray>
        <DataArray type="Float64" Name="Btraction" NumberOfComponents="3" format="ascii" RangeMin="0" RangeMax="4.101055268287777">
          2.130338729804546 -0.45626383903931034 0 0 0 0
          0 0 0 2.5841815557430787 -0.662626558646841 0
          0 0 0 0 0 0
          2.0732346253701226 -0.5768154275945575 0 3.5257890996463033 -0.9144446141543363 0
          0 0 0 1.6043424805164692 0.32993433551089285 0
          3.1275169687009576 -1.4986967479436968 0 0 0 0
          0 0 0 4.017541500331864 -0.8234164236047977 0
          <InformationKey name="L2_NORM_RANGE" location="vtkDataArray" length="2">
            <Value index="0">
              0
            </Value>
            <Value index="1">
              4.1010552683
            </Value>
          </InformationKey>
        </DataArray>
      </CellData>
      <Points>
        <DataArray type="Float32" Name="Points" NumberOfComponents="3" format="ascii" RangeMin="10" RangeMax="13.021927811442218">
          11 3.7184319496154785 0 10 6.2815680503845215 0
          11 1.6591010093688965 0 10.5 2.6568450927734375 0
          11 0 0 10 3.61250901222229 0
          10.5 0.8241099119186401 0 10 1.6373380422592163 0
          10 0 0 10.5 5 0
          10.5 7.3431549072265625 0 10 8.340899467468262 0
          11 6.387491226196289 0
          <InformationKey name="L2_NORM_RANGE" location="vtkDataArray" length="2">
            <Value index="0">
              10
            </Value>
            <Value index="1">
              13.021927811
            </Value>
          </InformationKey>
        </DataArray>
      </Points>
      <Cells>
        <DataArray type="Int64" Name="connectivity" format="ascii" RangeMin="0" RangeMax="12">
          3 2 0 5 3 0
          5 0 9 10 11 1
          12 10 1 12 1 9
          9 0 12 5 9 1
          8 4 6 6 4 2
          8 6 7 6 2 7
          7 2 3 7 3 5
        </DataArray>
        <DataArray type="Int64" Name="offsets" format="ascii" RangeMin="3" RangeMax="42">
          3 6 9 12 15 18
          21 24 27 30 33 36
          39 42
        </DataArray>
        <DataArray type="UInt8" Name="types" format="ascii" RangeMin="5" RangeMax="5">
          5 5 5 5 5 5
          5 5 5 5 5 5
          5 5
        </DataArray>
      </Cells>
    </Piece>
  </UnstructuredGrid>
</VTKFile>
