<?xml version="1.0"?>
<VTKFile type="UnstructuredGrid" version="0.1" byte_order="LittleEndian" header_type="UInt32" compressor="vtkZLibDataCompressor">
  <UnstructuredGrid>
    <Piece NumberOfPoints="13" NumberOfCells="14">
      <PointData>
        <DataArray type="Float64" Name="Disp" NumberOfComponents="3" format="ascii" RangeMin="0" RangeMax="1.9665066516375387">
          0.597643616960736 -0.18849970536549263 0 1.3507491470993396 -0.016756173761499623 0
          0.15209219917384992 -0.09010650036881253 0 0.37310745501024917 -0.030718901062187873 0
          0 0 0 0.6037809189002025 0.07070832534021775 0
          0.06604800021840995 -0.002302406443356624 0 0.1620140720456532 0.07364179314750828 0
          0 0 0 0.9711524178964365 -0.11002955603069157 0
          1.6438270948444724 -0.20896485120885988 0 1.963727696658761 -0.10450810643180619 0
          1.3387023084065701 -0.3110901329567601 0
          <InformationKey name="L2_NORM_RANGE" location="vtkDataArray" length="2">
            <Value index="0">
              0
            </Value>
            <Value index="1">
              1.9665066516
            </Value>
          </InformationKey>
        </DataArray>
        <DataArray type="Float64" Name="Sld_traction" NumberOfComponents="3" format="ascii" RangeMin="0" RangeMax="167.63550459297346">
          66.34352015108577 24.91577328878263 0 20.306451224589477 -30.62798780195872 0
          143.11366393746604 40.73262249370022 0 0 0 0
          -45.34146170101173 47.00293882466628 0 53.297421315957784 -54.44227616547562 0
          0 0 0 148.95455069073037 -76.9038635483515 0
          -6.355462672113629 -40.20564244396547 0 0 0 0
          0 0 0 5.127338095008148 -10.306485042467127 0
          22.193385704381395 16.881684266538002 0
          <InformationKey name="L2_NORM_RANGE" location="vtkDataArray" length="2">
            <Value index="0">
              0
            </Value>
            <Value index="1">
              167.63550459
            </Value>
          </InformationKey>
        </DataArray>
        <DataArray type="Float64" Name="Fld_traction" NumberOfComponents="3" format="ascii" RangeMin="0" RangeMax="6.1816873287556335">
          2.6156107291175243 -0.655903600497018 0 4.616057708882418 -1.2044805310359186 0
          2.6674381905586135 -0.43918409777015355 0 0 0 0
          1.3034144083934494 1.2831265270049579 0 5.68869509121712 -1.3642201604088413 0
          0 0 0 6.1053554696654695 -0.9684486664371482 0
          3.1117342710354765 -3.4264719249339968 0 0 0 0
          0 0 0 2.996509401929912 -0.6545794110866934 0
          2.6113439411040695 -0.750574614558792 0
          <InformationKey name="L2_NORM_RANGE" location="vtkDataArray" length="2">
            <Value index="0">
              0
            </Value>
            <Value index="1">
              6.1816873288
            </Value>
          </InformationKey>
        </DataArray>
        <DataArray type="Float64" Name="Velocity" NumberOfComponents="3" format="ascii" RangeMin="0" RangeMax="0.02034196132923894">
          0.019360972623360395 0.004038801002880996 0 -0.0032253130330157642 0.0034379654416174382 0
          0.011108655259571554 -0.0014650792948518523 0 0.016413401750478035 0.0016527359231375133 0
          0 0 0 0.02034092151108291 0.00020567644545985142 0
          0.005429509923470192 0.0009103883686249121 0 0.013110300753757534 0.004651792824292424 0
          0 0 0 0.008550785398927396 0.004751003769342926 0
          -0.008120904411089258 0.0077313145981965925 0 -0.011963365126359093 0.007964312451448581 0
          -0.0021588657819857637 0.011018167647293093 0
          <InformationKey name="L2_NORM_RANGE" location="vtkDataArray" length="2">
            <Value index="0">
              0
            </Value>
            <Value index="1">
              0.020341961329
            </Value>
          </InformationKey>
        </DataArray>
      </PointData>
      <CellData>
        <DataArray type="UInt8" Name="vtkGhostType" format="ascii" RangeMin="0" RangeMax="1">
          0 0 1 1 1 1
          1 1 0 0 0 0
          0 0
        </DataArray>
        <DataArray type="Float64" Name="Gauss Stress" NumberOfComponents="6" format="ascii" RangeMin="28.303904290891843" RangeMax="594.6308409356953">
          110.26313173406109 -262.7232043186461 0 -29.80573341309651 0 0
          -39.87097099622602 54.19773667052079 0 -145.87677622200886 0 0
          32.88853900337029 -53.741471824179314 0 104.48766332597059 0 0
          -2.734076404440584 16.97967005304912 0 22.479471284090152 0 0
          13.97361577982725 -17.83337283281859 0 31.420726900018543 0 0
          -14.876429351260658 26.549700746954784 0 -46.64777199497304 0 0
          31.280647712598004 -78.65144436173154 0 -0.2795889044719517 0 0
          -13.390029567131807 48.39877573823835 0 57.24738592569305 0 0
          26.593367408934103 -33.58666894042089 0 400.70326830188117 0 0
          181.0203869650919 -566.4068339761671 0 0.8688613210621587 0 0
          -211.52099387018978 520.5886500244959 0 132.80913965605973 0 0
          -64.33982262032342 59.457038838236414 0 -260.0503307250353 0 0
          81.6103921367329 -90.48557926114096 0 243.11705062085747 0 0
          -60.77817635144878 215.69486697674432 0 121.68734697275735 0 0
          <InformationKey name="L2_NORM_RANGE" location="vtkDataArray" length="2">
            <Value index="0">
              28.303904291
            </Value>
            <Value index="1">
              594.63084094
            </Value>
          </InformationKey>
        </DataArray>
        <DataArray type="Float64" Name="Gauss Strain" NumberOfComponents="6" format="ascii" RangeMin="0.0047550848951953455" RangeMax="0.08059546793822885">
          0.012811102362338674 -0.02491392830998629 0 -0.006029294365685904 0 0
          -0.0045912131908708576 0.0048096554492833565 0 -0.02915673968373348 0 0
          0.003374842352690365 -0.005303075518999334 0 0.020933516047978468 0 0
          -0.00048619540043648435 0.0014832880973426605 0 0.004491581326592109 0 0
          0.0014317803805780072 -0.0017500104434938768 0 0.006286302784187495 0 0
          -0.0016974310885654593 0.002442087877030985 0 -0.009322586320189608 0 0
          0.0037727434393777792 -0.007258670882435703 0 -0.00005611211406632108 0 0
          -0.0019036957468329114 0.004260408670726024 0 0.011422097020140746 0 0
          0 -0.00603516490166256 0 0.08036918711043316 0 0
          0.022336491908787726 -0.05460745197001271 0 0.0001788899704296994 0 0
          -0.027374369569881374 0.044378034284046186 0 0.026032644436698796 0 0
          -0.0075980973680789266 0.004799151373826083 0 -0.052083850873588064 0 0
          0.007161460838454481 -0.01007624269523244 0 0.048702820973047824 0 0
          -0.008714471470402274 0.018641198814261517 0 0.02408074871625489 0 0
          <InformationKey name="L2_NORM_RANGE" location="vtkDataArray" length="2">
            <Value index="0">
              0.0047550848952
            </Value>
            <Value index="1">
              0.080595467938
            </Value>
          </InformationKey>
        </DataArray>
        <DataArray type="Float64" Name="Btraction" NumberOfComponents="3" format="ascii" RangeMin="0" RangeMax="4.007506463409134">
          1.7610163065587123 -0.36502923275572374 0 0 0 0
          0 0 0 2.537522370270776 -0.6196866473742038 0
          0 0 0 0 0 0
          1.7423182234071977 -0.46882607168526996 0 3.434917600033179 -0.8562335638149197 0
          0 0 0 1.3236175329840205 0.281314143078268 0
          3.0723632469003146 -1.464973530457048 0 0 0 0
          0 0 0 3.931350186960862 -0.7775562756153297 0
          <InformationKey name="L2_NORM_RANGE" location="vtkDataArray" length="2">
            <Value index="0">
              0
            </Value>
            <Value index="1">
              4.0075064634
            </Value>
          </InformationKey>
        </DataArray>
      </CellData>
      <Points>
        <DataArray type="Float32" Name="Points" NumberOfComponents="3" format="ascii" RangeMin="10" RangeMax="13.021927811442218">
          11 3.7184319496154785 0 10 6.2815680503845215 0
          11 1.6591010093688965 0 10.5 2.6568450927734375 0
          11 0 0 10 3.61250901222229 0
          10.5 0.8241099119186401 0 10 1.6373380422592163 0
          10 0 0 10.5 5 0
          10.5 7.3431549072265625 0 10 8.340899467468262 0
          11 6.387491226196289 0
          <InformationKey name="L2_NORM_RANGE" location="vtkDataArray" length="2">
            <Value index="0">
              10
            </Value>
            <Value index="1">
              13.021927811
            </Value>
          </InformationKey>
        </DataArray>
      </Points>
      <Cells>
        <DataArray type="Int64" Name="connectivity" format="ascii" RangeMin="0" RangeMax="12">
          3 2 0 5 3 0
          5 0 9 10 11 1
          12 10 1 12 1 9
          9 0 12 5 9 1
          8 4 6 6 4 2
          8 6 7 6 2 7
          7 2 3 7 3 5
        </DataArray>
        <DataArray type="Int64" Name="offsets" format="ascii" RangeMin="3" RangeMax="42">
          3 6 9 12 15 18
          21 24 27 30 33 36
          39 42
        </DataArray>
        <DataArray type="UInt8" Name="types" format="ascii" RangeMin="5" RangeMax="5">
          5 5 5 5 5 5
          5 5 5 5 5 5
          5 5
        </DataArray>
      </Cells>
    </Piece>
  </UnstructuredGrid>
</VTKFile>
