<?xml version="1.0"?>
<VTKFile type="UnstructuredGrid" version="0.1" byte_order="LittleEndian" header_type="UInt32" compressor="vtkZLibDataCompressor">
  <UnstructuredGrid>
    <Piece NumberOfPoints="11" NumberOfCells="12">
      <PointData>
        <DataArray type="Float64" Name="Disp" NumberOfComponents="3" format="ascii" RangeMin="0.6247719520973815" RangeMax="2.5356437987936307">
          2.4799195826651435 -0.4984526973321145 0 1.9757748033567217 -0.4187417373349389 0
          1.3746121867759316 -0.3209876760254993 0 2.250287042122479 -0.3045564480144276 0
          1.6884319656658637 -0.2169393267213897 0 2.528482345285971 -0.19043766417846955 0
          2.017301135799369 -0.11077065716967976 0 0.997546710737532 -0.1135862042083013 0
          0.6204980629114298 0.07295304003765712 0 0.6131724800040577 -0.19328222085019287 0
          1.3882749045098888 -0.0187494446484672 0
          <InformationKey name="L2_NORM_RANGE" location="vtkDataArray" length="2">
            <Value index="0">
              0.6247719521
            </Value>
            <Value index="1">
              2.5356437988
            </Value>
          </InformationKey>
        </DataArray>
        <DataArray type="Float64" Name="Sld_traction" NumberOfComponents="3" format="ascii" RangeMin="0" RangeMax="78.54264141361509">
          2.356965522382941 1.950613121238033 0 7.582161381393599 6.408236186378157 0
          22.54295301344982 17.475214030545267 0 0 0 0
          0 0 0 0.19640766604049725 -0.6248764170608717 0
          4.6125416174121145 -10.48514137444123 0 0 0 0
          54.583440515601744 -56.476495480044534 0 68.10634631320292 25.326312387580835 0
          20.23244754268143 -31.870171635185795 0
          <InformationKey name="L2_NORM_RANGE" location="vtkDataArray" length="2">
            <Value index="0">
              0
            </Value>
            <Value index="1">
              78.542641414
            </Value>
          </InformationKey>
        </DataArray>
        <DataArray type="Float64" Name="Fld_traction" NumberOfComponents="3" format="ascii" RangeMin="0" RangeMax="4.5012053348996925">
          1.9666926547376962 0.3673910792500029 0 2.706329139531282 -0.8305207743204066 0
          2.610005589420405 -0.7692117503973536 0 0 0 0
          0 0 0 0.7809687523022864 0.6119660945124229 0
          2.6899683047884193 -0.5835516381543443 0 0 0 0
          0 0 0 2.5013283780922024 -0.6432454637290959 0
          4.348579305180163 -1.1621994207055295 0
          <InformationKey name="L2_NORM_RANGE" location="vtkDataArray" length="2">
            <Value index="0">
              0
            </Value>
            <Value index="1">
              4.5012053349
            </Value>
          </InformationKey>
        </DataArray>
        <DataArray type="Float64" Name="Velocity" NumberOfComponents="3" format="ascii" RangeMin="0.009159015372631531" RangeMax="0.034126613472126144">
          -0.021167008999937176 0.017214090828298056 0 -0.025938134378320488 0.021807820911539988 0
          -0.02217765241872227 0.02519968780194296 0 -0.0228579040228043 0.020669031398086027 0
          -0.024478885881121792 0.02274373861215312 0 -0.01923785706921688 0.020623315883197005 0
          -0.02526141605609311 0.02294529594310918 0 -0.012237239709884995 0.01772302503193182 0
          -0.0029714009552842535 0.008663621584478198 0 -0.0007829207621297685 0.01646940794419345 0
          -0.023779090020723315 0.01937023511097631 0
          <InformationKey name="L2_NORM_RANGE" location="vtkDataArray" length="2">
            <Value index="0">
              0.0091590153726
            </Value>
            <Value index="1">
              0.034126613472
            </Value>
          </InformationKey>
        </DataArray>
      </PointData>
      <CellData>
        <DataArray type="UInt8" Name="vtkGhostType" format="ascii" RangeMin="0" RangeMax="0">
          0 0 0 0 0 0
          0 0 0 0 0 0
        </DataArray>
        <DataArray type="Float64" Name="Gauss Stress" NumberOfComponents="6" format="ascii" RangeMin="3.0521847511230464" RangeMax="125.6012536476257">
          1.3868806844738142 2.6314939849182677 0 0.6838370634591782 0 0
          1.7386508611283302 4.6799883254024 0 4.285661725267054 0 0
          3.6171738554907913 -1.7792150235031134 0 0.9841311403080415 0 0
          4.007840946632572 0.3323002664265515 0 4.591107151872594 0 0
          -2.6494834549790816 9.137348912216975 0 -5.813783580789776 0 0
          35.9195418008518 -51.80992036898149 0 108.63329869810575 0 0
          -1.300769104374405 20.335460315575794 0 24.133238188405084 0 0
          12.64023949400399 -26.58538371174402 0 2.5098751749048693 0 0
          14.815690118321118 -13.754063327475624 0 32.548606634712385 0 0
          -15.394058694877668 32.87386777259452 0 -45.427149878589 0 0
          32.558339647049195 -75.79814882200121 0 0.944585305908398 0 0
          -12.175387907158479 53.654440323973354 0 61.31942449087755 0 0
          <InformationKey name="L2_NORM_RANGE" location="vtkDataArray" length="2">
            <Value index="0">
              3.0521847511
            </Value>
            <Value index="1">
              125.60125365
            </Value>
          </InformationKey>
        </DataArray>
        <DataArray type="Float64" Name="Gauss Strain" NumberOfComponents="6" format="ascii" RangeMin="0.00026005649477568043" RangeMax="0.022654583817011433">
          0.00008129592255340379 0.00020572773316163137 0 0.00013673497452876157 0 0
          0.00008190494606125087 0.0003759185743463789 0 0.0008567823099205635 0 0
          0.00033530201231302126 -0.00020429300130975214 0 0.00019681022549290192 0 0
          0.00033832976544789783 -0.000029128801761202354 0 0.000917982850803875 0 0
          -0.0003585366628569009 0.000819660202878658 0 -0.001162276917081617 0 0
          0.003589649672656292 -0.005195410611080753 0 0.021756660858961434 0 0
          -0.00041241230269839496 0.0017483976125969298 0 0.004820372288861572 0 0
          0.0014586424124258812 -0.002468044489127963 0 0.0005025028625875267 0 0
          0.0014447331241256856 -0.001412219624581934 0 0.006509669841433415 0 0
          -0.0018315113401821126 0.0029896763904087016 0 -0.009074879890602188 0 0
          0.003840961621287109 -0.007029136977276694 0 0.00018951768472843343 0 0
          -0.001882952879593724 0.00468129998943001 0 0.012228991597179053 0 0
          <InformationKey name="L2_NORM_RANGE" location="vtkDataArray" length="2">
            <Value index="0">
              0.00026005649478
            </Value>
            <Value index="1">
              0.022654583817
            </Value>
          </InformationKey>
        </DataArray>
        <DataArray type="Float64" Name="Btraction" NumberOfComponents="3" format="ascii" RangeMin="0" RangeMax="2.417271170769607">
          0.915887135679994 0.3264523912541418 0 1.156979019030235 0.00947148545269283 0
          1.5576739314229924 -0.15437656502346783 0 0 0 0
          0 0 0 0 0 0
          2.3461825366561935 -0.5819170196199579 0 1.7721115763172286 -0.5332441749059199 0
          0 0 0 0 0 0
          1.7037779891708684 -0.470819071375483 0 0 0 0
          <InformationKey name="L2_NORM_RANGE" location="vtkDataArray" length="2">
            <Value index="0">
              0
            </Value>
            <Value index="1">
              2.4172711708
            </Value>
          </InformationKey>
        </DataArray>
      </CellData>
      <Points>
        <DataArray type="Float32" Name="Points" NumberOfComponents="3" format="ascii" RangeMin="10.632507764558053" RangeMax="14.866068747318506">
          11 10 0 11 8.362662315368652 0
          11 6.387491226196289 0 10.5 9.17588996887207 0
          10.5 7.3431549072265625 0 10 10 0
          10 8.340899467468262 0 10.5 5 0
          10 3.61250901222229 0 11 3.7184319496154785 0
          10 6.2815680503845215 0
          <InformationKey name="L2_NORM_RANGE" location="vtkDataArray" length="2">
            <Value index="0">
              10.632507765
            </Value>
            <Value index="1">
              14.866068747
            </Value>
          </InformationKey>
        </DataArray>
      </Points>
      <Cells>
        <DataArray type="Int64" Name="connectivity" format="ascii" RangeMin="0" RangeMax="10">
          0 5 3 3 5 6
          0 3 1 3 6 1
          1 6 4 8 9 7
          4 6 10 1 4 2
          2 4 10 2 10 7
          7 9 2 8 7 10
        </DataArray>
        <DataArray type="Int64" Name="offsets" format="ascii" RangeMin="3" RangeMax="36">
          3 6 9 12 15 18
          21 24 27 30 33 36
        </DataArray>
        <DataArray type="UInt8" Name="types" format="ascii" RangeMin="5" RangeMax="5">
          5 5 5 5 5 5
          5 5 5 5 5 5
        </DataArray>
      </Cells>
    </Piece>
  </UnstructuredGrid>
</VTKFile>
