<?xml version="1.0"?>
<VTKFile type="UnstructuredGrid" version="0.1" byte_order="LittleEndian" header_type="UInt32" compressor="vtkZLibDataCompressor">
  <UnstructuredGrid>
    <Piece NumberOfPoints="94" NumberOfCells="150">
      <PointData>
        <DataArray type="Float64" Name="Velocity" NumberOfComponents="3" format="ascii" RangeMin="1.6673955057290878e-23" RangeMax="2.6775454175515194">
          2.4845468423123918 0 0 2.4902378822695166 0.1515608895248262 0
          2.668808685742803 0.21612418179119447 0 2.207082078505592 0 0
          2.077040290693156 0.2828278467800131 0 2.3392297920244536 0.26131195302867233 0
          2.5865714023058373 0.46046288673340957 0 2.1288349310900427 0.3123065953601825 0
          1.1431056987312413 0.3151443968879529 0 1.800065617146117 0 0
          2.2742342572623864 0.48694059083251395 0 2.140709905995855 0.3735357479304244 0
          2.47582987944403 0.7069398045813308 0 0.3149910884778083 0.27018865172103507 0
          1.3191603537091916 0.4180337027518679 0 2.4920795143456487 0.7872169620905097 0
          0.05736599478085808 0.2219487326866169 0 2.2379175014897355 0.7041302283046408 0
          0.4593632033937706 0.305386487301279 0 1.7392960843564589 0.7696977870452298 0
          -0.017567490598724686 0.013795151441435161 0 2.4142265650623984 1.0955286881394746 0
          1.7151063376974003 0.27720695856982724 0 -0.008646127316869208 0.008995014140729132 0
          0.9586715267481775 0.5292619924865851 0 2.099747320407008 0.8641317629216521 0
          2.1118207802461213 1.3401379709027748 0 -0.019747121106457217 0.007188080501426449 0
          -0.010095811424671166 0.00415476238492653 0 2.0492445643396024 1.0785382457364736 0
          1.7409013139282477 1.5285971108740195 0 1.408976616109303 0 0
          -0.005442869857010315 0.002719703323563939 0 -0.005690896738796412 0.0018805544775395817 0
          1.8676359534934648 1.357822689095206 0 1.117142516877321 1.659107991479701 0
          1.6761041479898808 0.617396396742564 0 -0.007062899815264834 0.0009231969071137764 0
          1.7338389460859334 0.996433632530865 0 1.5640528558872162 1.517135334710394 0
          -0.004365404941062771 -0.0007214619589530571 0 1.1075757545115028 1.5836426846348564 0
          0.321471544670405 0.8011960835895882 0 -1.6673955057290878e-23 0 0
          1.5323947922312058 1.1113161807641818 0 1.2336930550637806 1.4299718624907816 0
          0.9447365865192218 1.3927569505355408 0 1.447770758822784 0.7268171248860775 0
          1.270761233677429 0.1955248476007598 0 0.4415155215734346 0.7426065898785261 0
          1.3250925891487495 1.0401836928312882 0 1.080057115373521 1.1657507905088829 0
          1.3609448735094722 0.8154530076833445 0 0.79229783832393 1.0284223985120062 0
          0.19468802218427086 0 0 1.1478130918648093 0.955231234375135 0
          1.2957879448761913 0.6374170427791666 0 0.34671261775237794 0.27000807945363614 0
          0.9485098629248582 0.9254072163527929 0 0.6517110421959773 0.5456227681012387 0
          1.2345086883105516 0.3843912349777806 0 1.2135974427159124 0.6002772877653022 0
          1.1183953543494731 0 0 1.0436077714176555 0.6796952802733528 0
          0.4946779954034215 0 0 0.8869680017139405 0.6237591022608995 0
          0.8278287049350127 0.48752481713814005 0 1.040933776148092 0.12963061063458817 0
          0.7690955823161496 0.28454844718295297 0 0.7340972978944834 0 0
          1.0510737945468027 0.2320369967296123 0 1.048293899323483 0.3559607005003677 0
          0.9797277528311276 0.3271939867321948 0 0.9518927650958486 0.25717701251784925 0
          0.9087853719957597 0.15398813085647703 0 0.9188694455764995 0 0
          1.0000000000372393 0 0 1.0000000000372393 0 0
          1.0000000000372393 0 0 1.00263759830929 0 0
          1.0000000000372393 0 0 1.0000000000372395 0 0
          1.0000000000372393 0 0 1.0000000000372393 0 0
          2.6533727271668472 0.12887621521058978 0 2.5917028380106806 0 0
          0.14532826394562312 0.30426131592213324 0 0.31104566458128374 0.264607976085881 0
          1.144823674173611 0.17810498609410508 0 1.2044394498656457 0.13621986522210194 0
          2.097438369188894 0.12513356092536487 0 2.1038926815450374 0.06770835338178047 0
          0.0966401863477251 0.29078751629607913 0 -0.00493871959015595 0.0039313335557202515 0
          <InformationKey name="L2_NORM_RANGE" location="vtkDataArray" length="2">
            <Value index="0">
              1.6673955057e-23
            </Value>
            <Value index="1">
              2.6775454176
            </Value>
          </InformationKey>
        </DataArray>
        <DataArray type="Float64" Name="Pressure" format="ascii" RangeMin="-3.299688041963473" RangeMax="5.789395143688099">
          -2.2932711411032334 -2.088641715564448 -2.6240183934503465 -1.0674936521183445 -3.1059426629014215 -1.1338480057453495
          -1.9771348232160844 -2.9571654913545684 -3.2516615531951376 0.612203260422463 -2.7254465765937597 -0.17474356429994276
          -1.879148398598132 -3.2707797278596407 -3.18443938031389 -2.227119419308612 -3.1163730147748 -0.3940875407875638
          -3.2159420243511843 -2.9319507797164244 -2.888197247818454 -1.1503047650896387 1.1225525350460712 -2.954504770608815
          -2.7365416129553344 0.2091968800694488 -1.5313486894594825 -0.6022019220005985 2.3698356206233355 0.29749153714479315
          -1.2169336915381592 1.899824116053064 3.8192604530466774 4.933254602979699 0.3438223582362206 0.7300332578988877
          1.4473227885336084 5.553840215202035 1.3211551121596252 1.1504302844453655 5.727280495840494 2.5948913644459033
          4.472618663611183 5.789395143688099 1.8261062208339807 2.394708221643884 3.697264164888272 2.073367121546794
          2.2875994048971524 5.199065268937546 2.492645703797834 3.349216872812848 2.4872405557183415 4.646613258300762
          5.786677330752416 3.195675534137068 2.5431349616680623 5.710599687328936 4.106502068931109 5.4827291288487405
          2.639855205122433 3.012262771084737 2.7135703814083834 3.725369856371571 5.703236128648311 4.48185401645175
          5.096550485428018 2.852568395325755 5.404518126840219 5.4458015224728475 3.201825518048607 3.6453492899897997
          4.3023632560852105 4.793560173170166 5.125580148192523 5.275788982632012 2.855810372828822 3.052011596067448
          3.5521838079382224 5.1743739082125115 4.201905410178588 4.715558868140692 5.021935434143987 5.122947521677811
          -3.0239400474675073 -2.8173668946963715 -3.217688470294748 -3.299688041963473 -3.2749798538760944 -3.2941186826791378
          -3.0489153834630405 -3.1037399665585848 -3.104431090167782 -2.882195452027019
        </DataArray>
        <DataArray type="Float64" Name="BTraction" NumberOfComponents="3" format="ascii" RangeMin="0" RangeMax="5.747715797603977">
          -0.006489274567660456 2.1558861042023367 0 0 0 0
          0 0 0 -0.01037476771525486 0.9527252374091141 0
          0 0 0 0 0 0
          0 0 0 0 0 0
          0 0 0 -0.008851476824500623 -0.5982776821999849 0
          0 0 0 0 0 0
          0 0 0 0 0 0
          0 0 0 0 0 0
          0 0 0 0 0 0
          0 0 0 0 0 0
          -2.0390069282740653 -0.40776240678093373 0 0 0 0
          0 0 0 -2.806884166723545 0.8576007135010232 0
          0 0 0 0 0 0
          0 0 0 -0.6736094635400731 -0.7173529334912824 0
          -2.28671562161079 0.4418096872116485 0 0 0 0
          0 0 0 -0.0009563123845831215 -1.8672121239797959 0
          -3.7472593140798325 0.9787805290199888 0 -4.730735428570094 1.2577351914442778 0
          0 0 0 0 0 0
          0 0 0 -5.36895011148446 1.2773232801114025 0
          0 0 0 0 0 0
          -5.680052573649648 0.8793404634169498 0 0 0 0
          0 0 0 -2.8880702612648386 3.178681090672697 0
          0 0 0 0 0 0
          0 0 0 0 0 0
          0 0 0 0 0 0
          0 0 0 0 0 0
          0 0 0 0 0 0
          -0.003776677982091818 5.74029898120032 0 0 0 0
          0 0 0 0 0 0
          0 0 0 0 0 0
          0 0 0 0 0 0
          0.0035555525781325744 -2.6300396630198852 0 0 0 0
          -0.006765183923673684 5.613647454855095 0 0 0 0
          0 0 0 0 0 0
          0 0 0 -0.007397254720896824 5.412358949198209 0
          0 0 0 0 0 0
          0 0 0 0 0 0
          0 0 0 -0.003001236034842819 5.248892856673928 0
          1.4587497771765647 -1.4170224789983128 0 3.089782956754151 -0.009988564188208716 0
          3.5605524149926286 -0.01616809907629488 0 0.0004883380234600135 5.169784538803562 0
          4.160382266903311 -0.01895664511409215 0 4.6760096849348685 -0.017397568231142645 0
          4.987346457202017 -0.008137696341800666 0 2.9352604416906214 2.1751696787833468 0
          0 0 0 -0.003957242181000249 2.746680249287773 0
          0 0 0 0 0 0
          0 0 0 0 0 0
          0 0 0 0 0 0
          0 0 0 -2.7688912205535074 0.8253324263889605 0
          <InformationKey name="L2_NORM_RANGE" location="vtkDataArray" length="2">
            <Value index="0">
              0
            </Value>
            <Value index="1">
              5.7477157976
            </Value>
          </InformationKey>
        </DataArray>
        <DataArray type="Float64" Name="ALEdispl" NumberOfComponents="3" format="ascii" RangeMin="0" RangeMax="2.673282973654616">
          0 0 0 0.8372879910310019 -0.1015802404786911 0
          1.6502887152500265 -0.35921315755839794 0 0 0 0
          2.1156443378353638 -0.5773512090238508 0 1.048793637285306 -0.1646168823970772 0
          1.9519217533547135 -0.43739929030176955 0 2.2807467729036297 -0.6045739663772558 0
          2.43905700968851 -0.6653267105372715 0 0 0 0
          2.392463853699739 -0.547672179956978 0 1.3529009130603133 -0.20266821862963022 0
          2.2735197157773306 -0.4197580052531074 0 2.4813817299993555 -0.688716263279373 0
          2.566398510598685 -0.5769032293230306 0 2.493493161647919 -0.4408041293282534 0
          2.3877018004368513 -0.6601381684683725 0 2.128712354087465 -0.28961400610052684 0
          2.5809195367281528 -0.5597111946450831 0 2.6426255381129886 -0.4036980586338074 0
          2.4631486184407305 -0.49721877377161067 0 2.5355535128169255 -0.28190094848054903 0
          1.1460263919871365 -0.10028593331061596 0 2.003735896182192 -0.4250971532191429 0
          2.63157036511523 -0.33080055813633463 0 2.286085769271723 -0.20352695413584795 0
          2.6295036949706856 -0.22390710480377105 0 2.5109832530706617 -0.19149537785689166 0
          2.054246168253662 -0.12064457170053294 0 2.455451372153637 -0.13825147231525228 0
          2.5857293729183364 -0.11319297956616141 0 0 0 0
          1.5644540920578456 -0.048432301457154256 0 1.0275149754499253 0.02105040623841577 0
          2.5271826493406215 -0.0548479770464326 0 2.393065977806011 0.0014744474489564261 0
          2.0057609398099725 -0.09237857603760669 0 0.5103290210951662 0.07158780471276512 0
          2.3380023527310807 -0.026654736495382355 0 2.4461514952055916 0.05308404408700426 0
          0.15097431840168501 0.06848066195052045 0 2.0521986030821346 0.13292726612064262 0
          1.33739062846126 0.15339344252868298 0 0 0 0
          2.3367160991556815 0.06557992935571291 0 2.240664473277468 0.18047250496189834 0
          1.6316503926227832 0.22918580743334777 0 2.104510674224533 0.010389853455433747 0
          0.9698701636672385 -0.13734985207771697 0 0.9164314353551609 0.2601229490621392 0
          2.219478673066363 0.16846567418095695 0 1.9083908145567392 0.3008479712366904 0
          2.1049607193363165 0.11374780150321334 0 1.2794317858458562 0.3406693549075225 0
          0 0 0 2.002211703015054 0.2894471048553107 0
          1.8924633945711393 0.08430685758907502 0 0.24596707083888764 0.18684952523562923 0
          1.5461458945584456 0.38507670893499873 0 0.5867807856754658 0.30155356355990987 0
          1.511017763971759 -0.0536437353131465 0 1.8482581769989712 0.17660584460658754 0
          0 0 0 1.6814535667836374 0.37338063005631456 0
          0 0 0 1.2196839848097734 0.4514499703246009 0
          0.7929174464377093 0.4434658894301041 0 0.7799776944509492 -0.1722975643067011 0
          0.3769337403706495 0.2903097875072743 0 0 0 0
          0.9602781475280111 0.02033257171335116 0 1.1136251601714937 0.2311554704845768 0
          0.8932022159037801 0.3617239017979269 0 0.658469039844984 0.3971813318035004 0
          0.36981953416897184 0.31268777216496374 0 0 0 0
          0 0 0 0 0 0
          0 0 0 0 0 0
          0 0 0 0 0 0
          0 0 0 0 0 0
          1.3614029433208368 -0.14749849602637252 0 0 0 0
          2.307452465456628 -0.7811483865838085 0 2.360434284396785 -0.7622065625341157 0
          2.2966038278071466 -0.6979993125474067 0 2.13400187979136 -0.6717682438317223 0
          1.905907128077539 -0.49758110297609465 0 1.7139724198348967 -0.39534752423442787 0
          2.089097762268906 -0.7182448171377978 0 1.50429358669855 -0.34435160532345327 0
          <InformationKey name="L2_NORM_RANGE" location="vtkDataArray" length="2">
            <Value index="0">
              0
            </Value>
            <Value index="1">
              2.6732829737
            </Value>
          </InformationKey>
        </DataArray>
        <DataArray type="Float64" Name="ALEveloc" NumberOfComponents="3" format="ascii" RangeMin="0" RangeMax="0.02400682226978624">
          0 0 0 0.005238042009773292 -0.002762871804353667 0
          0.010653533963328243 -0.006052849091035095 0 0 0 0
          0.014302049266285088 -0.008356821860282748 0 0.006317115850155375 -0.0031683588050243627 0
          0.012193141019138043 -0.00703036310295968 0 0.015273879043490979 -0.008910064853808741 0
          0.01707127524990426 -0.009715546678752407 0 0 0 0
          0.015606491479869256 -0.008939757533077852 0 0.008003990841284114 -0.0037517377911058247 0
          0.014163494872247995 -0.007871364275041426 0 0.01841627207153884 -0.010152279990968571 0
          0.017506508644507868 -0.009902929280356965 0 0.015710452524949403 -0.009124570511346186 0
          0.019410147925369436 -0.01028714894496252 0 0.01246562562873077 -0.006632472113672849 0
          0.01868030302446755 -0.01034322398563825 0 0.01735881420380947 -0.010374130645162016 0
          0.019843861608200175 -0.010858537930035883 0 0.01583410560988474 -0.009646179439265268 0
          0.006215890264653412 -0.0026994689419332085 0 0.020830002571162076 -0.011934760507797626 0
          0.018498642972769375 -0.011281017248080505 0 0.014006379397625057 -0.008631148223174956 0
          0.017259746304045365 -0.011087051829955674 0 0.019491958147019428 -0.011843143445133486 0
          0.020900358114073203 -0.011657006719282825 0 0.01567165114725677 -0.01031811946687905 0
          0.018361225570391326 -0.01190232872817093 0 0 0 0
          0.01862016568301117 -0.009387572949584436 0 0.011904993652471552 -0.005962389980690035 0
          0.017227735137498534 -0.011325007979172838 0 0.01873662152520339 -0.011965694149071556 0
          0.012457140924814869 -0.008538698341808981 0 0.0039081886927565535 -0.0026211893643942608 0
          0.015730257808354242 -0.010380876468380117 0 0.01784210494999794 -0.011345397303627977 0
          -0.00041544290541531415 -0.0010854390501940925 0 0.017882964840739923 -0.01033399538489016 0
          0.01463297940502084 -0.0063879601148326415 0 0 0 0
          0.01664971031807294 -0.010543370794160817 0 0.017306781435733942 -0.010401288571999123 0
          0.015221918310113658 -0.00757531587276572 0 0.014807505874515403 -0.009758972110741863 0
          0.005825071676305527 -0.005230007027598793 0 0.009521851713944152 -0.0026645062737579717 0
          0.016534146889243484 -0.009788515183490165 0 0.01574388199448329 -0.008376423619272544 0
          0.015421647144960637 -0.009380541702665862 0 0.012302065408301255 -0.004695673996531702 0
          0 0 0 0.015359059802846797 -0.008331945498238902 0
          0.013920390857145026 -0.008698273867353973 0 0.002213083412774264 0.0006913580441673117 0
          0.013114106009821214 -0.00592463711492619 0 0.006158677634216625 -0.0006001988971090499 0
          0.01142604241305012 -0.008176154938245694 0 0.013967840946611076 -0.007772467762021118 0
          0 0 0 0.013083624916290226 -0.006096053332487528 0
          0 0 0 0.010287762171211634 -0.0037475484235908185 0
          0.007374623669999192 -0.0013112315284595777 0 0.006484710891654366 -0.005729906184315237 0
          0.004069910337440974 0.000453294467775589 0 0 0 0
          0.007737346847660698 -0.004733415149212744 0 0.008606679675266182 -0.0038224762819985547 0
          0.006878627173359186 -0.0020460015842894697 0 0.005458798450894253 -0.0006075786366098734 0
          0.003485435445517493 0.0005788111194271472 0 0 0 0
          0 0 0 0 0 0
          0 0 0 0 0 0
          0 0 0 0 0 0
          0 0 0 0 0 0
          0.00891238113094639 -0.0038683394726589104 0 0 0 0
          0.018457627177898672 -0.010674192181113762 0 0.017614074618908404 -0.01027652467598128 0
          0.016214264843264825 -0.009564332731291536 0 0.015021741725553817 -0.009097678952493693 0
          0.0128396308838159 -0.007422233508771581 0 0.01157773720190658 -0.006293655745013282 0
          0.018755844923526332 -0.011229972253938847 0 0.017840550965822377 -0.012228373685740923 0
          <InformationKey name="L2_NORM_RANGE" location="vtkDataArray" length="2">
            <Value index="0">
              0
            </Value>
            <Value index="1">
              0.02400682227
            </Value>
          </InformationKey>
        </DataArray>
      </PointData>
      <CellData>
        <DataArray type="UInt8" Name="vtkGhostType" format="ascii" RangeMin="0" RangeMax="1">
          0 0 0 0 0 0
          0 0 1 0 0 1
          0 1 0 0 1 1
          1 0 0 0 0 0
          1 1 0 1 1 0
          1 1 0 1 0 0
          0 0 0 0 0 0
          0 0 0 0 0 0
          0 0 0 0 0 0
          0 0 0 0 0 0
          0 0 0 0 0 0
          0 0 0 0 0 0
          0 0 0 0 0 0
          0 0 0 0 0 0
          0 1 0 0 0 0
          0 0 0 1 0 0
          0 0 0 0 0 1
          0 0 0 0 0 0
          0 0 0 0 0 0
          0 0 0 0 0 0
          0 0 0 0 0 0
          0 0 0 0 0 0
          0 1 0 0 0 0
          0 0 0 0 0 0
          0 0 0 0 0 0
        </DataArray>
        <DataArray type="Float64" Name="PStrain" NumberOfComponents="6" format="ascii" RangeMin="0.006809689954834262" RangeMax="2.3206437936733186">
          0.010195910097028487 0.010195910097028487 0 0.010195910097028487 0 0
          0.012378470855475186 0.012378470855475186 0 0.012378470855475186 0 0
          0.015156328908245028 0.015156328908245028 0 0.015156328908245028 0 0
          0.012146446212165806 0.012146446212165806 0 0.012146446212165806 0 0
          0.00884553047336729 0.00884553047336729 0 0.00884553047336729 0 0
          0.008434590767472272 0.008434590767472272 0 0.008434590767472272 0 0
          0.007674572260296756 0.007674572260296756 0 0.007674572260296756 0 0
          0.010857855155625953 0.010857855155625953 0 0.010857855155625953 0 0
          0.00928858076079683 0.00928858076079683 0 0.00928858076079683 0 0
          0.007638834539234442 0.007638834539234442 0 0.007638834539234442 0 0
          0.009514508273927335 0.009514508273927335 0 0.009514508273927335 0 0
          0.0059123583129820755 0.0059123583129820755 0 0.0059123583129820755 0 0
          0.007292662313894711 0.007292662313894711 0 0.007292662313894711 0 0
          0.004849968904263914 0.004849968904263914 0 0.004849968904263914 0 0
          0.07826318230730786 0.07826318230730786 0 0.07826318230730786 0 0
          0.05276865574678311 0.05276865574678311 0 0.05276865574678311 0 0
          0.09228193229762834 0.09228193229762834 0 0.09228193229762834 0 0
          0.09419939348590382 0.09419939348590382 0 0.09419939348590382 0 0
          0.046694486973783304 0.046694486973783304 0 0.046694486973783304 0 0
          0.05417517872734755 0.05417517872734755 0 0.05417517872734755 0 0
          0.041744711171178464 0.041744711171178464 0 0.041744711171178464 0 0
          0.02408676775279656 0.02408676775279656 0 0.02408676775279656 0 0
          0.02049930020723941 0.02049930020723941 0 0.02049930020723941 0 0
          0.024098648870799964 0.024098648870799964 0 0.024098648870799964 0 0
          0.042843819877375275 0.042843819877375275 0 0.042843819877375275 0 0
          0.025181702596529604 0.025181702596529604 0 0.025181702596529604 0 0
          0.021733762842783964 0.021733762842783964 0 0.021733762842783964 0 0
          0.02896799158703712 0.02896799158703712 0 0.02896799158703712 0 0
          0.017529899327768286 0.017529899327768286 0 0.017529899327768286 0 0
          0.02504727164246436 0.02504727164246436 0 0.02504727164246436 0 0
          0.015776891987923446 0.015776891987923446 0 0.015776891987923446 0 0
          0.013488384101194868 0.013488384101194868 0 0.013488384101194868 0 0
          0.015149481548450645 0.015149481548450645 0 0.015149481548450645 0 0
          0.0071057080043073605 0.0071057080043073605 0 0.0071057080043073605 0 0
          0.09999999999999999 0.09999999999999999 0 0.09999999999999999 0 0
          0.004989723163055409 0.004989723163055409 0 0.004989723163055409 0 0
          0.011902234458683771 0.011902234458683771 0 0.011902234458683771 0 0
          0.007642463133310792 0.007642463133310792 0 0.007642463133310792 0 0
          0.005662561425661554 0.005662561425661554 0 0.005662561425661554 0 0
          0.014500212358123772 0.014500212358123772 0 0.014500212358123772 0 0
          0.028679383755480466 0.028679383755480466 0 0.028679383755480466 0 0
          0.03425386308222325 0.03425386308222325 0 0.03425386308222325 0 0
          0.013770969667025474 0.013770969667025474 0 0.013770969667025474 0 0
          0.04470152988172606 0.04470152988172606 0 0.04470152988172606 0 0
          0.020443791984836715 0.020443791984836715 0 0.020443791984836715 0 0
          0.058120862046100036 0.058120862046100036 0 0.058120862046100036 0 0
          0.012835840514396934 0.012835840514396934 0 0.012835840514396934 0 0
          0.008338296006929927 0.008338296006929927 0 0.008338296006929927 0 0
          0.05170069915256463 0.05170069915256463 0 0.05170069915256463 0 0
          0.032990344006340044 0.032990344006340044 0 0.032990344006340044 0 0
          0.03851953462006057 0.03851953462006057 0 0.03851953462006057 0 0
          0.02544352291366671 0.02544352291366671 0 0.02544352291366671 0 0
          0.010503469651482604 0.010503469651482604 0 0.010503469651482604 0 0
          0.01620101178123022 0.01620101178123022 0 0.01620101178123022 0 0
          0.030896241823522512 0.030896241823522512 0 0.030896241823522512 0 0
          0.030955327366989797 0.030955327366989797 0 0.030955327366989797 0 0
          0.02853609721703019 0.02853609721703019 0 0.02853609721703019 0 0
          0.013723621144296844 0.013723621144296844 0 0.013723621144296844 0 0
          0.017665210573621623 0.017665210573621623 0 0.017665210573621623 0 0
          0.012624600026429244 0.012624600026429244 0 0.012624600026429244 0 0
          0.004424673058229139 0.004424673058229139 0 0.004424673058229139 0 0
          0.0078025571379561134 0.0078025571379561134 0 0.0078025571379561134 0 0
          0.01422388222627154 0.01422388222627154 0 0.01422388222627154 0 0
          0.01155690589465071 0.01155690589465071 0 0.01155690589465071 0 0
          0.009608555716005435 0.009608555716005435 0 0.009608555716005435 0 0
          0.0065182825302336645 0.0065182825302336645 0 0.0065182825302336645 0 0
          0.003931576328521451 0.003931576328521451 0 0.003931576328521451 0 0
          1.3398243189705248 1.3398243189705248 0 1.3398243189705248 0 0
          0.8628276007676817 0.8628276007676817 0 0.8628276007676817 0 0
          0.8796649927758791 0.8796649927758791 0 0.8796649927758791 0 0
          0.9174589498614485 0.9174589498614485 0 0.9174589498614485 0 0
          0.21577090078276442 0.21577090078276442 0 0.21577090078276442 0 0
          0.24258856785874988 0.24258856785874988 0 0.24258856785874988 0 0
          1.1674830099299962 1.1674830099299962 0 1.1674830099299962 0 0
          0.5862450613579782 0.5862450613579782 0 0.5862450613579782 0 0
          0.15419838989492846 0.15419838989492846 0 0.15419838989492846 0 0
          0.23787331604392742 0.23787331604392742 0 0.23787331604392742 0 0
          0.06225586270144412 0.06225586270144412 0 0.06225586270144412 0 0
          0.30909520853946554 0.30909520853946554 0 0.30909520853946554 0 0
          0.21328605112413473 0.21328605112413473 0 0.21328605112413473 0 0
          0.20276523113355166 0.20276523113355166 0 0.20276523113355166 0 0
          0.5711550295726319 0.5711550295726319 0 0.5711550295726319 0 0
          0.16120354856242122 0.16120354856242122 0 0.16120354856242122 0 0
          0.25222617435122197 0.25222617435122197 0 0.25222617435122197 0 0
          0.12611262990313643 0.12611262990313643 0 0.12611262990313643 0 0
          0.2781986430317891 0.2781986430317891 0 0.2781986430317891 0 0
          0.08528233162277958 0.08528233162277958 0 0.08528233162277958 0 0
          0.05638627190566978 0.05638627190566978 0 0.05638627190566978 0 0
          0.37304921368835653 0.37304921368835653 0 0.37304921368835653 0 0
          0.07272190052752502 0.07272190052752502 0 0.07272190052752502 0 0
          0.02242542859320379 0.02242542859320379 0 0.02242542859320379 0 0
          0.08323783604314794 0.08323783604314794 0 0.08323783604314794 0 0
          0.02842992401422862 0.02842992401422862 0 0.02842992401422862 0 0
          0.2566996753453735 0.2566996753453735 0 0.2566996753453735 0 0
          0.1491100406198459 0.1491100406198459 0 0.1491100406198459 0 0
          0.08349929676026538 0.08349929676026538 0 0.08349929676026538 0 0
          0.3171795092605624 0.3171795092605624 0 0.3171795092605624 0 0
          0.09530801603308744 0.09530801603308744 0 0.09530801603308744 0 0
          0.053844978162941565 0.053844978162941565 0 0.053844978162941565 0 0
          0.14995785667973024 0.14995785667973024 0 0.14995785667973024 0 0
          0.07655898803350675 0.07655898803350675 0 0.07655898803350675 0 0
          0.1507009457669994 0.1507009457669994 0 0.1507009457669994 0 0
          0.03452403251409825 0.03452403251409825 0 0.03452403251409825 0 0
          0.1836472457023164 0.1836472457023164 0 0.1836472457023164 0 0
          0.17161370282857605 0.17161370282857605 0 0.17161370282857605 0 0
          0.1934077700682513 0.1934077700682513 0 0.1934077700682513 0 0
          0.033268154664011854 0.033268154664011854 0 0.033268154664011854 0 0
          0.030196983250754615 0.030196983250754615 0 0.030196983250754615 0 0
          0.15174209668565378 0.15174209668565378 0 0.15174209668565378 0 0
          0.09141428179822571 0.09141428179822571 0 0.09141428179822571 0 0
          0.08623631471004713 0.08623631471004713 0 0.08623631471004713 0 0
          0.028193234036363868 0.028193234036363868 0 0.028193234036363868 0 0
          0.18011355645998717 0.18011355645998717 0 0.18011355645998717 0 0
          0.04593212991746374 0.04593212991746374 0 0.04593212991746374 0 0
          0.07279892398371893 0.07279892398371893 0 0.07279892398371893 0 0
          0.05051359974064635 0.05051359974064635 0 0.05051359974064635 0 0
          0.07401264049211512 0.07401264049211512 0 0.07401264049211512 0 0
          0.058415768674521806 0.058415768674521806 0 0.058415768674521806 0 0
          0.03827655337787722 0.03827655337787722 0 0.03827655337787722 0 0
          0.08746940536607384 0.08746940536607384 0 0.08746940536607384 0 0
          0.10357660133439386 0.10357660133439386 0 0.10357660133439386 0 0
          0.09605749766908873 0.09605749766908873 0 0.09605749766908873 0 0
          0.015087502752694628 0.015087502752694628 0 0.015087502752694628 0 0
          0.10782158766828616 0.10782158766828616 0 0.10782158766828616 0 0
          0.09423517326238802 0.09423517326238802 0 0.09423517326238802 0 0
          0.028990196585103607 0.028990196585103607 0 0.028990196585103607 0 0
          0.051361552304081314 0.051361552304081314 0 0.051361552304081314 0 0
          0.06880699263383729 0.06880699263383729 0 0.06880699263383729 0 0
          0.07074077394914238 0.07074077394914238 0 0.07074077394914238 0 0
          0.2690093194190977 0.2690093194190977 0 0.2690093194190977 0 0
          0.0321959971341064 0.0321959971341064 0 0.0321959971341064 0 0
          0.0172104766720387 0.0172104766720387 0 0.0172104766720387 0 0
          0.058440980330169395 0.058440980330169395 0 0.058440980330169395 0 0
          0.26109839646603483 0.26109839646603483 0 0.26109839646603483 0 0
          0.07535580647276532 0.07535580647276532 0 0.07535580647276532 0 0
          0.12129035356328965 0.12129035356328965 0 0.12129035356328965 0 0
          0.11769768197353228 0.11769768197353228 0 0.11769768197353228 0 0
          0.05666455914506836 0.05666455914506836 0 0.05666455914506836 0 0
          0.018205466173843318 0.018205466173843318 0 0.018205466173843318 0 0
          0.01530611533073174 0.01530611533073174 0 0.01530611533073174 0 0
          0.038797276524993575 0.038797276524993575 0 0.038797276524993575 0 0
          0.011902234458683778 0.011902234458683778 0 0.011902234458683778 0 0
          0.08314358225270727 0.08314358225270727 0 0.08314358225270727 0 0
          0.015487165595472873 0.015487165595472873 0 0.015487165595472873 0 0
          0.04332788644783213 0.04332788644783213 0 0.04332788644783213 0 0
          0.026766123577083897 0.026766123577083897 0 0.026766123577083897 0 0
          0.026577526539155162 0.026577526539155162 0 0.026577526539155162 0 0
          0.03813808124777181 0.03813808124777181 0 0.03813808124777181 0 0
          0.040811505131007474 0.040811505131007474 0 0.040811505131007474 0 0
          0.027217083240981172 0.027217083240981172 0 0.027217083240981172 0 0
          <InformationKey name="L2_NORM_RANGE" location="vtkDataArray" length="2">
            <Value index="0">
              0.0068096899548
            </Value>
            <Value index="1">
              2.3206437937
            </Value>
          </InformationKey>
        </DataArray>
        <DataArray type="Float64" Name="Stress" NumberOfComponents="6" format="ascii" RangeMin="0" RangeMax="0.11294333443884427">
          -0.00058102406666329 0.0007872068174353777 0 -0.0018994788979381405 0 0
          -0.0006504333970640825 0.001380014851381829 0 -0.0020217766835836284 0 0
          0.000039791368931776567 0.0009462846938616172 0 -0.0029443453272518317 0 0
          -0.0011279733174609204 0.00114260078672815 0 -0.0017048746396072113 0 0
          -0.000504449302197406 0.0008056480971553961 0 -0.0011555966138389576 0 0
          -0.0003221414243467878 0.000547452279853794 0 -0.001762244275902858 0 0
          -0.0000729042748811235 0.0005201693381596552 0 -0.0017068978205163295 0 0
          0.00003101533611282187 0.00044614368100751446 0 -0.0023719579785817027 0 0
          -0.0006716673924852495 0.0006918219809738055 0 -0.0010229802939272152 0 0
          -0.0004381043415451171 0.00037746116570949864 0 -0.0012720645020438182 0 0
          0.00004266455997622913 0.0006137132858119114 0 -0.0018191095029721515 0 0
          -0.000378011440005025 0.00015539925185110667 0 -0.0007413000926084919 0 0
          0.000020956967278171453 0.00030145791392446636 0 -0.0011560322804563456 0 0
          0.000010036933299872448 0.00014437742515970367 0 -0.0006199776470684908 0 0
          -0.007547008626911144 0.005192314347656691 0 -0.0015464108643469274 0 0
          -0.0037326035480718172 0.003953081920940294 0 -0.004146355801981184 0 0
          -0.008319503622939447 0.004360234583482115 0 0.002213938472521008 0 0
          -0.008377756023157759 0.005257598158756644 0 -0.0014186803474954541 0 0
          -0.004605712833120642 0.0033018227932806303 0 -0.0002158110110119761 0 0
          -0.0049742546258930926 0.003575489397803622 0 -0.0036267928747395145 0 0
          -0.0037830052876893774 0.003210133082100794 0 -0.0021630354695824144 0 0
          -0.0016195983146547422 0.0022872719611061643 0 -0.0031843493692963916 0 0
          -0.001384519285780947 0.0020901313225912465 0 -0.0026192977615768806 0 0
          -0.0013919159730017376 0.001592617890668341 0 -0.0030685133098341697 0 0
          -0.00399025471747943 0.002912884618724756 0 -0.001951949239601803 0 0
          -0.0024318608273183892 0.002217564319012805 0 -0.0007441806757553752 0 0
          -0.0021398436938607746 0.0017203071401449585 0 -0.002252016224721474 0 0
          -0.0027603889075957073 0.0025136490334571816 0 -0.0008467925195243609 0 0
          -0.001952443851188613 0.0017466480374953926 0 -0.00038118591933474513 0 0
          -0.002153029413211323 0.002087908875753426 0 -0.0020089733163123143 0 0
          -0.001576642457188324 0.0014008034411493366 0 -0.0010718734148096383 0 0
          -0.001040706854646613 0.0012334087558489915 0 -0.0008499969041584935 0 0
          -0.0014021546950877864 0.0014926126601033402 0 -0.0011483362710489173 0 0
          -0.0004955831474986069 0.0007915911048205627 0 -0.0003751326504515739 0 0
          0 0 0 0 0 0
          0.0000509425547608148 0.0007327890569440282 0 0.00040321396974728424 0 0
          0.00012604793730903926 0.0018131510982146424 0 0.001095254332090612 0 0
          0.00025603702906799863 0.0011425018102075549 0 0.0006523004876109595 0 0
          0.0007884330802727623 0.0005213916002074951 0 0.0005553036270292872 0 0
          0.0004504571227963175 0.00110607639167633 0 0.001345550590332234 0 0
          0.003015082006215715 0.00030869498222098855 0 0.0027527925460515594 0 0
          0.0057798062990245805 -0.0000245078634068046 0 0.002064699862709411 0 0
          0.0012887556587444803 0.0006189436965134237 0 0.0010269593396419964 0 0
          0.008729010225539688 -0.0006995792799805797 0 0.004159890643365285 0 0
          0.0054143910779991524 0.0002114579008657556 0 0.0023871161357962973 0 0
          0.01610590301633457 -0.0013316886194359341 0 0.002613562081012945 0 0
          0.003222260316746946 0.00022400740169898557 0 0.0009042567029141 0 0
          0.001165737777398492 0.00048726714914281257 0 0.0009571586202643163 0 0
          0.014177770169864618 -0.0026046434693689346 0 0.0018931014337323663 0 0
          0.01211131071343623 -0.0006471072153319965 0 0.002885787675100075 0 0
          0.012593031869014015 -0.0017857289623022872 0 -0.0001260450019219876 0 0
          0.008995098258774776 0.0006253276864388882 0 0.0016947708003139045 0 0
          0.00046209966695406597 0.0004799587771985818 0 -0.002132654454427761 0 0
          0.0006158824156643078 -0.0001203817380387837 0 -0.0027062141150455262 0 0
          0.00857232575528702 -0.0016698870574591868 0 -0.0013106227552796838 0 0
          0.012729579863170661 -0.0011563960031654992 0 0.0005892672829011252 0 0
          0.012099480956910833 0.000841140387378828 0 0.0011684483721726465 0 0
          0.0037872492383341566 -0.0005073719173381834 0 -0.0006228626899704644 0 0
          0.007066528647992428 0.0004912560022668534 0 0.00006961118658599472 0 0
          0.0038422466295666624 -0.00035045730668886304 0 -0.0008339755891786572 0 0
          0.0011331881161596126 0.0000787777834763367 0 -0.00011645995353048633 0 0
          0.0003103503661528296 0.00038722531779897935 0 -0.0015937109247135765 0 0
          0.0021031135249827745 -0.00021529604004725357 0 -0.0019980333906062277 0 0
          0.0012832401692808694 -0.00040392524012168346 0 -0.0013491618745100893 0 0
          0.00003916697914470361 0.0005634019307738135 0 -0.0018508932869069276 0 0
          0.0008300175271146827 0.0004288315101879241 0 -0.0009587393697797415 0 0
          0.00001540645626198654 0.00022161594776857568 0 -0.0004667471777862984 0 0
          -0.06327163294814328 0.015683589271420394 0 -0.09223297829846677 0 0
          -0.03728941030681333 0.05533412227510037 0 -0.021105369066201293 0 0
          0.035348975898529006 -0.03535449944689893 0 -0.03785116216863153 0 0
          -0.03841078146586374 0.021440013222477624 0 0.003797423994807571 0 0
          -0.009593118803469912 0.008125045874676553 0 -0.01773576658325897 0 0
          0.010355820942992413 0.0004907181435717694 0 -0.020498743967922037 0 0
          0.09983844490249531 -0.024480485509772006 0 -0.0211627384673127 0 0
          -0.01225715603435753 -0.029098847550646283 0 0.03988474775846341 0 0
          -0.00914303567905323 0.011222885850323269 0 -0.008610990108305776 0 0
          0.003213619868320008 0.0042770955321709886 0 -0.018179262915030487 0 0
          0.0008937279640347927 0.0018769464941116019 0 -0.007562118472087001 0 0
          0.035877474474018844 -0.01076435655401378 0 -0.0023832346995575193 0 0
          -0.017539500888028955 0.008094023976334724 0 0.0029961372847798224 0 0
          0.017088181877042027 -0.005562212999145728 0 -0.01382009543364984 0 0
          0.03125752758698647 -0.025036162674268288 0 0.03580291558312327 0 0
          -0.013034152516706043 0.007629037085013881 0 -0.0052361452695812525 0 0
          0.029273543228347264 -0.005991960905941979 0 -0.01453075427403485 0 0
          0.018396247494922323 -0.005755143159558501 0 -0.005717062716699769 0 0
          -0.01689445078131728 0.00813489832565224 0 0.004152035827543492 0 0
          0.007274315252802588 -0.0005291005330968398 0 -0.009367523696338084 0 0
          -0.0033866898527616447 0.0030376543913573973 0 -0.0059741553818561145 0 0
          0.04310618013198174 -0.012301873007285151 0 -0.002434402105783094 0 0
          -0.0011528904745466417 0.003410524046810155 0 -0.008044577661394034 0 0
          -0.00007843178384299802 0.0011685460615667102 0 -0.003481801257649759 0 0
          0.004414668615867761 0.000592853539481484 0 -0.00883098284531414 0 0
          0.0011837241212746276 0.00022912806248912807 0 -0.004428990663186357 0 0
          -0.01646103726301537 -0.0005974367092552196 0 0.017621085874292557 0 0
          0.025185590269901206 -0.008257895614889755 0 0.00021161992090829138 0 0
          0.008997321258850378 -0.0020958569933951254 0 -0.0075097502528341745 0 0
          0.03693377974307656 -0.011634108339208804 0 0.01632387285125708 0 0
          0.013688684785048491 -0.0024827495415367406 0 -0.007779743898759751 0 0
          0.008657409354558148 -0.0027753329939433522 0 -0.003435091648231349 0 0
          0.024109027778245116 -0.005785412918108241 0 -0.005488199372807283 0 0
          0.015103494370087137 -0.004621872272220115 0 -0.0026416363372731215 0 0
          0.0015394783704332175 -0.006059421534442558 0 0.007879823501755706 0 0
          0.004049558193942648 -0.00042772506100721317 0 -0.004464960723462829 0 0
          0.01593718538101415 -0.0051169221023752345 0 0.009246500795349024 0 0
          0.02828419509931293 -0.007960342788658268 0 0.0011696050003344378 0 0
          0.007128364063819623 -0.006120334176358473 0 0.012228342700935826 0 0
          0.0012835202305177774 0.0010598460614210724 0 -0.004624835515559736 0 0
          0.0013380886196363104 -0.0004031531730496169 0 -0.00429638286707735 0 0
          0.023912205660294124 -0.007247569273894179 0 0.008002787557765859 0 0
          0.013700569641923305 -0.0026178952381359687 0 0.005886223635131024 0 0
          0.01959991185289524 -0.005076030064505632 0 0.0011002322094958055 0 0
          -0.0014751497169147407 0.0018968968996032187 0 -0.0034973833930626213 0 0
          0.015215713301221644 -0.004327440545724483 0 0.012023267610893661 0 0
          0.006239850131778786 -0.000855123217180308 0 -0.004836508015333468 0 0
          0.013665976844401424 -0.003850111959021035 0 -0.004429771102280179 0 0
          0.010665177921403039 -0.0028010561380452377 0 -0.0030439895342412996 0 0
          0.01424372298110995 -0.0037249852661136815 0 -0.001802088693420497 0 0
          0.012203521433812514 -0.0027163700010096083 0 -0.003269691405642247 0 0
          0.009238049021482765 -0.002164853503414679 0 -0.0021240386618582 0 0
          0.004913880311642294 -0.0006887822404392524 0 0.006093727482520327 0 0
          0.0016839117207880475 -0.0024936114225122875 0 0.007153870393662444 0 0
          0.02114546995052255 -0.005200537553189235 0 0.0014259006202521495 0 0
          0.0000482186197560518 0.0006936062995678222 0 0.0007114195620278057 0 0
          0.01631632647198368 -0.003084374384438299 0 0.007320725031863059 0 0
          0.005178891576246453 -0.0022069472607155966 0 0.006255687496823958 0 0
          0.0063631379902975675 -0.001964627758554025 0 -0.002088034130939461 0 0
          0.0036555141398080917 0.00020321129626631824 0 0.004614096150738616 0 0
          0.008806114557800478 -0.0013987048245329317 0 0.00456164750719393 0 0
          0.0010600478772833384 -0.0010868620297415916 0 0.004951384438272034 0 0
          0.010174396257595216 -0.011389069576952335 0 0.018490291284113274 0 0
          0.0013478510429714868 0.000484270555636066 0 -0.004415481910297735 0 0
          0.00015290292314294033 0.0021994497405946035 0 0.001347028110958363 0 0
          -0.0024747943672516447 -0.00006153128510427622 0 0.0046216694250987966 0 0
          0.0017437302432009951 -0.012709716326136832 0 0.016446260356488517 0 0
          0.0011461128536176348 -0.0011814447459632203 0 0.005155822390125214 0 0
          0.0013758776904479939 -0.004166276514844085 0 0.006921746166366786 0 0
          -0.0011879394028924584 -0.00454679710074766 0 0.008627189008404649 0 0
          -0.001291620925645586 -0.000908933181889348 0 0.004197983453916738 0 0
          -0.000631395795869513 0.0017636454453749104 0 0.0007995913935339529 0 0
          -0.0001600310130433185 0.002074536329236197 0 0.001158200144995772 0 0
          0.00005289053915478113 0.0005655265809587507 0 0.00335375256592553 0 0
          0.00012604793730903942 0.0018131510982146437 0 0.0010952543320906132 0 0
          -0.001910073349314301 -0.002352764357115585 0 0.0062019638405604914 0 0
          0.00009557138920991257 0.0011545585358946025 0 0.001205539520999509 0 0
          0.002641890028642892 0.00033336330481738687 0 0.00266890063590069 0 0
          -0.00020101047715535196 0.001688139947468261 0 0.0024488707960844706 0 0
          -0.0009332435038878638 0.0010159070953386236 0 0.0016850308086667283 0 0
          0.00030094934986368187 0.0008024893656285273 0 0.002618555503024298 0 0
          -0.001550226032235782 0.0010790914974063942 0 0.0032342181349831705 0 0
          0.003973304030679557 -0.0011449619818300612 0 -0.0026723706947087544 0 0
          <InformationKey name="L2_NORM_RANGE" location="vtkDataArray" length="2">
            <Value index="0">
              0
            </Value>
            <Value index="1">
              0.11294333444
            </Value>
          </InformationKey>
        </DataArray>
        <DataArray type="Float64" Name="Strain" NumberOfComponents="6" format="ascii" RangeMin="0" RangeMax="0.4788181879342081">
          -0.06208995821796259 0.08082674835340667 0 -0.3968149987696911 0 0
          -0.06004108687783981 0.11465152336799042 0 -0.3478930787423028 0 0
          -0.001707755729716986 0.06198942297990413 0 -0.4137846034493706 0 0
          -0.09898402780985303 0.10009983414635801 0 -0.2989667034236063 0 0
          -0.06309276703093561 0.0946426830375093 0 -0.2782671762748417 0 0
          -0.04252461924827827 0.06727528930747066 0 -0.44502221994559 0 0
          -0.014151274243087708 0.06814952070232418 0 -0.473732246487337 0 0
          0 0.04071814193282633 0 -0.46531017608585556 0 0
          -0.07716151615001154 0.07917196687924324 0 -0.23458352596355586 0 0
          -0.06053058192626709 0.05317488724772736 0 -0.354700363705597 0 0
          0 0.06391994998643963 0 -0.4072415651735314 0 0
          -0.06548518110451174 0.03059870907166584 0 -0.26706250089563455 0 0
          0 0.040963573427653034 0 -0.33764743949277654 0 0
          0 0.029499699205274503 0 -0.2722805886641673 0 0
          -0.10061641047585779 0.07273942004277784 0 -0.04208690528485437 0 0
          -0.07562226737795141 0.07949358517997332 0 -0.16736711847654606 0 0
          -0.09304303394386926 0.05329028237948236 0 0.051100890814256825 0 0
          -0.09242434493808793 0.061734314330900764 0 -0.03207864751929111 0 0
          -0.1031132943374846 0.07724044735466923 0 -0.009844362434340392 0 0
          -0.09599879088236987 0.07207591785210393 0 -0.14259424711958657 0 0
          -0.0955628495451559 0.08284759227791738 0 -0.11036764708511165 0 0
          -0.07352966290287205 0.09921318438938365 0 -0.2815929570215506 0 0
          -0.07431273346916112 0.10620576523595752 0 -0.2721607165003844 0 0
          -0.06208995821796259 0.06980658842453477 0 -0.2712157592314767 0 0
          -0.097447901260411 0.0741484553226251 0 -0.09704204462280897 0 0
          -0.1022606432363122 0.0943756946706063 0 -0.06294669049015772 0 0
          -0.10352055151727929 0.08563494207830208 0 -0.2207070443050026 0 0
          -0.10089527988229885 0.09300323014539702 0 -0.06226417393030492 0 0
          -0.11780481152231845 0.10692738960379058 0 -0.04631663839032285 0 0
          -0.09136597344936917 0.0889570310766071 0 -0.17084148823980314 0 0
          -0.10565780397661646 0.09533107800069958 0 -0.14471103530987858 0 0
          -0.08315989379409894 0.09639705735791285 0 -0.13422611576558005 0 0
          -0.09898402780985303 0.10451648297784744 0 -0.1614547830902071 0 0
          -0.07716151615001154 0.11575952393338831 0 -0.11244939209118815 0 0
          0 0 0 0 0 0
          0 0.14553242757068338 0 0.1721229269633087 0 0
          0 0.15096029847181866 0 0.19600451792906373 0 0
          0.023011636659656554 0.146543144165227 0 0.18180003153112262 0 0
          0.13227381756776962 0.08204934230103408 0 0.20888015805218324 0 0
          0.025653817616698795 0.07380721731267123 0 0.19765384717293216 0 0
          0.10394135034458532 0.0034405095619241266 0 0.2044481908356678 0 0
          0.16807106282979492 -0.012393095859433045 0 0.12838875127790705 0 0
          0.09007820935554228 0.038277228231882704 0 0.15884309139647795 0 0
          0.19553153004203044 -0.029101672668197624 0 0.1982161929090988 0 0
          0.2630078170671682 -0.008034063898797073 0 0.24870911291884407 0 0
          0.27752585135397784 -0.0419985747869404 0 0.09578122272415807 0 0
          0.24876745320609034 0 0 0.15005381027029105 0 0
          0.13516927990477415 0.04851233962683582 0 0.24450413603314136 0 0
          0.2765567152751887 -0.0691498383836147 0 0.07799325966465036 0 0
          0.36692361923619243 -0.04494583843078093 0 0.18631899524242268 0 0
          0.3287538004207303 -0.06879462368138259 0 -0.006969862350154517 0 0
          0.3503369281755305 0 0 0.14187743642723388 0 0
          0.040645821207219046 0.042456646871643626 0 -0.43248127891624205 0 0
          0.038368822062955055 -0.010030705959254083 0 -0.35579481966213755 0 0
          0.2800245304895518 -0.07302671463858734 0 -0.09035488797282629 0 0
          0.41207281545891533 -0.06566609268838697 0 0.040546794989409635 0 0
          0.42017423109267865 0 0 0.0872156768250158 0 0
          0.27735907973980706 -0.05591822970353727 0 -0.09667255571161172 0 0
          0.39640995721581657 0 0 0.008393436738850653 0 0
          0.30498182410150343 -0.04871094103674265 0 -0.14070687397872123 0 0
          0.2537920857721223 0 0 -0.05606283170653413 0 0
          0.036171918800601166 0.046664866440148466 0 -0.43506304530941736 0 0
          0.14828101816088035 -0.025307749482072685 0 -0.29920179697008287 0 0
          0.11298700674870785 -0.04248982912700951 0 -0.2486577998386777 0 0
          0 0.0581055301115648 0 -0.41030127915527453 0 0
          0.12224460018017969 0.056696182165889994 0 -0.31329032581188915 0 0
          0 0.0558587930396629 0 -0.2528684185711063 0 0
          -0.04783463462993119 0.014925318651440145 0 -0.14662836089337783 0 0
          -0.04747456748754385 0.06685193541056894 0 -0.05210129586838845 0 0
          0.04279702160338328 -0.04280283954974261 0 -0.09165190848935634 0 0
          -0.04330731182631853 0.026168381176305204 0 0.008816212551157332 0 0
          -0.046878629789766875 0.040574522205107155 0 -0.1750800626279779 0 0
          0.042368433627111665 -0.0009408392463752246 0 -0.17998508766124904 0 0
          0.08660621886759534 -0.02679985193852589 0 -0.03861009757913214 0 0
          -0.017383518429669065 -0.04797891726049186 0 0.14491296955020555 0 0
          -0.06408180158710497 0.07657924191383847 0 -0.11894682521126992 0 0
          0.012208012375904962 0.016969376957849665 0 -0.16278341199844493 0 0
          0.012208012375904962 0.02902775736206692 0 -0.2587276385967048 0 0
          0.11799294754244324 -0.04271336129867999 0 -0.016423062440999864 0 0
          -0.08451422496470551 0.04348150582342092 0 0.029921189796264562 0 0
          0.08581860117830642 -0.033149874868020894 0 -0.14517677961408268 0 0
          0.05753007711171554 -0.047437535925144395 0 0.13351928328305965 0 0
          -0.08378973933878875 0.05272274516964281 0 -0.06918575629176926 0 0
          0.11721486113789634 -0.03169023168058048 0 -0.12270933690091973 0 0
          0.1484143431855529 -0.05554009870323991 0 -0.0965592708353127 0 0
          -0.06249566810925389 0.03332168207054764 0 0.03178964575918895 0 0
          0.08536596170312169 -0.012082567832192439 0 -0.23396200705974318 0 0
          -0.06353785402533763 0.05780243659420958 0 -0.22567462847413394 0 0
          0.11734551923335079 -0.0408362284505233 0 -0.013899711606548903 0 0
          -0.019032960214072414 0.04779747779690174 0 -0.23562297319613873 0 0
          -0.007089853824082585 0.052130035768743754 0 -0.33070657481398325 0 0
          0.05231967290016558 0.003420839751241571 0 -0.22597888598123322 0 0
          0.04090272967857539 0.005143056100209653 0 -0.33182466853817594 0 0
          -0.06369362096926241 0.002121556112764433 0 0.1462133244295885 0 0
          0.172026202047306 -0.06683975439159168 0 0.003022938158026816 0 0
          0.10903556832387594 -0.0324534656803418 0 -0.19156769768327747 0 0
          0.11849159411672253 -0.04458577783652709 0 0.10962199057005984 0 0
          0.14482221961322486 -0.03588217729536497 0 -0.17386632514315986 0 0
          0.16367272357083662 -0.062455524904042645 0 -0.13588537799368028 0 0
          0.16276347825686988 -0.04954670039294147 0 -0.07795433278995131 0 0
          0.2006247941482151 -0.07377166815694347 0 -0.0734947723698905 0 0
          0.01295570853986949 -0.04074553638267481 0 0.11137305060241387 0 0
          0.11765885332956635 -0.020456723539225424 0 -0.2754709009468163 0 0
          0.08834365929786259 -0.03375250601112184 0 0.10724389913267836 0 0
          0.16732783356610637 -0.05759845270630795 0 0.014516665101042988 0 0
          0.03889154430741848 -0.034062420369442584 0 0.13467075259593683 0 0
          0.03621269427502072 0.029052303429967938 0 -0.29610598326328397 0 0
          0.04504898593102713 -0.01636186739201701 0 -0.30305330273831466 0 0
          0.1602250799574152 -0.05846940911147072 0 0.1123349279491857 0 0
          0.1512226345940012 -0.03889169716461077 0 0.13715205213232262 0 0
          0.23039586597984973 -0.07434672686392985 0 0.027175263856133138 0 0
          -0.05675935918425744 0.07061977163697539 0 -0.2642274603053715 0 0
          0.08578473651834338 -0.02977268878640546 0 0.14218563285597413 0 0
          0.13656415848672426 -0.027942617711531927 0 -0.22428226366100817 0 0
          0.19059020838961951 -0.06565855951547925 0 -0.12960922952607046 0 0
          0.21408137039062897 -0.0698330476462295 0 -0.12835548725934073 0 0
          0.1951207964009875 -0.06343874364584919 0 -0.05186207236309298 0 0
          0.2112443702971706 -0.06076582042066353 0 -0.11922196441207747 0 0
          0.24424561312629245 -0.07302671463858737 0 -0.11819774641393996 0 0
          0.05648603757213111 -0.011730221507196796 0 0.14839062279486612 0 0
          0.017855552515382733 -0.025098764292630655 0 0.14711569738908908 0 0
          0.22295123308206694 -0.0691498383836147 0 0.031618232775539365 0 0
          0 0.045556769086705015 0 0.10043568455015456 0 0
          0.15266799687688126 -0.03896103455284884 0 0.14461987302432172 0 0
          0.056346123211078514 -0.027125027624106453 0 0.14139746240115703 0 0
          0.223256681612162 -0.08267675683455245 0 -0.1534143684001913 0 0
          0.07059759933103182 -0.0009871243277161101 0 0.19134983971838196 0 0
          0.12884931786587273 -0.029101672668197624 0 0.1412110719913207 0 0
          0.01598522515209754 -0.01633643212331412 0 0.14908585621499681 0 0
          0.04059271180066104 -0.044776416538030966 0 0.1464050409859714 0 0
          0.040645821207219046 0.012079747754630214 0 -0.2921163283050222 0 0
          0 0.12664218441590877 0 0.1667106571779479 0 0
          -0.04209509908868998 0.0018830335156351657 0 0.16844611127063036 0 0
          0.01001995083466789 -0.048934530712089475 0 0.13416602718920767 0 0
          0.0162304153667632 -0.016664844595048797 0 0.1457339812949348 0 0
          0.013673594397435207 -0.03498974984416747 0 0.12155393154714608 0 0
          -0.0073762568222134894 -0.037769238130207494 0 0.15612807558974912 0 0
          -0.021587442771535348 -0.014394896791304873 0 0.15780065867892434 0 0
          -0.04124126772797377 0.09886604386562078 0 0.093550456328017 0 0
          -0.019793700286335314 0.1356875676974145 0 0.16117520713356964 0 0
          0.00034843938211162606 0.014420493748337992 0 0.18412356756071463 0 0
          0 0.1509602984718187 0 0.1960045179290638 0 0
          -0.020917226918443166 -0.026587729806752572 0 0.1588839766398652 0 0
          0.0009842527574995819 0.07380721731267123 0 0.16580175138564796 0 0
          0.06018412579703307 0.0034405095619241266 0 0.13120322315543972 0 0
          -0.011844176645148696 0.06332342080055302 0 0.1948767359097803 0 0
          -0.037611728739544686 0.04049356014495644 0 0.1350432523196804 0 0
          0.006401095821755215 0.020406522925426496 0 0.14624551206984537 0 0
          -0.039654906893594216 0.028958665678160432 0 0.16879761247227726 0 0
          0.14828101816088035 -0.05199589083262855 0 -0.20913885331984766 0 0
          <InformationKey name="L2_NORM_RANGE" location="vtkDataArray" length="2">
            <Value index="0">
              0
            </Value>
            <Value index="1">
              0.47881818793
            </Value>
          </InformationKey>
        </DataArray>
      </CellData>
      <Points>
        <DataArray type="Float32" Name="Points" NumberOfComponents="3" format="ascii" RangeMin="0" RangeMax="31.382903215220928">
          20.521530151367188 20 0 18.283540725708008 17.52022933959961 0
          17.25609016418457 15 0 16.766950607299805 20 0
          15.845529556274414 13.259160041809082 0 15.381019592285156 17.424640655517578 0
          14.208800315856934 15 0 14.336990356445312 13.107600212097168 0
          13.51276969909668 11.97500991821289 0 12.883429527282715 20 0
          13.102640151977539 13.196459770202637 0 12.788909912109375 16.992340087890625 0
          12.534299850463867 14.00767993927002 0 12.776570320129395 10.922260284423828 0
          12.229490280151367 11.916069984436035 0 11.793479919433594 13.17240047454834 0
          12.069279670715332 9.813958168029785 0 11.361470222473145 15 0
          11.58452033996582 10.91353988647461 0 11.037429809570312 11.90999984741211 0
          11 10 0 10.5 13.008990287780762 0
          10.109800338745117 17.53706932067871 0 11 8.496806144714355 0
          10.5 10.908289909362793 0 9.862959861755371 14.038040161132812 0
          9.96257495880127 11.90999984741211 0 10 10 0
          10 8.506440162658691 0 9.253846168518066 13.143170356750488 0
          9.415477752685547 10.91353988647461 0 8.828777313232422 20 0
          10 6.893710136413574 0 10 5.054046154022217 0
          8.770505905151367 11.916069984436035 0 8.9307222366333 9.815563201904297 0
          8.33652400970459 15 0 10 3.1532669067382812 0
          8.060935020446777 13.018710136413574 0 8.22342586517334 10.922260284423828 0
          10 1.503193974494934 0 8.326194763183594 8.723417282104492 0
          8.738482475280762 6.083861827850342 0 10 0 0
          7.487227916717529 11.97500991821289 0 7.619233131408691 9.827728271484375 0
          7.886951923370361 7.264598846435547 0 6.820486068725586 13.362019538879395 0
          6.463461875915527 17.636199951171875 0 8.019827842712402 4.493560791015625 0
          6.821275234222412 11.078909873962402 0 6.95460319519043 8.623793601989746 0
          6.350119113922119 12.17335033416748 0 7.078911781311035 5.963322162628174 0
          8.411846160888672 0 0 6.247642993927002 9.728070259094238 0
          5.688107967376709 13.005069732666016 0 7.599650859832764 1.4754129648208618 0
          6.223519802093506 7.299490928649902 0 6.884771823883057 2.9606289863586426 0
          5 15 0 5 11.847049713134766 0
          4.55386209487915 20 0 5 9.001420974731445 0
          6.787456035614014 0 0 5 6.318779945373535 0
          5 3.9981698989868164 0 3.073293924331665 16.91547966003418 0
          5 1.9230870008468628 0 5 0 0
          2.4224369525909424 13.400890350341797 0 2.6503889560699463 10.399840354919434 0
          2.5495519638061523 7.205644130706787 0 2.646925926208496 4.597036838531494 0
          2.96063494682312 2.148577928543091 0 3.3758440017700195 0 0
          0 20 0 0 15.455820083618164 0
          0 11.484399795532227 0 1.741044044494629 0 0
          0 7.942071914672852 0 0 4.97471809387207 0
          0 2.373173952102661 0 0 0 0
          21 15 0 24.184429168701172 20 0
          13.380769729614258 9.827728271484375 0 14.087759971618652 10.93202018737793 0
          14.910579681396484 12.065620422363281 0 16.441429138183594 12.177860260009766 0
          17.48702049255371 13.458939552307129 0 19.282169342041016 13.698100090026855 0
          12.673810005187988 8.723417282104492 0 11 6.846733093261719 0
          <InformationKey name="L2_NORM_RANGE" location="vtkDataArray" length="2">
            <Value index="0">
              0
            </Value>
            <Value index="1">
              31.382903215
            </Value>
          </InformationKey>
        </DataArray>
      </Points>
      <Cells>
        <DataArray type="Int64" Name="connectivity" format="ascii" RangeMin="0" RangeMax="93">
          17 6 11 11 6 5
          17 11 22 6 2 5
          5 2 1 11 5 9
          11 9 22 31 22 9
          1 2 84 5 1 3
          5 3 9 1 84 0
          3 1 0 0 84 85
          14 13 8 15 14 10
          13 86 87 8 13 87
          8 87 88 14 8 10
          10 8 7 15 10 12
          12 10 6 17 12 6
          7 8 88 7 88 4
          10 7 6 4 88 89
          4 89 90 7 4 6
          4 90 2 2 90 91
          4 2 6 2 91 84
          83 79 82 79 75 74
          75 69 68 74 75 68
          79 74 82 68 66 74
          66 65 73 73 65 72
          66 73 74 72 65 63
          73 72 81 72 63 71
          81 82 73 82 74 73
          71 63 61 72 71 80
          71 61 70 72 80 81
          36 17 22 36 22 48
          70 61 60 71 70 78
          71 78 80 70 60 67
          78 70 77 77 70 67
          77 67 76 48 22 31
          36 48 60 60 48 67
          48 31 62 48 62 67
          76 67 62 27 20 24
          24 20 18 27 24 30
          18 20 16 24 18 19
          30 24 26 27 30 35
          16 20 23 19 18 14
          26 24 19 26 19 21
          35 30 39 18 16 13
          30 26 34 27 35 28
          14 18 13 39 30 34
          39 34 44 13 16 86
          34 26 29 19 14 15
          35 39 45 21 19 15
          21 15 17 26 21 29
          29 21 25 86 16 92
          45 39 50 34 29 38
          35 45 41 44 34 38
          44 38 47 39 44 50
          50 44 52 92 16 23
          38 29 36 41 45 51
          45 50 55 35 41 28
          25 21 17 29 25 36
          51 45 55 51 55 63
          55 50 61 15 12 17
          41 51 46 47 38 36
          52 44 47 52 47 56
          50 52 61 61 52 56
          61 56 60 46 51 58
          41 46 32 63 55 61
          43 40 54 58 51 63
          46 58 53 56 47 60
          53 58 65 65 58 63
          46 53 42 32 28 41
          25 17 36 64 54 57
          40 37 57 23 93 92
          42 53 49 46 42 32
          32 42 33 33 42 49
          57 54 40 64 57 68
          49 53 66 69 64 68
          37 33 49 66 68 59
          53 65 66 59 68 57
          59 57 37 66 59 49
          49 59 37 47 36 60
        </DataArray>
        <DataArray type="Int64" Name="offsets" format="ascii" RangeMin="3" RangeMax="450">
          3 6 9 12 15 18
          21 24 27 30 33 36
          39 42 45 48 51 54
          57 60 63 66 69 72
          75 78 81 84 87 90
          93 96 99 102 105 108
          111 114 117 120 123 126
          129 132 135 138 141 144
          147 150 153 156 159 162
          165 168 171 174 177 180
          183 186 189 192 195 198
          201 204 207 210 213 216
          219 222 225 228 231 234
          237 240 243 246 249 252
          255 258 261 264 267 270
          273 276 279 282 285 288
          291 294 297 300 303 306
          309 312 315 318 321 324
          327 330 333 336 339 342
          345 348 351 354 357 360
          363 366 369 372 375 378
          381 384 387 390 393 396
          399 402 405 408 411 414
          417 420 423 426 429 432
          435 438 441 444 447 450
        </DataArray>
        <DataArray type="UInt8" Name="types" format="ascii" RangeMin="5" RangeMax="5">
          5 5 5 5 5 5
          5 5 5 5 5 5
          5 5 5 5 5 5
          5 5 5 5 5 5
          5 5 5 5 5 5
          5 5 5 5 5 5
          5 5 5 5 5 5
          5 5 5 5 5 5
          5 5 5 5 5 5
          5 5 5 5 5 5
          5 5 5 5 5 5
          5 5 5 5 5 5
          5 5 5 5 5 5
          5 5 5 5 5 5
          5 5 5 5 5 5
          5 5 5 5 5 5
          5 5 5 5 5 5
          5 5 5 5 5 5
          5 5 5 5 5 5
          5 5 5 5 5 5
          5 5 5 5 5 5
          5 5 5 5 5 5
          5 5 5 5 5 5
          5 5 5 5 5 5
          5 5 5 5 5 5
        </DataArray>
      </Cells>
    </Piece>
  </UnstructuredGrid>
</VTKFile>
