<?xml version="1.0"?>
<VTKFile type="UnstructuredGrid" version="0.1" byte_order="LittleEndian" header_type="UInt32" compressor="vtkZLibDataCompressor">
  <UnstructuredGrid>
    <Piece NumberOfPoints="97" NumberOfCells="154">
      <PointData>
        <DataArray type="Float64" Name="Velocity" NumberOfComponents="3" format="ascii" RangeMin="0" RangeMax="2.7340993953461292">
          1.0225339205685424 0.005040753742856235 0 1.032780237982262 0 0
          0.9923883603941122 -0.0015612523156556344 0 1.0042620493538348 -0.0207507477665761 0
          0.9862763696270365 -0.01336336134990373 0 1.083348583171203 0 0
          0.9897425785879782 0.0024153734424949697 0 0.9726400042336437 0 0
          0.9723204246903698 -0.012247403673282899 0 0.9941751625187383 -0.00255662383136614 0
          1.1405096074718373 0 0 0.9492905774144785 0 0
          0.910445006648046 0 0 1.4183955543451903 0 0
          0.943991974184677 -0.3026587540223513 0 1.5107651930315324 -0.49408389624087923 0
          0.6356707245996798 0 0 2.041547705340039 0 0
          0.5217602707038218 -0.4349764654045395 0 1.0147421166706836 -0.8224672803636841 0
          2.1688964702562594 -0.44161433293830343 0 0.1456065105356578 0 0
          2.5833591149697415 0 0 0.015946020698974966 -0.7182628984795569 0
          1.0054306920171379 -0.8307722439529459 0 2.6213932727578917 -0.16759271412648014 0
          -0.5946130328361001 0 0 2.7287891556655977 0 0
          -0.505801716956994 -0.24192164840669989 0 1.7515014739834167 -0.20699642756207437 0
          0.162179423097517 -0.28262475400133824 0 2.73307864569645 0.07470354790857348 0
          -0.8284896198530405 0 0 2.6081389152176344 0 0
          2.0803518548378825 0.03499374484417926 0 0.47318603200349724 0.15295010444612855 0
          -0.7351345595915343 0.01933270137685688 0 -0.7783370608594683 0 0
          2.616734048725067 0.16863854746245174 0 1.0263148935241364 0.2873111138138881 0
          -0.20484257865076766 0.31449880802894276 0 2.0854100492536043 0.10291100745782328 0
          -0.6359546786037675 0.1799384201011385 0 0.48968803842435454 0.3750835171156679 0
          0.8942558643089374 0.2576302477584165 0 0.10801792512894223 0.40570343640361056 0
          -0.5409693680786489 0 0 1.392515069392758 0.07365380666428276 0
          -0.3603377911741157 0.30194183813430353 0 2.0768830148541153 0.1282263894735805 0
          0.47259796489726563 0.39210182727854614 0 -0.5012720745588632 0.12739310392430317 0
          -0.11737167187456159 0.3812775640787009 0 0.6637834818374503 0.2181129129706155 0
          -0.43990806168270413 0.2505976936887642 0 0.1629448043828538 0.424399872435885 0
          1.2227007383325132 0.11871049084672008 0 -0.2445078078805164 0.3458873665930365 0
          0.3799257839160535 0.35598127183564493 0 -0.34481538568563175 0 0
          -0.02563379373618586 0.4139760342297578 0 -0.3495770626410091 0.14089132579637717 0
          0.4860826867192477 0.18756293731888588 0 -0.2830067923846939 0.2544077502773915 0
          0.17746170701167538 0.42877858198741015 0 1.167142076421165 0.13770131101309974 0
          -0.12348717766773916 0.3440392476001149 0 0.2649353996440774 0.347709827548315 0
          0.05400570258533672 0.3991349653361601 0 0.34482464164293636 0.22931501847602245 0
          -0.20889110818492435 0.14118293047920744 0 0.1632395519446412 0.37903622475701626 0
          -0.20000054501310616 0 0 -0.14664781127808385 0.23432394249596042 0
          0.16340203632311417 0.2853909878009966 0 -0.01693454319004892 0.3216761183366898 0
          0.07328593377375725 0.3230401801824504 0 0.09937006428174251 0.27806733956574503 0
          -0.08258420878240419 2.105784317494437e-23 0 -0.031318314014743075 0.19818869549611914 0
          0.03019452089778216 0.19189628210812945 0 -0.034245186885752205 0.069788693627044 0
          -0.022631920609493015 0.0050915017694926155 0 -0.021890366697162898 -7.504415345638152e-24 0
          -0.01322738148870578 0.0028433525685055802 0 -0.005503381531821274 0.0010403871618443793 0
          -0.0011610616456341357 0.00007555398537889584 0 0 0 0
          2.455226644292407 0.1582238230489947 0 2.6322358005384086 0.21599409294273614 0
          2.4728410661026614 0 0 0.3388036729167628 0.2433582749459526 0
          1.1694295298099553 0.280202891509569 0 2.1337803995319717 0.27986401521370297 0
          2.0663707564563656 0.2589031063977293 0 0.055465112421803776 0.19775935899615543 0
          -0.03132018901808177 0.007287680595927835 0
          <InformationKey name="L2_NORM_RANGE" location="vtkDataArray" length="2">
            <Value index="0">
              0
            </Value>
            <Value index="1">
              2.7340993953
            </Value>
          </InformationKey>
        </DataArray>
        <DataArray type="Float64" Name="Pressure" format="ascii" RangeMin="-4.505889098872081" RangeMax="0.007483813168332369">
          -0.01695828923625312 -0.016116348262802005 -0.0024664906785900544 -0.018554692057848217 -0.020447956926072115 -0.0016599627030426181
          0.007483813168332369 -0.019003433850711828 -0.050293575317159715 -0.05426264541559928 -0.020136111866226304 -0.048775147747221595
          -0.05436183962204363 -0.013603294928002385 -0.1395825570615933 -0.6083690634213841 -0.22921882625494386 -0.8620779769502394
          -0.5495052534229716 -1.2688135770227729 -1.646049195827113 -0.7190116464813154 -2.266966917946399 -1.5470201745539365
          -3.2861977092826997 -2.857969741369876 -2.163866731906173 -2.937809272269067 -3.2207405292120983 -4.349657856869568
          -4.330418217423828 -3.223977609530742 -3.386198469153345 -2.7960047912207173 -3.8373936276294915 -4.505889098872081
          -4.08843475373212 -3.6535641892383457 -3.0136997384152533 -3.8832075800917405 -4.001456486145024 -3.039716113161031
          -3.6460434506368053 -3.742354814046047 -3.4616860230943676 -3.7006808722945386 -3.500393845407823 -3.1777307234533665
          -3.6450352319291888 -2.9386036522280357 -3.5019138051089818 -3.4678108403941823 -3.586206458149899 -3.296803347896557
          -3.476771024089006 -3.4914910445729648 -3.1951263539513515 -3.473439909369742 -3.349168595600376 -3.360573921985849
          -3.4342741592255353 -3.3637184012768997 -3.2658385611824676 -3.3612536782639673 -3.3682811003839923 -3.212092947235906
          -3.3601456699865313 -3.303275317899111 -3.3405877264828083 -3.3016688934692224 -3.3093136439281263 -3.3095534077075617
          -3.311513311747563 -3.3085270173134553 -3.2885102161091515 -3.3117526943680677 -3.302861294625944 -3.2801545657074134
          -3.322731999293612 -3.3126057342967448 -3.328213015506272 -3.337150809807501 -3.3746040098391865 -3.349709527424233
          -3.360065639436642 -3.3691565853545833 -3.3681380108492043 -3.3636750715949413 -2.0186455751449452 -2.525365582850849
          -2.2299613682094424 -3.2909489968925354 -3.224764407330629 -2.872372169153987 -2.99690789980591 -3.21669593175456
          -3.338421765383524
        </DataArray>
        <DataArray type="Float64" Name="BTraction" NumberOfComponents="3" format="ascii" RangeMin="0" RangeMax="3.5957504895879895">
          0.006553412807024915 0.008289138991151768 0 0.0011446703714276902 0.014558347641892094 0
          0.003092726944819961 0.0005250455411904217 0 0 0 0
          0 0 0 0.0022052623546618233 0.00778753597688656 0
          -0.00238604075945975 -0.000028238584999089138 0 -0.0005708120950316983 -0.01863682156591488 0
          0 0 0 0 0 0
          0.005986182239875109 0.022086122406551358 0 -0.0006849870393789065 -0.04387466155684508 0
          -0.0033090988224961124 -0.076117271947669 0 0.01087624007246249 0.16627257908365797 0
          0 0 0 0 0 0
          -0.006942029615449143 -0.2466874067215139 0 0.010207384348512214 0.9496522684711017 0
          0 0 0 0 0 0
          0 0 0 -0.008841043684911705 -0.7810270428120885 0
          0.003936399062256481 2.147333588833445 0 0 0 0
          0 0 0 0 0 0
          -0.00937511386961706 -2.0351828151050784 0 -0.0006671053874504088 2.8027680888067903 0
          0 0 0 0 0 0
          0 0 0 0 0 0
          -0.0065366526212278725 -3.196056483145815 0 -0.002679873177096689 2.718869929275088 0
          0 0 0 0 0 0
          0 0 0 -0.0001886634861061006 -3.595750484638548 0
          0 0 0 0 0 0
          0 0 0 0 0 0
          0 0 0 0 0 0
          0 0 0 0 0 0
          0.003396971454364799 -3.535833824127515 0 0 0 0
          0 0 0 0 0 0
          0 0 0 0 0 0
          0 0 0 0 0 0
          0 0 0 0 0 0
          0 0 0 0 0 0
          0 0 0 0.0031372709448810807 -3.4068237063004383 0
          0 0 0 0 0 0
          0 0 0 0 0 0
          0 0 0 0 0 0
          0 0 0 0 0 0
          0 0 0 0 0 0
          0 0 0 0 0 0
          0.002191341776849268 -3.3489901554904966 0 0 0 0
          0 0 0 0 0 0
          0 0 0 0 0 0
          0.0008964844558271343 -3.345269279851038 0 0 0 0
          0 0 0 0 0 0
          -3.2303403603733707 0.9616319907707168 0 -0.000009887135472703053 -3.3544248800079344 0
          -3.232683647298328 0.9025510105655116 0 -3.2591683628551587 0.7905380977631269 0
          -3.312038730733256 0.5256480411569892 0 -1.6131080139225933 -1.5793589557064196 0
          0 0 0 0 0 0
          -0.005053608869697386 2.091966583661089 0 0 0 0
          0 0 0 0 0 0
          0 0 0 0 0 0
          -3.155739207586111 0.9693472361068438 0
          <InformationKey name="L2_NORM_RANGE" location="vtkDataArray" length="2">
            <Value index="0">
              0
            </Value>
            <Value index="1">
              3.5957504896
            </Value>
          </InformationKey>
        </DataArray>
        <DataArray type="Float64" Name="ALEdispl" NumberOfComponents="3" format="ascii" RangeMin="0" RangeMax="2.5615481266496083">
          0 0 0 0 0 0
          0 0 0 0.20266493956299367 0.033774385268483254 0
          0.1325744846960055 -0.05224651310564379 0 0 0 0
          0 0 0 0 0 0
          0.1893355491662244 -0.018421893370319808 0 0.32342659601639223 0.004228979128213367 0
          0 0 0 0 0 0
          0 0 0 0 0 0
          0.5713090565205092 0.008603519986034154 0 0.4138132697385622 0.06893258205976827 0
          0 0 0 0 0 0
          0.4234243804670714 -0.13509585153767317 0 0.8330622271963606 -0.06021018140748839 0
          0.44379061533546865 0.09330785318203272 0 0 0 0
          0 0 0 0.47135247751933795 -0.2005485969389358 0
          1.0659971301050635 -0.15197603992199585 0 0.5466780759239155 0.08707406298044702 0
          0 0 0 0 0 0
          0.6034152210986219 -0.2710636550410253 0 1.1894907384091007 -0.19114300941313658 0
          1.1480688954644571 -0.3707335726355764 0 0.7162398209527895 0.04922446601932263 0
          0 0 0 0 0 0
          1.3116511470182415 -0.24766484198386013 0 1.4162049330114779 -0.5277889543464586 0
          0.8153982990725486 -0.45765865645742954 0 0 0 0
          1.3554613559002058 -0.14491960304459992 0 1.7593480249161921 -0.5926326337212222 0
          1.3989254871916241 -0.7722815972945453 0 1.7062539283669589 -0.3911517537377523 0
          0.7044877472667925 -0.5061633749249166 0 1.7423901823855807 -0.768621985746685 0
          1.9244565762974202 -0.6784233042882103 0 1.661330731468943 -0.8454606947807548 0
          0 0 0 1.9301842409432086 -0.5939850310241253 0
          1.1411142145511204 -0.7495728233493754 0 1.897347374154995 -0.4926329473035803 0
          1.9033843498361973 -0.8266933275911545 0 0.48113706605845125 -0.38183006147361515 0
          1.47339874496529 -0.8614871753892503 0 2.0703922449872016 -0.7549185153794096 0
          0.8675658728283709 -0.6411670462689568 0 1.7942159356343168 -0.8945211142150463 0
          2.1239873853076574 -0.6657031245300599 0 1.2417576518560816 -0.8153319228470554 0
          2.048410577675463 -0.859452519397725 0 0 0 0
          1.5947954615371773 -0.8883823188558332 0 0.5469614638065265 -0.4499834944025161 0
          2.2162553614822107 -0.780150348659321 0 0.9253067546364916 -0.6844601726580001 0
          1.917095820572222 -0.8921252361422141 0 2.2857943179116367 -0.6916230907265455 0
          1.3064950215623272 -0.8052482656723232 0 2.1789192027469855 -0.8410632137025261 0
          1.6794951306132755 -0.8448851864539545 0 2.3486915679841793 -0.7553555460834614 0
          0.5553720362997513 -0.46040909724767576 0 2.017914054207203 -0.8354171600159994 0
          0 0 0 0.9253152037868706 -0.6311328095342505 0
          2.2951473806713625 -0.774032258463066 0 1.322954841643519 -0.7074509791149192 0
          1.6746113712701822 -0.6977827357484101 0 2.0765938656532215 -0.7107581689685052 0
          0 0 0 0.9025810419772934 -0.49920179734677733 0
          1.3112067128720521 -0.5098582803518178 0 0.37257653810070845 -0.26869890860315476 0
          1.4923998860546686 -0.336199356199626 0 0 0 0
          0.9495281678164013 -0.24640580443167615 0 0.4710587293955597 -0.1597844113195727 0
          0.13902304395210885 -0.08135110558622485 0 0 0 0
          0.8337959630244863 -0.09973832594245534 0 1.6431863592744744 -0.3551779248310412 0
          0 0 0 2.4691042152849962 -0.6819480766187273 0
          2.427676159521907 -0.6588496794181032 0 2.2705641868746356 -0.5986339231413833 0
          2.106109638324507 -0.571779994450329 0 2.3747617018199385 -0.6532800691717308 0
          1.989849227801417 -0.4171406462139445 0
          <InformationKey name="L2_NORM_RANGE" location="vtkDataArray" length="2">
            <Value index="0">
              0
            </Value>
            <Value index="1">
              2.5615481266
            </Value>
          </InformationKey>
        </DataArray>
        <DataArray type="Float64" Name="ALEveloc" NumberOfComponents="3" format="ascii" RangeMin="0" RangeMax="0.04588588348989613">
          0 0 0 0 0 0
          0 0 0 -0.003566189892043159 -0.0005949587925918529 0
          -0.0023326852919971497 0.0009187495707418392 0 0 0 0
          0 0 0 0 0 0
          -0.00333175898676219 0.00032370221402652777 0 -0.0056911228937981395 -0.00007545327278067268 0
          0 0 0 0 0 0
          0 0 0 0 0 0
          -0.010059273540881652 -0.00010806170320432767 0 -0.00727773994856129 -0.0011375972647938992 0
          0 0 0 0 0 0
          -0.0074737684879251365 0.002454426407486776 0 -0.01465749172771802 0.0011887629874442612 0
          -0.007753206158461867 -0.001486181373822948 0 0 0 0
          0 0 0 -0.008363187884222523 0.0036561769209523254 0
          -0.018778975068050263 0.002987901909006885 0 -0.00947768857003195 -0.0012748221733350218 0
          0 0 0 0 0 0
          -0.01077786165340433 0.004949386270654443 0 -0.020837417387516544 0.003832723376839209 0
          -0.02034906491069033 0.006801839881954264 0 -0.012294792688669398 -0.0004503158689207337 0
          0 0 0 0 0 0
          -0.022945234118768365 0.0049177510347355735 0 -0.025058910987429073 0.00983835540262512 0
          -0.014822332625144652 0.008334399750201227 0 0 0 0
          -0.023148705852350737 0.003447548741836143 0 -0.031066832105363318 0.011146283467868723 0
          -0.025506031458551348 0.014454221905828124 0 -0.029392353216667555 0.007742789242741965 0
          -0.013319569992980007 0.009628334951428896 0 -0.031294080022609805 0.01441170311980966 0
          -0.03398437121351883 0.012774071760320194 0 -0.0303052599624154 0.01593846335738247 0
          0 0 0 -0.033667282063061243 0.011310639537260081 0
          -0.021363258556274856 0.014387775210138232 0 -0.03255016244098563 0.009637780620755487 0
          -0.034309912701058654 0.01552365391159194 0 -0.0093909910995007 0.007550093256584289 0
          -0.0273858937005258 0.016527678749207686 0 -0.03670554367952494 0.01418052614556009 0
          -0.0167201136078039 0.012699678120195568 0 -0.0330423984186381 0.017027102568171193 0
          -0.03701136928899418 0.01266206404635195 0 -0.023630941367993152 0.01610201985711046 0
          -0.037174499027653685 0.016196137015761947 0 0 0 0
          -0.030019224037099335 0.017371215583241284 0 -0.0110292499428849 0.009412945585598465 0
          -0.039400910975404546 0.014728978390001535 0 -0.018262214055258186 0.014243858265368559 0
          -0.035722591214178756 0.017163152389191527 0 -0.039770953786089525 0.013303586407178214 0
          -0.025396070994359032 0.016556289232475763 0 -0.03977651152459716 0.015985807854819845 0
          -0.03216044705647114 0.01698265431761614 0 -0.041777595087252095 0.014534013890743935 0
          -0.011489049999585887 0.010403375545606774 0 -0.03816247072045975 0.016408347213450192 0
          0 0 0 -0.018902590367191552 0.014330419091291069 0
          -0.04205248597427902 0.015076776456564023 0 -0.0266046845408916 0.015621786731310872 0
          -0.033111814065072576 0.015123114752686018 0 -0.04003334095709121 0.014859298832155865 0
          0 0 0 -0.018924296538931573 0.012668583874642425 0
          -0.027929247116460942 0.013326753043974793 0 -0.007647104796658644 0.007294993817967832 0
          -0.032869722146507296 0.01124094437179457 0 0 0 0
          -0.020676889094438877 0.008388699241691722 0 -0.009247743831642952 0.00497447642461829 0
          -0.0019987632780365527 0.0019041361646150168 0 0 0 0
          -0.013924470544384837 0.002506396509446396 0 -0.027708609659459427 0.0072763599149793246 0
          0 0 0 -0.043758391128767116 0.013810051030686221 0
          -0.0420292972643912 0.01317464139465141 0 -0.03864707615218155 0.01193676153729939 0
          -0.036041717455018496 0.011141556765551286 0 -0.043719374115999354 0.013714942402362595 0
          -0.04070425915393683 0.012154204190543694 0
          <InformationKey name="L2_NORM_RANGE" location="vtkDataArray" length="2">
            <Value index="0">
              0
            </Value>
            <Value index="1">
              0.04588588349
            </Value>
          </InformationKey>
        </DataArray>
      </PointData>
      <CellData>
        <DataArray type="UInt8" Name="vtkGhostType" format="ascii" RangeMin="0" RangeMax="0">
          0 0 0 0 0 0
          0 0 0 0 0 0
          0 0 0 0 0 0
          0 0 0 0 0 0
          0 0 0 0 0 0
          0 0 0 0 0 0
          0 0 0 0 0 0
          0 0 0 0 0 0
          0 0 0 0 0 0
          0 0 0 0 0 0
          0 0 0 0 0 0
          0 0 0 0 0 0
          0 0 0 0 0 0
          0 0 0 0 0 0
          0 0 0 0 0 0
          0 0 0 0 0 0
          0 0 0 0 0 0
          0 0 0 0 0 0
          0 0 0 0 0 0
          0 0 0 0 0 0
          0 0 0 0 0 0
          0 0 0 0 0 0
          0 0 0 0 0 0
          0 0 0 0 0 0
          0 0 0 0 0 0
          0 0 0 0
        </DataArray>
        <DataArray type="Float64" Name="PStrain" NumberOfComponents="6" format="ascii" RangeMin="7.005312688327768e-8" RangeMax="0.4767760773576562">
          0.09999999999999999 0.09999999999999999 0 0.09999999999999999 0 0
          0.000001842601921987748 0.000001842601921987748 0 0.000001842601921987748 0 0
          0.000008606628877302977 0.000008606628877302977 0 0.000008606628877302977 0 0
          0.0000016539084342362812 0.0000016539084342362812 0 0.0000016539084342362812 0 0
          0.0000016939049683382472 0.0000016939049683382472 0 0.0000016939049683382472 0 0
          2.4435847056257864e-7 2.4435847056257864e-7 0 2.4435847056257864e-7 0 0
          0.0000011219061156473295 0.0000011219061156473295 0 0.0000011219061156473295 0 0
          1.5861582569841326e-7 1.5861582569841326e-7 0 1.5861582569841326e-7 0 0
          5.295604266670433e-7 5.295604266670433e-7 0 5.295604266670433e-7 0 0
          4.5987697512431474e-7 4.5987697512431474e-7 0 4.5987697512431474e-7 0 0
          1.161469260308637e-7 1.161469260308637e-7 0 1.161469260308637e-7 0 0
          2.0701772444015158e-7 2.0701772444015158e-7 0 2.0701772444015158e-7 0 0
          0.000013748815186284392 0.000013748815186284392 0 0.000013748815186284392 0 0
          8.757403246258036e-8 8.757403246258036e-8 0 8.757403246258036e-8 0 0
          8.757403246258036e-8 8.757403246258036e-8 0 8.757403246258036e-8 0 0
          0.000013748815186284392 0.000013748815186284392 0 0.000013748815186284392 0 0
          4.044519166363538e-8 4.044519166363538e-8 0 4.044519166363538e-8 0 0
          0.00001011634281271222 0.00001011634281271222 0 0.00001011634281271222 0 0
          0.009206891651625184 0.009206891651625184 0 0.009206891651625184 0 0
          0.005862899686100214 0.005862899686100214 0 0.005862899686100214 0 0
          0.008462415800672427 0.008462415800672427 0 0.008462415800672427 0 0
          0.004801246536425903 0.004801246536425903 0 0.004801246536425903 0 0
          0.005573920157681373 0.005573920157681373 0 0.005573920157681373 0 0
          0.005440647323559616 0.005440647323559616 0 0.005440647323559616 0 0
          0.005276727374371638 0.005276727374371638 0 0.005276727374371638 0 0
          0.0028890343769911358 0.0028890343769911358 0 0.0028890343769911358 0 0
          0.002205776879991948 0.002205776879991948 0 0.002205776879991948 0 0
          0.0041075064114832905 0.0041075064114832905 0 0.0041075064114832905 0 0
          0.005319201830186525 0.005319201830186525 0 0.005319201830186525 0 0
          0.002111221941744018 0.002111221941744018 0 0.002111221941744018 0 0
          0.0010241209204738257 0.0010241209204738257 0 0.0010241209204738257 0 0
          0.0024941921914457513 0.0024941921914457513 0 0.0024941921914457513 0 0
          0.0037249474169876026 0.0037249474169876026 0 0.0037249474169876026 0 0
          0.0017559206758843587 0.0017559206758843587 0 0.0017559206758843587 0 0
          0.004455912736304451 0.004455912736304451 0 0.004455912736304451 0 0
          0.0022208378397155534 0.0022208378397155534 0 0.0022208378397155534 0 0
          0.002472171811718485 0.002472171811718485 0 0.002472171811718485 0 0
          0.0017776717566605565 0.0017776717566605565 0 0.0017776717566605565 0 0
          0.0006293846869738822 0.0006293846869738822 0 0.0006293846869738822 0 0
          0.0008238695535820585 0.0008238695535820585 0 0.0008238695535820585 0 0
          0.0008753839297911956 0.0008753839297911956 0 0.0008753839297911956 0 0
          0.0007188758599184617 0.0007188758599184617 0 0.0007188758599184617 0 0
          0.0009702012539260531 0.0009702012539260531 0 0.0009702012539260531 0 0
          0.0011709542656627098 0.0011709542656627098 0 0.0011709542656627098 0 0
          0.002263941769649155 0.002263941769649155 0 0.002263941769649155 0 0
          0.001100462997256258 0.001100462997256258 0 0.001100462997256258 0 0
          0.0008034452866014527 0.0008034452866014527 0 0.0008034452866014527 0 0
          0.00031482356092908404 0.00031482356092908404 0 0.00031482356092908404 0 0
          0.0002708237572412856 0.0002708237572412856 0 0.0002708237572412856 0 0
          0.0003010603266464092 0.0003010603266464092 0 0.0003010603266464092 0 0
          0.0003297562121144797 0.0003297562121144797 0 0.0003297562121144797 0 0
          0.0001928151675731346 0.0001928151675731346 0 0.0001928151675731346 0 0
          0.0002443736252957549 0.0002443736252957549 0 0.0002443736252957549 0 0
          0.00011831617054634266 0.00011831617054634266 0 0.00011831617054634266 0 0
          0.00007753976628844323 0.00007753976628844323 0 0.00007753976628844323 0 0
          0.00007485333416293481 0.00007485333416293481 0 0.00007485333416293481 0 0
          0.00010596872753413687 0.00010596872753413687 0 0.00010596872753413687 0 0
          0.00031661565933668704 0.00031661565933668704 0 0.00031661565933668704 0 0
          0.0001322892218931141 0.0001322892218931141 0 0.0001322892218931141 0 0
          0.0004061200050895509 0.0004061200050895509 0 0.0004061200050895509 0 0
          0.00005386586503519656 0.00005386586503519656 0 0.00005386586503519656 0 0
          0.00005605155371831066 0.00005605155371831066 0 0.00005605155371831066 0 0
          0.00008716147863889297 0.00008716147863889297 0 0.00008716147863889297 0 0
          0.09132704131475902 0.09132704131475902 0 0.09132704131475902 0 0
          0.09328983627106119 0.09328983627106119 0 0.09328983627106119 0 0
          0.04624521390813204 0.04624521390813204 0 0.04624521390813204 0 0
          0.11413163969118853 0.11413163969118853 0 0.11413163969118853 0 0
          0.13514753246922465 0.13514753246922465 0 0.13514753246922465 0 0
          0.10003059466885085 0.10003059466885085 0 0.10003059466885085 0 0
          0.0743277930441134 0.0743277930441134 0 0.0743277930441134 0 0
          0.153502695492192 0.153502695492192 0 0.153502695492192 0 0
          0.05102946548282607 0.05102946548282607 0 0.05102946548282607 0 0
          0.05538854782337854 0.05538854782337854 0 0.05538854782337854 0 0
          0.02869474603694628 0.02869474603694628 0 0.02869474603694628 0 0
          0.04245900134719795 0.04245900134719795 0 0.04245900134719795 0 0
          0.024950229826425474 0.024950229826425474 0 0.024950229826425474 0 0
          0.0555668842937406 0.0555668842937406 0 0.0555668842937406 0 0
          0.06800766246206026 0.06800766246206026 0 0.06800766246206026 0 0
          0.07686807246694054 0.07686807246694054 0 0.07686807246694054 0 0
          0.04392766511074052 0.04392766511074052 0 0.04392766511074052 0 0
          0.05082468464870287 0.05082468464870287 0 0.05082468464870287 0 0
          0.039639012178072044 0.039639012178072044 0 0.039639012178072044 0 0
          0.07875211273538782 0.07875211273538782 0 0.07875211273538782 0 0
          0.029220261722774303 0.029220261722774303 0 0.029220261722774303 0 0
          0.028691129802473077 0.028691129802473077 0 0.028691129802473077 0 0
          0.01736661430608891 0.01736661430608891 0 0.01736661430608891 0 0
          0.03222744155133217 0.03222744155133217 0 0.03222744155133217 0 0
          0.017903493538226033 0.017903493538226033 0 0.017903493538226033 0 0
          0.029679271768121455 0.029679271768121455 0 0.029679271768121455 0 0
          0.04546441505135187 0.04546441505135187 0 0.04546441505135187 0 0
          0.04835051874644539 0.04835051874644539 0 0.04835051874644539 0 0
          0.02920762705779719 0.02920762705779719 0 0.02920762705779719 0 0
          0.040129503311155515 0.040129503311155515 0 0.040129503311155515 0 0
          0.026172252512357722 0.026172252512357722 0 0.026172252512357722 0 0
          0.027669406934028855 0.027669406934028855 0 0.027669406934028855 0 0
          0.021614221465846278 0.021614221465846278 0 0.021614221465846278 0 0
          0.017799400701287403 0.017799400701287403 0 0.017799400701287403 0 0
          0.009942779259803641 0.009942779259803641 0 0.009942779259803641 0 0
          0.0156387058480061 0.0156387058480061 0 0.0156387058480061 0 0
          0.013354783540161671 0.013354783540161671 0 0.013354783540161671 0 0
          0.05415494784367464 0.05415494784367464 0 0.05415494784367464 0 0
          0.016576713991706838 0.016576713991706838 0 0.016576713991706838 0 0
          0.018640182330195095 0.018640182330195095 0 0.018640182330195095 0 0
          0.012821925475497615 0.012821925475497615 0 0.012821925475497615 0 0
          0.04609868237894648 0.04609868237894648 0 0.04609868237894648 0 0
          0.05979433882361572 0.05979433882361572 0 0.05979433882361572 0 0
          0.017311893989517418 0.017311893989517418 0 0.017311893989517418 0 0
          0.033328436956485685 0.033328436956485685 0 0.033328436956485685 0 0
          0.028388510108779935 0.028388510108779935 0 0.028388510108779935 0 0
          0.017589160600789754 0.017589160600789754 0 0.017589160600789754 0 0
          0.021082451948452038 0.021082451948452038 0 0.021082451948452038 0 0
          0.010928359375579722 0.010928359375579722 0 0.010928359375579722 0 0
          0.03349654628196929 0.03349654628196929 0 0.03349654628196929 0 0
          0.02027671924388033 0.02027671924388033 0 0.02027671924388033 0 0
          0.016714267533400867 0.016714267533400867 0 0.016714267533400867 0 0
          0.013049191631241023 0.013049191631241023 0 0.013049191631241023 0 0
          0.008016031162520046 0.008016031162520046 0 0.008016031162520046 0 0
          0.03926493359626523 0.03926493359626523 0 0.03926493359626523 0 0
          0.019271623484025762 0.019271623484025762 0 0.019271623484025762 0 0
          0.010980185585047448 0.010980185585047448 0 0.010980185585047448 0 0
          0.015392072864485764 0.015392072864485764 0 0.015392072864485764 0 0
          0.039211013304251585 0.039211013304251585 0 0.039211013304251585 0 0
          0.024265154384777058 0.024265154384777058 0 0.024265154384777058 0 0
          0.02436164741983906 0.02436164741983906 0 0.02436164741983906 0 0
          0.011282336903700795 0.011282336903700795 0 0.011282336903700795 0 0
          0.02355246126327913 0.02355246126327913 0 0.02355246126327913 0 0
          0.015065841059453956 0.015065841059453956 0 0.015065841059453956 0 0
          0.025625194807238072 0.025625194807238072 0 0.025625194807238072 0 0
          0.01812275233209922 0.01812275233209922 0 0.01812275233209922 0 0
          0.014461365875917322 0.014461365875917322 0 0.014461365875917322 0 0
          0.011573179774718082 0.011573179774718082 0 0.011573179774718082 0 0
          0.018306677820568242 0.018306677820568242 0 0.018306677820568242 0 0
          0.010772983328829826 0.010772983328829826 0 0.010772983328829826 0 0
          0.007036134574983808 0.007036134574983808 0 0.007036134574983808 0 0
          0.007394940271413276 0.007394940271413276 0 0.007394940271413276 0 0
          0.01160563701521428 0.01160563701521428 0 0.01160563701521428 0 0
          0.012351000907834338 0.012351000907834338 0 0.012351000907834338 0 0
          0.028800343155221918 0.028800343155221918 0 0.028800343155221918 0 0
          0.27526679660561665 0.27526679660561665 0 0.27526679660561665 0 0
          0.2539781523309771 0.2539781523309771 0 0.2539781523309771 0 0
          0.14823986856692223 0.14823986856692223 0 0.14823986856692223 0 0
          0.08669790275483573 0.08669790275483573 0 0.08669790275483573 0 0
          0.014812051319418536 0.014812051319418536 0 0.014812051319418536 0 0
          0.06314901404154857 0.06314901404154857 0 0.06314901404154857 0 0
          0.05084773307446914 0.05084773307446914 0 0.05084773307446914 0 0
          0.25675249415532897 0.25675249415532897 0 0.25675249415532897 0 0
          0.09602469319491261 0.09602469319491261 0 0.09602469319491261 0 0
          0.10937161121894823 0.10937161121894823 0 0.10937161121894823 0 0
          0.07678920921948887 0.07678920921948887 0 0.07678920921948887 0 0
          0.027874542074884927 0.027874542074884927 0 0.027874542074884927 0 0
          0.03490099364042418 0.03490099364042418 0 0.03490099364042418 0 0
          0.04470473091795438 0.04470473091795438 0 0.04470473091795438 0 0
          0.06474583698761904 0.06474583698761904 0 0.06474583698761904 0 0
          0.08053866823609312 0.08053866823609312 0 0.08053866823609312 0 0
          <InformationKey name="L2_NORM_RANGE" location="vtkDataArray" length="2">
            <Value index="0">
              7.0053126883e-08
            </Value>
            <Value index="1">
              0.47677607736
            </Value>
          </InformationKey>
        </DataArray>
        <DataArray type="Float64" Name="Stress" NumberOfComponents="6" format="ascii" RangeMin="0" RangeMax="0.023795386597751655">
          0 0 0 0 0 0
          -6.38830974960394e-11 -9.189337870584128e-10 0 -3.269655933055655e-8 0 0
          -1.3126429499749833e-7 -1.4402997477472557e-8 0 -1.7871471163146812e-7 0 0
          -1.4529768780100209e-8 -5.608867926692494e-9 0 -2.2411648309764518e-8 0 0
          -2.5151432663010047e-8 8.844091395454364e-9 0 1.0979350887193033e-8 0 0
          -8.04002668574154e-11 -1.1565269155643598e-9 0 -3.2286767100071325e-9 0 0
          3.5115373363745172e-9 1.7686640573718824e-9 0 1.2705593121040006e-8 0 0
          -9.713657335010493e-10 1.5481463074609066e-9 0 1.7202507072079866e-10 0 0
          -3.470618464759032e-9 -2.058833917366866e-9 0 6.649645412405379e-9 0 0
          -9.876582806508573e-11 -1.4207084498593103e-9 0 6.793295543304483e-9 0 0
          -1.5799683229840808e-9 1.3378017919107537e-9 0 1.0684922888876146e-10 0 0
          -3.780640793554209e-9 -8.059480005124111e-10 0 -1.8137819305761719e-9 0 0
          8.298239064882303e-10 1.1936697731792233e-8 0 3.6877101560333264e-7 0 0
          -5.490994804399324e-11 -7.898584834020564e-10 0 9.324586231827784e-10 0 0
          -5.490994804399324e-11 -7.898584834020564e-10 0 9.324586231827784e-10 0 0
          -8.298239064882303e-10 -1.1936697731792233e-8 0 -3.6877101560333264e-7 0 0
          -5.526735959208866e-10 -3.842115907471404e-11 0 1.013313260952933e-10 0 0
          -2.4938027736674655e-7 -1.2293238642642217e-8 0 1.6770287914344128e-7 0 0
          -0.0006633394898325339 0.0006793256369787571 0 -0.0010100192433282014 0 0
          -0.00037376705292518523 0.00015100960864575865 0 -0.0007323959389793834 0 0
          -0.00009046678817312804 -0.0013013299529519187 0 0.0008426511137139146 0 0
          0.000009762378337181295 0.000140428057619454 0 -0.0006110708112934294 0 0
          -0.0001377461640767502 -0.00042518840446236405 0 0.0005812337042305808 0 0
          -0.0001474566948861091 -0.0006292868188115685 0 0.0005866125869884518 0 0
          -0.0003568810096609994 -0.000015188576279671265 0 0.0004625231716181566 0 0
          -0.00002143500497296203 -0.0003083343023033769 0 0.00025558043724022725 0 0
          -0.00008107861032000935 -0.000017976335492393007 0 0.00016729052860743225 0 0
          -0.00020773991661816535 0.0001737556141451391 0 0.0002642170962072016 0 0
          -0.0005968797986898591 0.0003007035214960934 0 0.00009132860725265273 0 0
          -0.0000020379879421139546 -0.00002931567270579304 0 -0.00019845176221388482 0 0
          -0.00003527049766921109 -0.0000042371922830522635 0 0.00007443469633022509 0 0
          -0.0001737017719142859 0.00011075404427935692 0 0.0000715889180097437 0 0
          -0.0002227905146629893 0.000007168733431816443 0 -0.00034464879616157604 0 0
          -0.00007415600838628158 -0.00003793369594086937 0 -0.00013941775005772854 0 0
          -0.000249635758051856 0.0004646182237033435 0 -0.0001481436151562676 0 0
          -0.0001780618532279987 0.00017618030945011707 0 -0.00013123081133145135 0 0
          -0.0002204759437673841 0.0001547512551575521 0 -0.00010550147485148768 0 0
          -0.00007957511661234873 0.0001098856485316338 0 0.000017692079648451462 0 0
          -0.000013323252275628867 0.000028327830552202922 0 0.000011072817942713677 0 0
          -0.000030174971484497908 0.000045286178084431966 0 -0.000042761772420530626 0 0
          -0.000001486177617985485 -0.00002137809342794506 0 -0.00006244382017565402 0 0
          -0.00002460968330392856 -0.0000189802923441325 0 -0.00004479702149128508 0 0
          -0.000004585693499283944 -0.00006596343725893057 0 0.0000683165450854271 0 0
          -0.000081573168744381 0.000003301251038451612 0 0.00007962206687710191 0 0
          -0.00008462450590595756 -0.00019800721241122976 0 0.00021072401453972063 0 0
          -0.0000770352562601367 0.000043547800836005436 0 -0.000035957472583450395 0 0
          -0.000026150040033761312 -0.000049532755301424065 0 0.000056375789940072056 0 0
          -0.000008339037107190267 0.000011511630784617546 0 -0.000012362962529284635 0 0
          -4.491292326794243e-7 -0.000006460551270080949 0 -0.000014295756434429093 0 0
          -0.0000010467483710309996 -0.000015057072721753612 0 0.000016464341297718918 0 0
          -0.000008905362577364249 0.000004805519670015215 0 0.00001535710645898531 0 0
          -0.00000414948687112562 -0.0000037932722930963093 0 -0.000009490055491536207 0 0
          -0.000007929252249092707 -0.000009275677512414891 0 0.000013506428476077799 0 0
          -0.0000018985931816510237 0.0000034389969499119346 0 -0.0000046421055068158895 0 0
          -7.991241188134326e-8 -0.0000011495093093700915 0 -0.000003210480270913622 0 0
          -1.4179465637544884e-7 -0.0000020396615955545333 0 0.0000029741961865747806 0 0
          -0.000002188029651927286 0.0000017547395011731657 0 0.0000033565444474798644 0 0
          -0.000008722070553811808 0.000010361693432683593 0 -0.000011266209988519456 0 0
          -0.000005185902417470215 0.0000024931736631162993 0 -0.0000034404739899540512 0 0
          -0.000024371046237075584 0.000005138543581286722 0 0.000015538344070647803 0 0
          -0.0000015075934312100438 -5.826572331699639e-8 0 0.00000215692683714367 0 0
          -0.00000170555376543972 -1.6699658625587095e-7 0 -0.0000018560397658172515 0 0
          -0.0000021553124188062236 0.0000014405281260560975 0 0.00000269302771785413 0 0
          -0.008197804597362683 0.004291741898325364 0 0.002204518035019763 0 0
          -0.008260975052346312 0.00517912121592557 0 -0.0013771684805879024 0 0
          -0.004545243289821698 0.0032533165667851223 0 -0.00020276274229094079 0 0
          -0.008569376470906038 0.0046833038294485044 0 0.0028210471652835526 0 0
          -0.0036940477454772223 -0.00014182930511972376 0 0.007897081365184425 0 0
          -0.0069763181566450585 0.0020274953762415447 0 0.006767625966824935 0 0
          -0.0035527783679422343 0.001113207181910143 0 0.00490237907679912 0 0
          -0.004019181184176712 -0.005962788522791216 0 0.012504725283812815 0 0
          -0.004543064306320293 0.0028330281041519974 0 0.0017322319975263479 0 0
          -0.004868710014734968 0.003503641282559829 0 -0.0001684894380939259 0 0
          -0.0028973965241597703 0.0022408974580987112 0 0.00019125661667045174 0 0
          -0.003940436714664529 0.002868824658975349 0 -0.0019193719542120041 0 0
          -0.002401619999525948 0.002184594046246072 0 -0.0007302844939883948 0 0
          -0.004299398058693355 0.0027911212952732353 0 0.0019337349337167262 0 0
          -0.00044146341554975965 -0.002836808980344466 0 0.005306277986253563 0 0
          -0.0033747906439066406 -0.0013945428869887916 0 0.006926573311929186 0 0
          -0.0011357659093884172 -0.0010305598115495206 0 0.003927025192084495 0 0
          -0.0037134791136149833 0.001496757332085052 0 0.00361375340130182 0 0
          -0.002210413281591851 0.0009168321536448443 0 0.0028257014936762742 0 0
          -0.0005762483148084366 -0.0037584320277451195 0 0.006735028026000886 0 0
          -0.0025875068028290557 0.0018266617107285795 0 0.001249341394146208 0 0
          -0.0027215600507619372 0.002474738788708968 0 -0.0008314465973613238 0 0
          -0.0019261502379052248 0.0017200579074793383 0 -0.00037421937718168944 0 0
          -0.002804411111133393 0.002438654302215508 0 0.0001270965620122215 0 0
          -0.0019406372087686433 0.001528977484132193 0 0.00013887168440517863 0 0
          -0.0023362006691301984 0.0017058367923939361 0 0.001302475007794736 0 0
          0.0002163598751136132 -0.0028265592100369897 0 0.004217711939095236 0 0
          -0.0011778396222528174 -0.0022892248502223017 0 0.00479909992945098 0 0
          -0.00024901119797541063 -0.0017128679320370082 0 0.003018218984637096 0 0
          -0.0020386090008376787 -0.00030306700311165695 0 0.0038062504208271385 0 0
          -0.0010193863366673847 -0.000433495857313909 0 0.002572636476114134 0 0
          -0.0020845672383262483 0.0009628229169688204 0 0.0020745130524269994 0 0
          -0.0012230694313783998 0.0006416660330463865 0 0.0015981453152718369 0 0
          -0.0018152734130044675 0.0017864548705936846 0 -0.0004506953586339504 0 0
          -0.0008819970180669989 0.001047377067955706 0 -0.00018446129078221904 0 0
          -0.0015561111906750935 0.001378987106103328 0 -0.0010572412536030062 0 0
          -0.001026473426016008 0.0012128496464200546 0 -0.0008374239540018479 0 0
          0.00017264789919538775 -0.004183888596384012 0 0.0048144252880112075 0 0
          -0.0013223061602591066 0.0011261006501741711 0 0.0008676818419977948 0 0
          -0.001453603247259404 0.0015248601900101709 0 0.000012924474949183088 0 0
          -0.0014566205891460072 0.0011349128739677023 0 -0.000010756464008759336 0 0
          0.0012518091024418525 -0.003929557165144482 0 0.003876785758696602 0 0
          0.0014974849424470487 -0.004997109601128148 0 0.004175071304571562 0 0
          -0.0014642282401835642 0.0011270022403930876 0 0.0009616517334898812 0 0
          0.00038235311628783444 -0.0031641323067698565 0 0.003312358253473609 0 0
          -0.0010769040545615068 -0.0013196208009327395 0 0.0029705052800778455 0 0
          -0.00034419167824386524 -0.0009824280092977401 0 0.001877124859765037 0 0
          -0.001062487139273672 -0.0001630550792449647 0 0.0021310465710763582 0 0
          -0.0003580121860134595 -0.00009694753104740437 0 0.001065567355467653 0 0
          -0.00034168681814174555 -0.002885554640827164 0 0.003428586532530419 0 0
          -0.00008333384197347499 -0.0020714065943924524 0 0.002275100092389037 0 0
          -0.0013486897551132906 0.0005723226969793953 0 0.0011895569720942077 0 0
          -0.0008944024085749684 0.0003885254567339498 0 0.0009496515393913264 0 0
          -0.0005490965740076708 0.0005213661792454791 0 0.0004573682836331376 0 0
          0.00031354456120077337 -0.00449534276622548 0 0.0033388501127888924 0 0
          -0.0003642746467541739 -0.001874783753497943 0 0.0021565444541207365 0 0
          -0.00017205179468170726 -0.0011330528445838471 0 0.001265916182632903 0 0
          -0.0005574813742379788 -0.0007930688823165513 0 0.0016115987125330134 0 0
          0.0011212456511359825 -0.00468069090747466 0 0.0032515541392981817 0 0
          0.000060041986565762044 -0.0033002166369508613 0 0.0024670424342912323 0 0
          -0.0002999007557437099 -0.00431395702492875 0 0.0024209932181681404 0 0
          -0.0009673645118774552 0.0004496833427692198 0 0.0008565319947993007 0 0
          -0.00019960003735978207 -0.003110827451856013 0 0.002419849261846174 0 0
          -0.00014387303078486927 -0.002075213721749577 0 0.0016124539894888565 0 0
          -0.00002419723646508714 -0.0045697992080610044 0 0.0024901456631715195 0 0
          -0.0002128304516875558 -0.0032785207201772226 0 0.0019342520760993443 0 0
          -0.0002959660095518882 -0.001940584256235989 0 0.0015437372457578519 0 0
          -0.00028876384430800896 -0.0017911692424163366 0 0.001343377046275194 0 0
          -0.00023322320030859936 -0.0033548260352083124 0 0.001897176760079184 0 0
          -0.0008078164212798966 0.0010056926865918633 0 -0.0001092007112025056 0 0
          -0.0004888890779671338 0.0007788197078515047 0 -0.00036958740515956524 0 0
          -0.0009184753868317725 0.0007360204598238151 0 -0.00012308995194482218 0 0
          -0.0004767853388288557 -0.0008985054858305789 0 0.0013616428977975947 0 0
          -0.00015231025808168 -0.002190924481636474 0 0.0012844102197725458 0 0
          0.0008716614487327226 -0.004361001363867647 0 0.0019548129213514927 0 0
          -0.01658677412045065 0.008000659006641415 0 0.004171566372683559 0 0
          -0.016170347738853282 -0.000701524791822366 0 0.017442710234005503 0 0
          0.0016297457621060392 -0.006053803875469231 0 0.007741770650768129 0 0
          0.002386913290763179 -0.0047788923005359025 0 0.005020238431204749 0 0
          -0.00005659792246421691 -0.0008141393462160432 0 0.0006472912315750158 0 0
          0.0014802684262978146 -0.004341727990970485 0 0.004900052502825393 0 0
          0.0021922369018427985 -0.0023310131150516555 0 0.002500810846084613 0 0
          0.0019689802310079293 -0.012511077063091253 0 0.01599502580044792 0 0
          0.002662611648742159 -0.003854449476407483 0 0.005625275455950981 0 0
          0.0028472005869337367 -0.0049907466171510255 0 0.006129893440549218 0 0
          0.0017254339941138318 -0.004704219399434853 0 0.005240763869763212 0 0
          -0.00022845699822816634 -0.0032862660514359314 0 0.002119971229395195 0 0
          0.0021513684508293295 -0.003999946394934744 0 0.0016548618550292784 0 0
          0.002384043514093103 -0.0033170562023914227 0 0.0023269318471968985 0 0
          0.0022234783951643917 -0.004514214801146951 0 0.003967264741935447 0 0
          0.002636303309157711 -0.003625016413425694 0 0.004600316895547389 0 0
          <InformationKey name="L2_NORM_RANGE" location="vtkDataArray" length="2">
            <Value index="0">
              0
            </Value>
            <Value index="1">
              0.023795386598
            </Value>
          </InformationKey>
        </DataArray>
        <DataArray type="Float64" Name="Strain" NumberOfComponents="6" format="ascii" RangeMin="0" RangeMax="0.2907767100144108">
          0 0 0 0 0 0
          0 -0.0004942082028230854 0 -0.03779637399865284 0 0
          -0.015071250044582301 -0.0006106193338703914 0 -0.044228970622736286 0 0
          -0.008513232252353023 -0.002768803351567869 0 -0.028863031297038932 0 0
          -0.015146894640748091 0.006226933170727436 0 0.013805979571961044 0 0
          0 -0.00469013772362515 0 -0.028143413144149698 0 0
          0.0030076182620769882 0.001353148234460802 0 0.024122262077339834 0 0
          -0.006773801647345564 0.010143049567276498 0 0.0023100683618543032 0 0
          -0.006256948512315851 -0.0034177058739719517 0 0.026746229542806813 0 0
          0 -0.003061403306460975 0 0.03146432696119885 0 0
          -0.014343059629678148 0.01241120136158789 0 0.0019594910111748014 0 0
          -0.017915740528479242 -0.0026124720129111862 0 -0.018661955262889267 0 0
          0 0.0008603519986034153 0 0.05713090565205092 0 0
          0 -0.008937811451023306 0 0.02267951824906519 0 0
          0 -0.008937811451023306 0 0.02267951824906519 0 0
          0 -0.0008603519986034153 0 -0.05713090565205092 0 0
          -0.01354125973233047 0 0 0.005336498992957784 0 0
          -0.024462955717441354 0.0004964293998642729 0 0.035309907857873565 0 0
          -0.07685147436083362 0.0784602653837755 0 -0.2336663740263869 0 0
          -0.06526489412606651 0.030061168828424627 0 -0.26608051195631893 0 0
          0 -0.15238784064320526 0 0.21209627540022535 0 0
          0 0.02898392060891998 0 -0.2710922711800411 0 0
          -0.019327603587244835 -0.0742487322275267 0 0.2221107864821173 0 0
          -0.018981438085646368 -0.11329909028091487 0 0.22965738008320496 0 0
          -0.06714801297545046 0.001815648728684588 0 0.18670177283206524 0 0
          0 -0.10576120315159176 0 0.1884319327098663 0 0
          -0.03603793388533322 -0.005570698825884807 0 0.16154345852746968 0 0
          -0.05329034843322513 0.045624345680715356 0 0.1370131555602634 0 0
          -0.1156515963212453 0.06406074897333401 0 0.03657126382085954 0 0
          0 -0.013760151739101514 0 -0.20021687211454087 0 0
          -0.03400785931084249 -0.0017358203596531882 0 0.1548117024208681 0 0
          -0.07242217791503953 0.0490381671558943 0 0.061135784116286146 0 0
          -0.059690904439711076 0.006056761716346005 0 -0.1970771271766922 0 0
          -0.04055806172079782 -0.018588525577067957 0 -0.16911914740875172 0 0
          -0.06300487916259973 0.1077077302589583 0 -0.07081509871410784 0 0
          -0.08533068936004207 0.0845456953563288 0 -0.12586314189053657 0 0
          -0.09313959792430021 0.06850651621744734 0 -0.09089907925026461 0 0
          -0.04885364547131461 0.06465196326794267 0 0.02119858714636559 0 0
          -0.024194989042325556 0.04628401073270648 0 0.037473269855640534 0 0
          -0.04027630073668658 0.05727084606767184 0 -0.1105546076556867 0 0
          0 -0.02420068454153614 0 -0.1519394318854685 0 0
          -0.032261198278486364 -0.023921369795634244 0 -0.13273175675597168 0 0
          0 -0.0673749872405399 0 0.14998356314539513 0 0
          -0.06956467353015844 0.007629850388808784 0 0.14483486453866207 0 0
          -0.03116684317382961 -0.08450416131820401 0 0.1982569326591657 0 0
          -0.07244621492415813 0.04425098991378591 0 -0.06959744834102263 0 0
          -0.028142116838496746 -0.05913687426049617 0 0.149456888446368 0 0
          -0.028907294262285298 0.03824448193383445 0 -0.08364402622746513 0 0
          0 -0.023639596965375275 0 -0.1124346014378832 0 0
          0 -0.049561480251245675 0 0.1164851156403924 0 0
          -0.02790061015268345 0.016380859178331916 0 0.09919642316331173 0 0
          -0.020067747072531908 -0.018100222782943428 0 -0.10483520799423121 0 0
          -0.0296825910478866 -0.03555042111220998 0 0.11772421274688794 0 0
          -0.01799108422362645 0.030054195334234195 0 -0.08357001992086102 0 0
          0 -0.014690793516039979 0 -0.08819117343748328 0 0
          0 -0.027002515156186298 0 0.08463267465968419 0 0
          -0.021706942436159747 0.017918419175352432 0 0.0674674485529609 0 0
          -0.029696914085986202 0.0344951372111512 0 -0.07579229443616418 0 0
          -0.04034026242060319 0.021480465744480433 0 -0.05539536398908683 0 0
          -0.060631818028045376 0.01675346898736755 0 0.0814948105380376 0 0
          -0.02779478995256609 0.0008603519986034153 0 0.08529064111592896 0 0
          -0.0300935005401312 -0.0008603519986034153 0 -0.0705308673700383 0 0
          -0.02576742407810449 0.018169074476998635 0 0.06581059808305878 0 0
          -0.09263701729580909 0.053008421628074995 0 0.05141547724521821 0 0
          -0.09202071138788748 0.061411892825501135 0 -0.031443606087260045 0 0
          -0.10274037191603111 0.07685586184310778 0 -0.009339012723298457 0 0
          -0.07760663552084113 0.04605849851269067 0 0.0526482444159424 0 0
          -0.027145314406247678 0.0008471510858042429 0 0.1244623782655685 0 0
          -0.07085028938711768 0.025010996295213972 0 0.14410634423455948 0 0
          -0.0486336200559596 0.018222590885801138 0 0.140486714402845 0 0
          -0.023383472822247106 -0.03686819899586491 0 0.17351529084957407 0 0
          -0.09249531002288314 0.061445914773930854 0 0.07230438570776077 0 0
          -0.09190851688224311 0.06907339150885278 0 -0.0064793629232609 0 0
          -0.10595253732050902 0.08475425911042564 0 0.014196905349276812 0 0
          -0.09709090241790849 0.07370594001430414 0 -0.09628729204063984 0 0
          -0.101910952146272 0.09385149143547346 0 -0.06234435446152892 0 0
          -0.0805236523593369 0.05537389179764324 0 0.07412428213616074 0 0
          -0.00357636363535363 -0.041087475385879146 0 0.1661926274414357 0 0
          -0.04246229698927492 -0.015026148359106872 0 0.191934058978185 0 0
          -0.024122083265646906 -0.02157142426940928 0 0.19041675987223833 0 0
          -0.07479441765253658 0.03438288178422744 0 0.15144795876208794 0 0
          -0.05712912272233449 0.02689205251697918 0 0.1518389044230517 0 0
          -0.003982575167367925 -0.04701666703567009 0 0.1821615852210095 0 0
          -0.0925051688159777 0.068379408863039 0 0.09107027153892194 0 0
          -0.10042738895376234 0.09245655469489444 0 -0.061725741181058946 0 0
          -0.11729881402854156 0.10630330014250139 0 -0.04589767811665696 0 0
          -0.09188996009946404 0.08137432637275088 0 0.008400160361933584 0 0
          -0.113848254171661 0.09254384690346387 0 0.01652173008309637 0 0
          -0.08236107652351987 0.06268189926630269 0 0.09347506193135902 0 0
          0.009042551531603715 -0.0622375655011355 0 0.19759907655527453 0 0
          -0.020979954008595536 -0.04546004850343521 0 0.21141619810401913 0 0
          -0.004429864939478612 -0.057806588036174444 0 0.220107111904553 0 0
          -0.05006331747844617 -0.0040036338275799 0 0.20202875010685895 0 0
          -0.03763797855027151 -0.013796952248968986 0 0.20937119155241812 0 0
          -0.0774288861080239 0.03986565956573429 0 0.15969669361561978 0 0
          -0.05840234847982473 0.03347897478460498 0 0.15749119286613789 0 0
          -0.10850203631359821 0.10700188353211834 0 -0.053933339105112714 0 0
          -0.0956246974162108 0.11103617153430437 0 -0.03951637053379439 0 0
          -0.10518754040790575 0.09469342905655671 0 -0.14399681738764325 0 0
          -0.08282396260771807 0.09575467664707707 0 -0.13356360413179286 0 0
          0.008522732793285845 -0.07715201259074067 0 0.18935898328377085 0 0
          -0.08413451151645979 0.07316766878392866 0 0.11149147680173041 0 0
          -0.0833157204518038 0.08685769869730478 0 0.001476870298482313 0 0
          -0.11925125549818705 0.09600371096456153 0 -0.0017868820390853353 0 0
          0.032941154180031185 -0.0867619433969967 0 0.1791277589702875 0 0
          0.030723359716752184 -0.0849521929356642 0 0.14872481331334975 0 0
          -0.08872851271444382 0.07067983760731444 0 0.11831854986945572 0 0
          0.017995885438334247 -0.09533097055817652 0 0.21169078793315052 0 0
          -0.034556353300239345 -0.0436619151594162 0 0.2228780665952933 0 0
          -0.015619215475655698 -0.054263566277811495 0 0.22731476743239282 0 0
          -0.04964843016404273 -0.00421276896710565 0 0.21530366617180527 0 0
          -0.03200740199598723 -0.006565901768593784 0 0.20768519675678226 0 0
          -0.00419418378662699 -0.08507473810867971 0 0.21801917286681077 0 0
          0.0029793461298682758 -0.10144077508699119 0 0.2389914827198289 0 0
          -0.0827203810656616 0.03968272498671793 0 0.15159242518389415 0 0
          -0.07031234263925723 0.034392854062958444 0 0.1550101980310296 0 0
          -0.07271281796732898 0.06950754134776663 0 0.12153077057553752 0 0
          0.01587701496790398 -0.11455654328968845 0 0.1811221894162784 0 0
          -0.012087911598565506 -0.09556257059735501 0 0.23835250263604768 0 0
          -0.008459719734551173 -0.10166999475390151 0 0.24556975363694916 0 0
          -0.03249892502832641 -0.04879956876310136 0 0.22301773698171767 0 0
          0.03673787272857017 -0.12084699729187251 0 0.1766292103436708 0 0
          0.011879001521881039 -0.13560307822496429 0 0.21655746762266498 0 0
          0 -0.17547950895967396 0 0.21167351558083605 0 0
          -0.08813836483572746 0.045624345680715356 0 0.1617052534855676 0 0
          0.0007043978532579806 -0.1309360775000521 0 0.2188424755322042 0 0
          0.000025986113670412033 -0.136499935523257 0 0.2279678236387651 0 0
          0.011404765865602406 -0.1775134506071265 0 0.2069841928014209 0 0
          0.0008290326739432972 -0.1793290402341415 0 0.2273361599051536 0 0
          -0.011090142480294718 -0.13220722421013267 0 0.22737550254087935 0 0
          -0.014131822838941488 -0.1523878406432053 0 0.2472434684560031 0 0
          0 -0.18160078260802665 0 0.2207383851169578 0 0
          -0.08113095940567544 0.0981496670401852 0 -0.02159081730302853 0 0
          -0.07685147436083362 0.11503085001894944 0 -0.11188262029392548 0 0
          -0.13056844399220313 0.10770773025895827 0 -0.03545418732535141 0 0
          -0.035549266100156796 -0.0742487322275267 0 0.24990436703360286 0 0
          0 -0.1757852796131441 0 0.22150381078671816 0 0
          0.040619967346238045 -0.15287723737053865 0 0.14457298303835428 0 0
          -0.062014528559301674 0.0331136038680539 0 0.032279361271989604 0 0
          -0.06320805478190225 0.0016569593438761074 0 0.1462841289986826 0 0
          0.013774530963096998 -0.0414264108828781 0 0.11123843838738831 0 0
          0.03123082930011567 -0.056794171446604896 0 0.12333756087161737 0 0
          0 -0.054467919324449526 0 0.09308165989455318 0 0
          0.028101316216973198 -0.07008590457338143 0 0.16527751049527134 0 0
          0.046105085557866604 -0.048633872832617865 0 0.10475839885249077 0 0
          0.011009593532962159 -0.04905315705082046 0 0.13269356960693401 0 0
          0.030389957858101613 -0.04189009706689642 0 0.12477870350342746 0 0
          0.029081180788851572 -0.04724039552622891 0 0.11937899499562102 0 0
          0.026615635766904996 -0.06255810275352575 0 0.1453697356185633 0 0
          0 -0.11682942209122243 0 0.16199508162253484 0 0
          0.06931536772958567 -0.11839133134705174 0 0.10099585666608893 0 0
          0.05823979011606009 -0.07757740581336461 0 0.11086891102477953 0 0
          0.03902306057202354 -0.07180481019044316 0 0.1305145518767237 0 0
          0.03571087965429004 -0.047085442293866395 0 0.12166422914756733 0 0
          <InformationKey name="L2_NORM_RANGE" location="vtkDataArray" length="2">
            <Value index="0">
              0
            </Value>
            <Value index="1">
              0.29077671001
            </Value>
          </InformationKey>
        </DataArray>
      </CellData>
      <Points>
        <DataArray type="Float32" Name="Points" NumberOfComponents="3" format="ascii" RangeMin="11" RangeMax="82.46211251235322">
          80 20 0 71.25 20 0
          80 10 0 66.2388916015625 12.798850059509277 0
          70.20958709716797 5.845560073852539 0 62.5 20 0
          80 0 0 71.25 0 0
          61.98773956298828 6.017467021942139 0 57.24021911621094 11.442919731140137 0
          53.75 20 0 62.5 0 0
          53.75 0 0 45 20 0
          45 10 0 40.15702819824219 15.307769775390625 0
          45 0 0 37.99734115600586 20 0
          40.049659729003906 5.003084182739258 0 36.91453170776367 10.96895980834961 0
          35.045658111572266 16.052900314331055 0 38.01533889770508 0 0
          32.61840057373047 20 0 35.31842041015625 4.04646110534668 0
          31.990219116210938 9.977960586547852 0 30.425119400024414 16.402000427246094 0
          32.72930908203125 0 0 28.12295913696289 20 0
          30.514589309692383 4.023209095001221 0 27.527999877929688 12.006360054016113 0
          27.93014907836914 7.867103099822998 0 26.15369987487793 16.422679901123047 0
          28.299869537353516 0 0 24.184429168701172 20 0
          24.478979110717773 13.194990158081055 0 24.274250030517578 9.000702857971191 0
          25.34370994567871 4.327282905578613 0 24.47154998779297 0 0
          21 15 0 21 10.843259811401367 0
          21 6.905692100524902 0 19.282169342041016 13.698100090026855 0
          21 3.321547031402588 0 19.531700134277344 9.244172096252441 0
          18.861600875854492 10.96759033203125 0 18.876230239868164 8.006454467773438 0
          21 0 0 18.122079849243164 12.307439804077148 0
          19.210899353027344 5.246811866760254 0 17.48702049255371 13.458939552307129 0
          17.920650482177734 9.497859001159668 0 19.55401039123535 2.1721389293670654 0
          18.10565948486328 6.8028388023376465 0 17.11651039123535 10.95458984375 0
          18.390689849853516 3.9656178951263428 0 17.121780395507812 8.250059127807617 0
          16.441429138183594 12.177860260009766 0 17.33510971069336 5.599215984344482 0
          16.261079788208008 9.61844539642334 0 18.331939697265625 0 0
          16.37948989868164 7.09060001373291 0 17.43825912475586 2.477871894836426 0
          15.530030250549316 10.942770004272461 0 16.465240478515625 4.240429878234863 0
          15.518770217895508 8.458972930908203 0 14.910579681396484 12.065620422363281 0
          15.580659866333008 5.842782974243164 0 14.752360343933105 9.728070259094238 0
          14.776479721069336 7.299490928649902 0 14.087759971618652 10.93202018737793 0
          15.43025016784668 2.6237199306488037 0 14.04539966583252 8.623793601989746 0
          16.123180389404297 0 0 14.639739990234375 4.373022079467773 0
          13.380769729614258 9.827728271484375 0 13.921090126037598 5.963322162628174 0
          13.11305046081543 7.256770133972168 0 12.673810005187988 8.723417282104492 0
          14.193650245666504 0 0 12.980170249938965 4.493560791015625 0
          12.261520385742188 6.083861827850342 0 12.46481990814209 2.2999250888824463 0
          11 6.846733093261719 0 12.522089958190918 0 0
          11 4.945953845977783 0 11 3.106290102005005 0
          11 1.4935599565505981 0 11 0 0
          18.283540725708008 17.52022933959961 0 17.25609016418457 15 0
          20.521530151367188 20 0 12.776570320129395 10.922260284423828 0
          13.51276969909668 11.97500991821289 0 14.336990356445312 13.107600212097168 0
          15.845529556274414 13.259160041809082 0 12.069279670715332 9.813958168029785 0
          11 8.496806144714355 0
          <InformationKey name="L2_NORM_RANGE" location="vtkDataArray" length="2">
            <Value index="0">
              11
            </Value>
            <Value index="1">
              82.462112512
            </Value>
          </InformationKey>
        </DataArray>
      </Points>
      <Cells>
        <DataArray type="Int64" Name="connectivity" format="ascii" RangeMin="0" RangeMax="96">
          0 1 2 5 10 9
          9 10 14 5 9 3
          3 9 8 5 3 1
          8 9 12 3 8 4
          4 8 11 11 8 12
          4 2 3 3 2 1
          16 12 14 11 7 4
          4 7 6 10 13 14
          6 2 4 9 14 12
          88 89 38 88 38 90
          42 46 37 90 38 33
          40 42 36 36 42 37
          40 36 35 37 32 36
          35 36 30 40 35 39
          39 35 34 27 33 31
          30 36 28 35 30 29
          31 33 38 27 31 25
          38 39 34 38 34 31
          31 34 29 29 34 35
          29 30 24 25 31 29
          27 25 22 22 25 20
          32 26 28 24 30 28
          28 36 32 29 24 25
          28 26 23 20 25 24
          22 20 17 23 26 21
          28 23 24 17 20 15
          23 21 18 15 20 19
          17 15 13 18 21 16
          23 18 19 19 20 24
          15 19 14 19 24 23
          18 16 14 13 15 14
          19 18 14 91 74 69
          92 91 69 92 69 65
          69 74 67 74 77 71
          67 74 71 67 71 64
          71 77 76 69 67 62
          65 69 62 65 62 56
          93 92 65 93 65 94
          62 67 58 71 76 68
          64 71 68 64 68 60
          67 64 58 58 64 55
          68 76 75 62 58 53
          94 65 56 94 56 49
          56 62 53 56 53 47
          53 58 50 68 75 66
          60 68 66 60 66 57
          64 60 55 55 60 52
          58 55 50 50 55 45
          49 56 47 49 47 41
          94 49 89 89 49 41
          66 75 73 53 50 44
          47 53 44 47 44 41
          73 75 79 73 79 81
          44 50 43 66 73 63
          52 60 57 52 57 48
          55 52 45 45 52 40
          57 66 63 57 63 54
          50 45 43 43 45 40
          44 43 39 63 73 70
          48 57 54 48 54 42
          52 48 40 70 73 81
          63 70 61 78 72 70
          39 43 40 54 63 61
          54 61 51 61 70 72
          51 61 59 54 51 42
          42 51 46 72 59 61
          44 39 41 89 41 38
          38 41 39 40 48 42
          51 59 46 81 78 70
          91 95 74 74 95 77
          77 95 96 76 77 82
          86 87 83 75 76 80
          85 86 81 96 82 77
          80 76 82 80 82 84
          75 80 79 83 78 81
          81 86 83 85 81 79
          80 84 79 84 85 79
        </DataArray>
        <DataArray type="Int64" Name="offsets" format="ascii" RangeMin="3" RangeMax="462">
          3 6 9 12 15 18
          21 24 27 30 33 36
          39 42 45 48 51 54
          57 60 63 66 69 72
          75 78 81 84 87 90
          93 96 99 102 105 108
          111 114 117 120 123 126
          129 132 135 138 141 144
          147 150 153 156 159 162
          165 168 171 174 177 180
          183 186 189 192 195 198
          201 204 207 210 213 216
          219 222 225 228 231 234
          237 240 243 246 249 252
          255 258 261 264 267 270
          273 276 279 282 285 288
          291 294 297 300 303 306
          309 312 315 318 321 324
          327 330 333 336 339 342
          345 348 351 354 357 360
          363 366 369 372 375 378
          381 384 387 390 393 396
          399 402 405 408 411 414
          417 420 423 426 429 432
          435 438 441 444 447 450
          453 456 459 462
        </DataArray>
        <DataArray type="UInt8" Name="types" format="ascii" RangeMin="5" RangeMax="5">
          5 5 5 5 5 5
          5 5 5 5 5 5
          5 5 5 5 5 5
          5 5 5 5 5 5
          5 5 5 5 5 5
          5 5 5 5 5 5
          5 5 5 5 5 5
          5 5 5 5 5 5
          5 5 5 5 5 5
          5 5 5 5 5 5
          5 5 5 5 5 5
          5 5 5 5 5 5
          5 5 5 5 5 5
          5 5 5 5 5 5
          5 5 5 5 5 5
          5 5 5 5 5 5
          5 5 5 5 5 5
          5 5 5 5 5 5
          5 5 5 5 5 5
          5 5 5 5 5 5
          5 5 5 5 5 5
          5 5 5 5 5 5
          5 5 5 5 5 5
          5 5 5 5 5 5
          5 5 5 5 5 5
          5 5 5 5
        </DataArray>
      </Cells>
    </Piece>
  </UnstructuredGrid>
</VTKFile>
