<?xml version="1.0"?>
<VTKFile type="UnstructuredGrid" version="0.1" byte_order="LittleEndian" header_type="UInt32" compressor="vtkZLibDataCompressor">
  <UnstructuredGrid>
    <Piece NumberOfPoints="97" NumberOfCells="154">
      <PointData>
        <DataArray type="Float64" Name="Velocity" NumberOfComponents="3" format="ascii" RangeMin="0" RangeMax="2.7937620482725998">
          1.0535147847147996 0.020896326004857347 0 1.0971733463887654 0 0
          0.9713520449497324 -0.013249988925527416 0 0.979988344305264 -0.020931929986469356 0
          0.9705904698902486 -0.018449661509085086 0 1.2026127762782457 0 0
          0.9868189521093066 0.00018339940152684733 0 0.956797792695224 0 0
          0.9622029302636468 0.007965737297442753 0 0.9363600402306359 -0.04728275151715752 0
          1.4029107206718385 0 0 0.9291980154581483 0 0
          0.8164881012827455 0 0 2.0021578701886686 0 0
          0.9073379566575882 -0.6224488381060402 0 1.9212749986662567 -0.4304823792692437 0
          0.17265136493721991 0 0 2.576633125024064 0 0
          0.12286590336032131 -0.5568158035804468 0 1.2084024738706172 -0.572235470439508 0
          2.451488837141103 -0.19125202354122045 0 -0.40115679325974757 0 0
          2.7519826986315747 0 0 -0.3785710970590792 -0.4878309700542476 0
          1.1280463178130857 -0.34590021808632515 0 2.702459655264224 -0.06147814643949161 0
          -1.0377273920377796 0 0 2.7546397504949485 0 0
          -0.6767882637196644 -0.06634701273281014 0 1.7304741596610163 -0.1417724614902195 0
          0.22433845540984043 -0.016857173600634514 0 2.7937485736010403 0.00867697357756041 0
          -1.1077600194507202 0 0 2.708543871109768 0 0
          2.059384835635407 -0.10086601805827371 0 0.3755713427850068 0.1360485246747562 0
          -0.6587839003315459 0.12660667645326404 0 -0.9551208114194795 0 0
          2.747958348664518 0.10812466370504878 0 0.8121769873221287 0.2047585975245237 0
          -0.2015486781249974 0.3203449206165932 0 2.089503516432277 0.12063991729290259 0
          -0.5565314562001351 0.20659590863131563 0 0.32927422086833785 0.3758529851125537 0
          0.6661086185668824 0.28605443239481165 0 0.053686702504659685 0.4131940768189628 0
          -0.6728024249177522 0 0 1.2664610277076205 0.15108431243809503 0
          -0.3038023385852227 0.3212624861390903 0 2.024398108570735 0.2214956759167551 0
          0.3034102224270955 0.4145474960235958 0 -0.4848751143523433 0.16901627680068212 0
          -0.09905242695385415 0.3917272588071278 0 0.4689345693196035 0.297786970471503 0
          -0.3656075034840183 0.28401355045414567 0 0.10171140996162505 0.42101502737334695 0
          1.080969735591214 0.2539357385391582 0 -0.20217733829863774 0.36073522001255454 0
          0.249437978272338 0.3796721387343305 0 -0.3982164880032861 0 0
          -0.03095883071881991 0.40298580554779884 0 -0.31040249249114477 0.170462084428247 0
          0.36479564997610975 0.29788307273040876 0 -0.22952742889619557 0.2674948220416401 0
          0.11751117402540019 0.4111130567005025 0 1.0157991330703777 0.26109334773085385 0
          -0.10546849488386557 0.3322562127481515 0 0.2019010246885738 0.3818395281654388 0
          0.032138688148525614 0.37304868213076925 0 0.27776461576461303 0.3098106485804969 0
          -0.17289203248621424 0.14609990093776773 0 0.13022503871612967 0.3713398916643214 0
          -0.2047695503032546 0 0 -0.11838330136511087 0.22277455413251082 0
          0.15044421825642948 0.31079417178605223 0 -0.016227040805794644 0.2960019174925076 0
          0.061088951072232084 0.3023438807857596 0 0.09716378128205093 0.27375878216089206 0
          -0.07534938048385746 0 0 -0.023453465331839465 0.17532366048040637 0
          0.03123701850595357 0.17115649622674892 0 -0.021609221381020137 0.061695152127062114 0
          -0.004859922306885598 0.006455376019179121 0 -0.018860498324771068 0 0
          -0.0047782879567623985 0.005179905719279671 0 -0.003710690062566526 0.0037179027398810127 0
          -0.0015241712739477791 0.0020817676458886845 0 0 0 0
          2.6025025446399566 0.183523170106075 0 2.7120299794031353 0.2926052459795643 0
          2.6223085257340744 0 0 0.2858373544075138 0.2670584382001161 0
          1.023362485965735 0.3493316207756307 0 2.0108289548668736 0.37924328699967613 0
          1.9664445491961273 0.3781906553200313 0 0.06624788540777382 0.19894779377111746 0
          -0.004262113185625352 0.007331060852989572 0
          <InformationKey name="L2_NORM_RANGE" location="vtkDataArray" length="2">
            <Value index="0">
              0
            </Value>
            <Value index="1">
              2.7937620483
            </Value>
          </InformationKey>
        </DataArray>
        <DataArray type="Float64" Name="Pressure" format="ascii" RangeMin="-3.8746788694917513" RangeMax="0.14097097193778688">
          -0.05673313068820525 -0.008080628459100282 -0.007104714614524615 -0.012609903363919206 -0.03676089060759535 0.05527350538791292
          -0.004303249890963176 -0.03406623791175348 -0.07082467847089138 -0.0954593836069993 -0.12880041053911268 -0.07317885849181996
          0.14097097193778688 -0.3709605722430587 -0.3619831600061129 -1.2591122064807692 -0.14355734589091987 -1.7997124445754444
          -1.0526742266861693 -2.17479825010079 -2.324407173697918 -1.264528992865372 -2.693496382747659 -2.351488363093056
          -3.5036859648684353 -2.9218544477896606 -2.8181294919832864 -2.8888419300641917 -3.569755927240971 -3.7047458661352937
          -3.8746788694917513 -3.003328485564258 -3.4931492175706604 -2.6698076894291165 -3.5312897912505217 -3.8652145881188575
          -3.757435854073171 -3.3830427491378963 -3.0170211911719753 -3.5978984047635256 -3.5679324925529374 -3.1024393897002587
          -3.24670022856338 -3.4406655195570264 -3.330103007370481 -3.3255012068162255 -3.054141067704417 -3.163455524630248
          -3.1975355606778817 -2.9135349516391402 -3.2390255587866683 -3.0071117955106 -3.1620283456426566 -3.135697260416182
          -3.0070449993298927 -3.116310798777845 -3.0289171321884854 -3.009184133690754 -3.0436904458935032 -2.8375080881123522
          -2.9921633773849714 -2.8526048153890065 -2.9608361260985587 -2.861976624577718 -2.9577113793167427 -2.832978366160475
          -2.8693045281382146 -2.908071120110419 -2.8643205166917625 -2.8411702527801186 -2.762568088906074 -2.8431621685016504
          -2.749059859202317 -2.7684695215095205 -2.8041281948513044 -2.776850164670828 -2.7673426893396162 -2.751484371758421
          -2.727731117037272 -2.7269370687853733 -2.7289789705310357 -2.7234343633538924 -2.7023432629840296 -2.7284508440382136
          -2.7200977839561538 -2.7308509264613456 -2.7360043050729534 -2.7336951827884426 -1.8492434938342088 -2.435996856954518
          -2.082964439366845 -2.7459088668659497 -2.7097215630996936 -2.5088552883606448 -2.799272415861761 -2.6806224680170514
          -2.6852321879583227
        </DataArray>
        <DataArray type="Float64" Name="BTraction" NumberOfComponents="3" format="ascii" RangeMin="0" RangeMax="3.3709644559037306">
          0.021360149244831518 0.020675830575238002 0 0.003504104188817576 0.006897340428162317 0
          0.014061763852601475 0.0010180984502030689 0 0 0 0
          0 0 0 0.006878848290104571 -0.012345784198105392 0
          0.0026792031425936337 -0.0060893566260319205 0 -0.0005815609844605765 -0.03435144099562346 0
          0 0 0 0 0 0
          0.015005725464290848 0.1520468172852411 0 -0.0009075132667298158 -0.030597143847483972 0
          -0.007545306676974284 0.07003065140490639 0 0.02029221624870075 0.5682315959316218 0
          0 0 0 0 0 0
          -0.013582159564880271 -0.22254647335046507 0 0.015544231511822996 1.6894721451457755 0
          0 0 0 0 0 0
          0 0 0 -0.014060179822824974 -1.2270505121989363 0
          0.007162084563659693 2.574848270453693 0 0 0 0
          0 0 0 0 0 0
          -0.017619595388384608 -2.6081421548760524 0 0.00010695842850448596 2.823312788767666 0
          0 0 0 0 0 0
          0 0 0 0 0 0
          -0.019730162904307617 -3.35770821520958 0 -0.003135528774769602 2.6088122343778584 0
          0 0 0 0 0 0
          0 0 0 -0.01565526860691545 -3.3709281029905074 0
          0 0 0 0 0 0
          0 0 0 0 0 0
          0 0 0 0 0 0
          0 0 0 0 0 0
          -0.011187375182325722 -3.1176650637213084 0 0 0 0
          0 0 0 0 0 0
          0 0 0 0 0 0
          0 0 0 0 0 0
          0 0 0 0 0 0
          0 0 0 0 0 0
          0 0 0 -0.007896729083179588 -2.8994338050057262 0
          0 0 0 0 0 0
          0 0 0 0 0 0
          0 0 0 0 0 0
          0 0 0 0 0 0
          0 0 0 0 0 0
          0 0 0 0 0 0
          -0.003939205976351773 -2.7919206706934023 0 0 0 0
          0 0 0 0 0 0
          0 0 0 0 0 0
          -0.0014508575144722019 -2.751705194736014 0 0 0 0
          0 0 0 0 0 0
          -2.5944990910583186 0.7575561449358802 0 -0.00041054949404868593 -2.7357838285870035 0
          -2.6138508453223444 0.718763768860231 0 -2.6441359724415 0.6321916894460663 0
          -2.691288310694355 0.4208892752578511 0 -1.3114967446623924 -1.2861453385985315 0
          0 0 0 0 0 0
          -0.00556426642049565 1.924641515734489 0 0 0 0
          0 0 0 0 0 0
          0 0 0 0 0 0
          -2.540841572250685 0.7611429379022138 0
          <InformationKey name="L2_NORM_RANGE" location="vtkDataArray" length="2">
            <Value index="0">
              0
            </Value>
            <Value index="1">
              3.3709644559
            </Value>
          </InformationKey>
        </DataArray>
        <DataArray type="Float64" Name="ALEdispl" NumberOfComponents="3" format="ascii" RangeMin="0" RangeMax="2.5287830772468425">
          0 0 0 0 0 0
          0 0 0 0.20033901901696477 0.03338786703388604 0
          0.1310519641447525 -0.05164581855632393 0 0 0 0
          0 0 0 0 0 0
          0.18716109701729755 -0.018207013138871655 0 0.3197147583150039 0.004187962560585748 0
          0 0 0 0 0 0
          0 0 0 0 0 0
          0.5647432125452486 0.008614753793054958 0 0.4090983840340778 0.06833514638761846 0
          0 0 0 0 0 0
          0.41852883298503935 -0.13337012433048026 0 0.8235100673416283 -0.05910952682438945 0
          0.4387826375105686 0.09255974982841515 0 0 0 0
          0 0 0 0.4658616809268947 -0.19796013816199207 0
          1.0537303430079497 -0.14930086313261745 0 0.5405603449268777 0.08666255723640236 0
          0 0 0 0 0 0
          0.5963715522824566 -0.2674403655460504 0 1.1758943866834555 -0.18733241088321875 0
          1.1347408335751552 -0.3651503134742914 0 0.7082062866219502 0.04970411716779686 0
          0 0 0 0 0 0
          1.296606169312633 -0.24251752554393013 0 1.3998212116112967 -0.5193772666004246 0
          0.8058217503579584 -0.45134482956415206 0 0 0 0
          1.3399512029292593 -0.1403010404296437 0 1.7389175861462325 -0.58208064994527 0
          1.3825009970604278 -0.7604465826709802 0 1.6865094071621831 -0.38253832324553455 0
          0.6961623428566953 -0.4988965031551646 0 1.722017622947788 -0.7556878434790941 0
          1.902012063049344 -0.6660123962155569 0 1.641755110627178 -0.8316053890928606 0
          0 0 0 1.9076998843118975 -0.5822907135117005 0
          1.1276433386204834 -0.7380735480480327 0 1.8752284353543416 -0.48210237353730695 0
          1.8810262793174553 -0.8122594279703506 0 0.47544016660189503 -0.376261673309003 0
          1.4560018287545196 -0.8476042194049448 0 2.0461049278980257 -0.7407365221157948 0
          0.8573502647566348 -0.6313987924609934 0 1.7730142606685793 -0.8792239560100931 0
          2.099041653645608 -0.6522754795031165 0 1.2270742578916112 -0.8022830196103271 0
          2.0242282076483913 -0.8437346233454072 0 0 0 0
          1.5758918736510936 -0.8733244472735309 0 0.5405662465318231 -0.44316334722541023 0
          2.190093336233405 -0.7648117929581276 0 0.914444728558735 -0.6735857115752711 0
          1.8943872614388315 -0.8759731233713961 0 2.2586924201452985 -0.6771185666957767 0
          1.2910666517503946 -0.7916852276428797 0 2.153076260820436 -0.824676460846993 0
          1.6595902074421502 -0.8295917804203309 0 2.32075468833677 -0.7395144395291947 0
          0.5489662727969546 -0.45317584056726684 0 1.9940293627814225 -0.8190976981733842 0
          0 0 0 0.9145236241743281 -0.6206394934281592 0
          2.2678023437163626 -0.757611548199802 0 1.3074787718964722 -0.6947018547736721 0
          1.6549502393198179 -0.6838734320340958 0 2.052190176684766 -0.6953510122610458 0
          0 0 0 0.8921156321505448 -0.4903955911917509 0
          1.2963001867051283 -0.4998118283187329 0 0.36815313063647914 -0.26412935273272325 0
          1.4758444521724587 -0.32805740366401864 0 0 0 0
          0.9385857340503916 -0.24088293024636417 0 0.46506484174785057 -0.15645156831097015 0
          0.13697495250481803 -0.07970439761101444 0 0 0 0
          0.8241496152563197 -0.09639185874431361 0 1.6240347571418945 -0.3468473794144429 0
          0 0 0 2.4394226838548603 -0.6663038505549556 0
          2.3985053380281807 -0.6441110416685025 0 2.2433805146692976 -0.5854344168913541 0
          2.0812464546234324 -0.5594598837087555 0 2.346425920105711 -0.6376440786090836 0
          1.9672597622063992 -0.4061516974251658 0
          <InformationKey name="L2_NORM_RANGE" location="vtkDataArray" length="2">
            <Value index="0">
              0
            </Value>
            <Value index="1">
              2.5287830772
            </Value>
          </InformationKey>
        </DataArray>
        <DataArray type="Float64" Name="ALEveloc" NumberOfComponents="3" format="ascii" RangeMin="0" RangeMax="0.008479980071790415">
          0 0 0 0 0 0
          0 0 0 -0.00014534090053941462 -0.000024209794842890153 0
          -0.00009547893037187283 0.000037507399613945225 0 0 0 0
          0 0 0 0 0 0
          -0.00013671117932284593 0.000014678671624183959 0 -0.00023188820667346954 1.1971409990922666e-7 0
          0 0 0 0 0 0
          0 0 0 0 0 0
          -0.0004203292669973102 0.00009291991471089764 0 -0.00029082863742613263 0.00011411535754118907 0
          0 0 0 0 0 0
          -0.00031353205978124077 0.0002509206065206826 0 -0.0006051667292776841 0.0003680250113154149 0
          -0.00026355966837521283 0.00022329912763041637 0 0 0 0
          0 0 0 -0.0003826871096814788 0.00039123437880606016 0
          -0.0008167422120930468 0.000853746001084954 0 -0.00025891438960978785 0.00043430137336511465 0
          0 0 0 0 0 0
          -0.0005187759196236819 0.0005826347640858209 0 -0.0008339277890518915 0.0013286038893594587 0
          -0.0009878158965537231 0.0011566079238630733 0 -0.00027177984615711637 0.0007959345851087929 0
          0 0 0 0 0 0
          -0.0009719655967828089 0.0017573775573018202 0 -0.0012274116553978587 0.0019501746986173574 0
          -0.0008565640477773417 0.0010011781663755714 0 0 0 0
          -0.0006275978866576715 0.002281293119850064 0 -0.0016402912919173396 0.002835854505380042 0
          -0.0018464442966390493 0.002522062103815337 0 -0.0010934000537887734 0.00308877605641511 0
          -0.0010154225706620057 0.0013827110155906208 0 -0.0020408375560716507 0.003214576526875179 0
          -0.0018709975670745393 0.0035016386616751882 0 -0.0023370476054269673 0.0033448175078956144 0
          0 0 0 -0.0016022509975317512 0.0036716001288794597 0
          -0.0018602709000403728 0.0025483206043943607 0 -0.0012521445800075526 0.0037222158414510487 0
          -0.0023933848465080843 0.0038454216882162218 0 -0.0008265412304836461 0.0011873492366852867 0
          -0.0024322086957542233 0.003378618094446617 0 -0.002201020929213815 0.004205953209774682 0
          -0.0016295228379437088 0.002273456417435815 0 -0.0027880434209603955 0.004082956343667732 0
          -0.0018828961926971033 0.004418124310256677 0 -0.002436202538265153 0.0033302980789113867 0
          -0.002810462472755404 0.004595381674872945 0 0 0 0
          -0.002972987359950441 0.004185370484800499 0 -0.001150074689009628 0.0017017264833132373 0
          -0.002535280334551082 0.00495652326685736 0 -0.0021922843060844244 0.0030264526910896983 0
          -0.003249970446899564 0.004864941990683214 0 -0.002178772198732748 0.005151884162113207 0
          -0.0030110054746699255 0.004108500189748954 0 -0.0031975568719504466 0.005382933750373464 0
          -0.0034744299292230885 0.004970352113708776 0 -0.0028532507137115637 0.00573784034846736 0
          -0.0014760327662367567 0.0021563691428930776 0 -0.0036642206123764787 0.005678984641082296 0
          0 0 0 -0.002791750157705053 0.003747613804038097 0
          -0.003531656002740302 0.0062069973215068686 0 -0.0036187867991694933 0.004833676146893895 0
          -0.003961966685069207 0.005712407346942561 0 -0.003953807494364803 0.006476575067413171 0
          0 0 0 -0.0034487933628235545 0.004260981957520005 0
          -0.004357975637476752 0.00546053414018266 0 -0.001949506230270015 0.002806782599393709 0
          -0.004859922306231557 0.006455376018310366 0 0 0 0
          -0.0047782879561193425 0.005179905718582567 0 -0.0037106900620671457 0.003717902739380663 0
          -0.0015241712737426583 0.0020817676456085232 0 0 0 0
          -0.0002602048905686605 0.0017716662361396684 0 -0.0007823311718500037 0.0033111333943600663 0
          0 0 0 -0.003150885932302838 0.006544135124569417 0
          -0.0024843181770219935 0.005886444242041544 0 -0.0018309642009954885 0.005117331268291947 0
          -0.001552472148368178 0.004460133875830108 0 -0.003810224013594432 0.007061126559844033 0
          -0.0042621131850517635 0.0073310608520029685 0
          <InformationKey name="L2_NORM_RANGE" location="vtkDataArray" length="2">
            <Value index="0">
              0
            </Value>
            <Value index="1">
              0.0084799800718
            </Value>
          </InformationKey>
        </DataArray>
      </PointData>
      <CellData>
        <DataArray type="UInt8" Name="vtkGhostType" format="ascii" RangeMin="0" RangeMax="0">
          0 0 0 0 0 0
          0 0 0 0 0 0
          0 0 0 0 0 0
          0 0 0 0 0 0
          0 0 0 0 0 0
          0 0 0 0 0 0
          0 0 0 0 0 0
          0 0 0 0 0 0
          0 0 0 0 0 0
          0 0 0 0 0 0
          0 0 0 0 0 0
          0 0 0 0 0 0
          0 0 0 0 0 0
          0 0 0 0 0 0
          0 0 0 0 0 0
          0 0 0 0 0 0
          0 0 0 0 0 0
          0 0 0 0 0 0
          0 0 0 0 0 0
          0 0 0 0 0 0
          0 0 0 0 0 0
          0 0 0 0 0 0
          0 0 0 0 0 0
          0 0 0 0 0 0
          0 0 0 0 0 0
          0 0 0 0
        </DataArray>
        <DataArray type="Float64" Name="PStrain" NumberOfComponents="6" format="ascii" RangeMin="6.84316894869262e-8" RangeMax="0.46542252482610086">
          0.09999999999999999 0.09999999999999999 0 0.09999999999999999 0 0
          0.000001799944549353497 0.000001799944549353497 0 0.000001799944549353497 0 0
          0.00000840711844334998 0.00000840711844334998 0 0.00000840711844334998 0 0
          0.0000016156125342832838 0.0000016156125342832838 0 0.0000016156125342832838 0 0
          0.0000016546919191111206 0.0000016546919191111206 0 0.0000016546919191111206 0 0
          2.387015604406013e-7 2.387015604406013e-7 0 2.387015604406013e-7 0 0
          0.0000010959328600887605 0.0000010959328600887605 0 0.0000010959328600887605 0 0
          1.5494506448139416e-7 1.5494506448139416e-7 0 1.5494506448139416e-7 0 0
          5.173052611797107e-7 5.173052611797107e-7 0 5.173052611797107e-7 0 0
          4.4923338669858614e-7 4.4923338669858614e-7 0 4.4923338669858614e-7 0 0
          1.1345806859287988e-7 1.1345806859287988e-7 0 1.1345806859287988e-7 0 0
          2.022251694692473e-7 2.022251694692473e-7 0 2.022251694692473e-7 0 0
          0.00001343055501115086 0.00001343055501115086 0 0.00001343055501115086 0 0
          8.554708483212771e-8 8.554708483212771e-8 0 8.554708483212771e-8 0 0
          8.554708483212771e-8 8.554708483212771e-8 0 8.554708483212771e-8 0 0
          0.00001343055501115086 0.00001343055501115086 0 0.00001343055501115086 0 0
          3.950905434637773e-8 3.950905434637773e-8 0 3.950905434637773e-8 0 0
          0.000009882422550726918 0.000009882422550726918 0 0.000009882422550726918 0 0
          0.009020125211821509 0.009020125211821509 0 0.009020125211821509 0 0
          0.005747475936832962 0.005747475936832962 0 0.005747475936832962 0 0
          0.00825142004063319 0.00825142004063319 0 0.00825142004063319 0 0
          0.004698050126250004 0.004698050126250004 0 0.004698050126250004 0 0
          0.005440915762435208 0.005440915762435208 0 0.005440915762435208 0 0
          0.005303029679830245 0.005303029679830245 0 0.005303029679830245 0 0
          0.005148564032400804 0.005148564032400804 0 0.005148564032400804 0 0
          0.002818773192332575 0.002818773192332575 0 0.002818773192332575 0 0
          0.002154412485133351 0.002154412485133351 0 0.002154412485133351 0 0
          0.004013161310064431 0.004013161310064431 0 0.004013161310064431 0 0
          0.005199166285463614 0.005199166285463614 0 0.005199166285463614 0 0
          0.002065072264694829 0.002065072264694829 0 0.002065072264694829 0 0
          0.000999531401834703 0.000999531401834703 0 0.000999531401834703 0 0
          0.0024357488192081472 0.0024357488192081472 0 0.0024357488192081472 0 0
          0.003647966958003631 0.003647966958003631 0 0.003647966958003631 0 0
          0.0017180239638733721 0.0017180239638733721 0 0.0017180239638733721 0 0
          0.004354370524771628 0.004354370524771628 0 0.004354370524771628 0 0
          0.0021740720305302923 0.0021740720305302923 0 0.0021740720305302923 0 0
          0.0024179589937126764 0.0024179589937126764 0 0.0024179589937126764 0 0
          0.0017369077228687273 0.0017369077228687273 0 0.0017369077228687273 0 0
          0.0006148395840034281 0.0006148395840034281 0 0.0006148395840034281 0 0
          0.0008053166925397683 0.0008053166925397683 0 0.0008053166925397683 0 0
          0.0008559287181028798 0.0008559287181028798 0 0.0008559287181028798 0 0
          0.0007030045676579687 0.0007030045676579687 0 0.0007030045676579687 0 0
          0.0009469820091718476 0.0009469820091718476 0 0.0009469820091718476 0 0
          0.0011432473505600944 0.0011432473505600944 0 0.0011432473505600944 0 0
          0.0022083201668115712 0.0022083201668115712 0 0.0022083201668115712 0 0
          0.0010756883354636245 0.0010756883354636245 0 0.0010756883354636245 0 0
          0.000784092364356015 0.000784092364356015 0 0.000784092364356015 0 0
          0.0003076455482566029 0.0003076455482566029 0 0.0003076455482566029 0 0
          0.0002647160429407236 0.0002647160429407236 0 0.0002647160429407236 0 0
          0.00029393228098757826 0.00029393228098757826 0 0.00029393228098757826 0 0
          0.0003219712733571916 0.0003219712733571916 0 0.0003219712733571916 0 0
          0.0001884757481869658 0.0001884757481869658 0 0.0001884757481869658 0 0
          0.00023857321857075818 0.00023857321857075818 0 0.00023857321857075818 0 0
          0.00011559014750565303 0.00011559014750565303 0 0.00011559014750565303 0 0
          0.0000757655767923804 0.0000757655767923804 0 0.0000757655767923804 0 0
          0.0000730992118761211 0.0000730992118761211 0 0.0000730992118761211 0 0
          0.00010349407803396173 0.00010349407803396173 0 0.00010349407803396173 0 0
          0.00030927349508011947 0.00030927349508011947 0 0.00030927349508011947 0 0
          0.00012922404669283617 0.00012922404669283617 0 0.00012922404669283617 0 0
          0.00039673937500106537 0.00039673937500106537 0 0.00039673937500106537 0 0
          0.000052600523285701925 0.000052600523285701925 0 0.000052600523285701925 0 0
          0.00005477102555071319 0.00005477102555071319 0 0.00005477102555071319 0 0
          0.00008515797521580927 0.00008515797521580927 0 0.00008515797521580927 0 0
          0.08932534291585975 0.08932534291585975 0 0.08932534291585975 0 0
          0.09126151537243275 0.09126151537243275 0 0.09126151537243275 0 0
          0.045277788758820464 0.045277788758820464 0 0.045277788758820464 0 0
          0.11148203344831364 0.11148203344831364 0 0.11148203344831364 0 0
          0.13184904443597717 0.13184904443597717 0 0.13184904443597717 0 0
          0.09763354009299871 0.09763354009299871 0 0.09763354009299871 0 0
          0.07254849035717213 0.07254849035717213 0 0.07254849035717213 0 0
          0.1495723353834006 0.1495723353834006 0 0.1495723353834006 0 0
          0.04989860502907231 0.04989860502907231 0 0.04989860502907231 0 0
          0.05417205399929356 0.05417205399929356 0 0.05417205399929356 0 0
          0.02808627123715439 0.02808627123715439 0 0.02808627123715439 0 0
          0.04158150816756873 0.04158150816756873 0 0.04158150816756873 0 0
          0.024440258800831834 0.024440258800831834 0 0.024440258800831834 0 0
          0.054285748651247245 0.054285748651247245 0 0.054285748651247245 0 0
          0.0663171340749433 0.0663171340749433 0 0.0663171340749433 0 0
          0.07498068152782308 0.07498068152782308 0 0.07498068152782308 0 0
          0.0428576280867299 0.0428576280867299 0 0.0428576280867299 0 0
          0.04963328364931201 0.04963328364931201 0 0.04963328364931201 0 0
          0.038698027547962276 0.038698027547962276 0 0.038698027547962276 0 0
          0.07681971437677342 0.07681971437677342 0 0.07681971437677342 0 0
          0.02856967573656089 0.02856967573656089 0 0.02856967573656089 0 0
          0.028083863327499993 0.028083863327499993 0 0.028083863327499993 0 0
          0.01700997398861374 0.01700997398861374 0 0.01700997398861374 0 0
          0.03151414988163629 0.03151414988163629 0 0.03151414988163629 0 0
          0.017518909968405043 0.017518909968405043 0 0.017518909968405043 0 0
          0.028994746542893753 0.028994746542893753 0 0.028994746542893753 0 0
          0.044342838201128366 0.044342838201128366 0 0.044342838201128366 0 0
          0.047166128668335194 0.047166128668335194 0 0.047166128668335194 0 0
          0.028488579513872153 0.028488579513872153 0 0.028488579513872153 0 0
          0.03916488923509349 0.03916488923509349 0 0.03916488923509349 0 0
          0.025537767865999192 0.025537767865999192 0 0.025537767865999192 0 0
          0.027027379990947592 0.027027379990947592 0 0.027027379990947592 0 0
          0.021103609448930867 0.021103609448930867 0 0.021103609448930867 0 0
          0.017416563540995876 0.017416563540995876 0 0.017416563540995876 0 0
          0.009730181357732416 0.009730181357732416 0 0.009730181357732416 0 0
          0.015322861444078292 0.015322861444078292 0 0.015322861444078292 0 0
          0.013068966979854203 0.013068966979854203 0 0.013068966979854203 0 0
          0.052811998612723635 0.052811998612723635 0 0.052811998612723635 0 0
          0.01620501472982186 0.01620501472982186 0 0.01620501472982186 0 0
          0.018225272096107838 0.018225272096107838 0 0.018225272096107838 0 0
          0.012547668152237696 0.012547668152237696 0 0.012547668152237696 0 0
          0.04495702425186082 0.04495702425186082 0 0.04495702425186082 0 0
          0.058287074253656104 0.058287074253656104 0 0.058287074253656104 0 0
          0.0169094951966903 0.0169094951966903 0 0.0169094951966903 0 0
          0.0324975480563441 0.0324975480563441 0 0.0324975480563441 0 0
          0.027695338974067278 0.027695338974067278 0 0.027695338974067278 0 0
          0.017157905997077366 0.017157905997077366 0 0.017157905997077366 0 0
          0.020581277373547334 0.020581277373547334 0 0.020581277373547334 0 0
          0.01066602225801878 0.01066602225801878 0 0.01066602225801878 0 0
          0.0326617377949061 0.0326617377949061 0 0.0326617377949061 0 0
          0.01977196425577966 0.01977196425577966 0 0.01977196425577966 0 0
          0.01632636332672871 0.01632636332672871 0 0.01632636332672871 0 0
          0.012737726062017538 0.012737726062017538 0 0.012737726062017538 0 0
          0.007835180561758748 0.007835180561758748 0 0.007835180561758748 0 0
          0.03825450066226699 0.03825450066226699 0 0.03825450066226699 0 0
          0.018793185022646045 0.018793185022646045 0 0.018793185022646045 0 0
          0.010708843186829907 0.010708843186829907 0 0.010708843186829907 0 0
          0.015018568211347092 0.015018568211347092 0 0.015018568211347092 0 0
          0.03821831322781577 0.03821831322781577 0 0.03821831322781577 0 0
          0.023651608987576 0.023651608987576 0 0.023651608987576 0 0
          0.02372382804890463 0.02372382804890463 0 0.02372382804890463 0 0
          0.0110185128568479 0.0110185128568479 0 0.0110185128568479 0 0
          0.022950708640644135 0.022950708640644135 0 0.022950708640644135 0 0
          0.014687321260103813 0.014687321260103813 0 0.014687321260103813 0 0
          0.024937406598857053 0.024937406598857053 0 0.024937406598857053 0 0
          0.017647440581625793 0.017647440581625793 0 0.017647440581625793 0 0
          0.014095410052320772 0.014095410052320772 0 0.014095410052320772 0 0
          0.011276400501946414 0.011276400501946414 0 0.011276400501946414 0 0
          0.017835015448543188 0.017835015448543188 0 0.017835015448543188 0 0
          0.010532968856217715 0.010532968856217715 0 0.010532968856217715 0 0
          0.00688873145763008 0.00688873145763008 0 0.00688873145763008 0 0
          0.007238544337835478 0.007238544337835478 0 0.007238544337835478 0 0
          0.011315105552724681 0.011315105552724681 0 0.011315105552724681 0 0
          0.012037004627244526 0.012037004627244526 0 0.012037004627244526 0 0
          0.027999073894205223 0.027999073894205223 0 0.027999073894205223 0 0
          0.2687118199952646 0.2687118199952646 0 0.2687118199952646 0 0
          0.24746920564751873 0.24746920564751873 0 0.24746920564751873 0 0
          0.1444526847424597 0.1444526847424597 0 0.1444526847424597 0 0
          0.08450949830682215 0.08450949830682215 0 0.08450949830682215 0 0
          0.01432857423552807 0.01432857423552807 0 0.01432857423552807 0 0
          0.06158606526505041 0.06158606526505041 0 0.06158606526505041 0 0
          0.049518904462240984 0.049518904462240984 0 0.049518904462240984 0 0
          0.24999365462497858 0.24999365462497858 0 0.24999365462497858 0 0
          0.0938312543682862 0.0938312543682862 0 0.0938312543682862 0 0
          0.10676834518516837 0.10676834518516837 0 0.10676834518516837 0 0
          0.07492017843564558 0.07492017843564558 0 0.07492017843564558 0 0
          0.027099578144536635 0.027099578144536635 0 0.027099578144536635 0 0
          0.03393852845081246 0.03393852845081246 0 0.03393852845081246 0 0
          0.043568913570280636 0.043568913570280636 0 0.043568913570280636 0 0
          0.06313940401790769 0.06313940401790769 0 0.06313940401790769 0 0
          0.07863972665193361 0.07863972665193361 0 0.07863972665193361 0 0
          <InformationKey name="L2_NORM_RANGE" location="vtkDataArray" length="2">
            <Value index="0">
              6.8431689487e-08
            </Value>
            <Value index="1">
              0.46542252483
            </Value>
          </InformationKey>
        </DataArray>
        <DataArray type="Float64" Name="Stress" NumberOfComponents="6" format="ascii" RangeMin="0" RangeMax="0.022822104719637033">
          0 0 0 0 0 0
          -6.179891078051736e-11 -8.889535627659036e-10 0 -3.157305561151568e-8 0 0
          -1.2674626743160633e-7 -1.3941981474851495e-8 0 -1.7259841317819605e-7 0 0
          -1.4030501991833612e-8 -5.416906244512403e-9 0 -2.164194232496854e-8 0 0
          -2.4287271256601903e-8 8.540382545353807e-9 0 1.0601720374702883e-8 0 0
          -7.764018691017983e-11 -1.1168242270925866e-9 0 -3.1177360173522615e-9 0 0
          3.3906633073137107e-9 1.7086236675140814e-9 0 1.2269002319965421e-8 0 0
          -9.379874997218188e-10 1.4949370286816365e-9 0 1.661073132865169e-10 0 0
          -3.351342251892372e-9 -1.987816644781604e-9 0 6.421081361789374e-9 0 0
          -9.535456951443001e-11 -1.3716388076306471e-9 0 6.559855707516684e-9 0 0
          -1.525674858476305e-9 1.291827707988645e-9 0 1.0318167114451886e-10 0 0
          -3.6507337146345656e-9 -7.782718180262432e-10 0 -1.751466988690889e-9 0 0
          8.116734236829568e-10 1.1675610017593299e-8 0 3.560945907635223e-7 0 0
          -5.302232331658689e-11 -7.627057277078268e-10 0 9.00415625758519e-10 0 0
          -5.302232331658689e-11 -7.627057277078268e-10 0 9.00415625758519e-10 0 0
          -8.116734236829568e-10 -1.1675610017593299e-8 0 -3.560945907635223e-7 0 0
          -5.33681367262828e-10 -3.710084371345862e-11 0 9.784785670784615e-11 0 0
          -2.408079483292496e-7 -1.1837415450941364e-8 0 1.619031743950374e-7 0 0
          -0.0006420256755062127 0.0006518387287142434 0 -0.0009794364824419984 0 0
          -0.00036221903752340376 0.0001427607698496981 0 -0.0007105539865561404 0 0
          -0.00008694472728872948 -0.001250666461768647 0 0.000811931176090876 0 0
          0.000009248110915919732 0.00013303051855976847 0 -0.0005910946401963054 0 0
          -0.00013268157496467851 -0.0004079549141319125 0 0.0005602778532126115 0 0
          -0.00014188075315388116 -0.0006048433389016412 0 0.0005646914083155466 0 0
          -0.0003438667803094605 -0.000013572071885940683 0 0.0004454140902871538 0 0
          -0.000020625182589400088 -0.0002966853187859859 0 0.0002464360369086385 0 0
          -0.00007824736379449598 -0.000016859081612720084 0 0.00016132663878152019 0 0
          -0.00020037344352142353 0.00016863181423563321 0 0.0002546543943377132 0 0
          -0.000576447093949439 0.0002906089329273143 0 0.00008728919745267034 0 0
          -0.000002012863496235808 -0.00002895426721508431 0 -0.0001919365293190482 0 0
          -0.00003399850962887377 -0.000003938632476151386 0 0.00007177004819827636 0 0
          -0.00016765304100721827 0.00010702676995950105 0 0.00006886201918860152 0 0
          -0.00021565934120880637 0.000005363913757814786 0 -0.00033413912772317384 0 0
          -0.00007176354456723779 -0.000037093035319940825 0 -0.00013496925486091896 0 0
          -0.00024109694416826565 0.00044798665029297327 0 -0.00014355116369875427 0 0
          -0.00017231622115700766 0.00016998580669505125 0 -0.0001272574009106321 0 0
          -0.00021313011248370062 0.0001490709251247348 0 -0.00010231584740731787 0 0
          -0.00007680964925407012 0.00010613566960505615 0 0.000016929620259626867 0 0
          -0.000012861507144465973 0.000027391255535747248 0 0.000010670459653052438 0 0
          -0.00002917179902881495 0.000043625389526246304 0 -0.000041349391539968735 0 0
          -0.0000014462801823948553 -0.000020804184162141387 0 -0.00006037275835173336 0 0
          -0.00002380885936767088 -0.00001843618651882633 0 -0.00004333796987786938 0 0
          -0.000004416117168960079 -0.0000635241469688873 0 0.00006590319193620485 0 0
          -0.00007869124164548641 0.000003313387897461091 0 0.00007676744113095077 0 0
          -0.00008153216606575374 -0.00019052212054927061 0 0.0002030484750174725 0 0
          -0.00007445214712884482 0.00004196741984320457 0 -0.00003483168274061645 0 0
          -0.000025215469252176963 -0.00004770432270079242 0 0.0000543597117984461 0 0
          -0.00000806102612003943 0.000011098456111143118 0 -0.000011947691774344001 0 0
          -4.354805885517939e-7 -0.000006264220773783498 0 -0.00001381567039982782 0 0
          -0.0000010087746739186558 -0.000014510835694060663 0 0.000015887271299218922 0 0
          -0.000008590980847039788 0.00000466504773001261 0 0.000014817197928924594 0 0
          -0.000004012548917015286 -0.00000367628945822086 0 -0.000009174107923293427 0 0
          -0.000007648502053308939 -0.000008939679190478087 0 0.000013029417686566757 0 0
          -0.0000018347454108951099 0.000003317886056327092 0 -0.000004484038831374947 0 0
          -7.740718377974272e-8 -0.0000011134725666778373 0 -0.0000031012787438328777 0 0
          -1.367029706831983e-7 -0.00000196641965521216 0 0.000002870917278188924 0 0
          -0.0000021114731110534385 0.000001696685156100617 0 0.000003239702779496476 0 0
          -0.000008421606171705216 0.000009989082850765272 0 -0.000010890045670862563 0 0
          -0.000005007967187448455 0.0000024048012849102236 0 -0.0000033241618588878953 0 0
          -0.00002353122610491872 0.0000049801072173772916 0 0.000014986007727071653 0 0
          -0.0000014549052706377304 -5.5636827205623e-8 0 0.000002081464055271138 0 0
          -0.0000016479452456448903 -1.61947126249423e-7 0 -0.0000017935539402623577 0 0
          -0.0000020815955742755347 0.0000013930718259036118 0 0.0000025998186867617324 0 0
          -0.0079011611806472 0.004149834294648087 0 0.002104212131024413 0 0
          -0.007964729955541842 0.0049857005005251665 0 -0.0013596652399089104 0 0
          -0.004385006617230916 0.0031393301194338045 0 -0.00020808662372755855 0 0
          -0.008260698933260974 0.00452775436699652 0 0.0026905404032111753 0 0
          -0.003576027959111474 -0.00007418022527450589 0 0.007575750619756875 0 0
          -0.006717668542716659 0.0019924633901401726 0 0.006496180652230366 0 0
          -0.003426112643690196 0.0010985384140684983 0 0.004709022693247589 0 0
          -0.0038810362130434276 -0.005620263937296868 0 0.012013635073918937 0 0
          -0.004382275019942982 0.002742207703063223 0 0.0016610651362322726 0 0
          -0.004697981588826855 0.003380468229254051 0 -0.00017748008582789648 0 0
          -0.002798059005733294 0.0021653572594845507 0 0.00017821541127560403 0 0
          -0.003802614509804069 0.0027592402726430688 0 -0.0018674526646990115 0 0
          -0.0023189544385576787 0.002105683999657642 0 -0.0007119744348272766 0 0
          -0.00414576438530018 0.002700392222736182 0 0.001853269793017458 0 0
          -0.0004294062791901994 -0.002685173884008009 0 0.0051045670366622765 0 0
          -0.003250670681989686 -0.0013002851734730426 0 0.006659273003090127 0 0
          -0.0010934261653362165 -0.0009712790405675905 0 0.003778096907238521 0 0
          -0.0035784753734718353 0.0014606865123314686 0 0.003474572282024053 0 0
          -0.0021301121057107656 0.0008958170342819635 0 0.0027174535201088335 0 0
          -0.0005594357385303432 -0.003558450331697222 0 0.006480382899284329 0 0
          -0.0024970229704944927 0.0017685933222843426 0 0.0012005606485333263 0 0
          -0.0026284166242556478 0.002386555783500495 0 -0.0008110073233592374 0 0
          -0.001861668739280477 0.0016604529974142016 0 -0.0003662939376010246 0 0
          -0.002707032157452079 0.0023550175256016573 0 0.00011528746634526408 0 0
          -0.0018748103246852316 0.001477800737127716 0 0.00013025721275997435 0 0
          -0.002253015631079069 0.0016503291097085065 0 0.0012511084658094376 0 0
          0.00020668421754377052 -0.0026894649475844032 0 0.004059867502614384 0 0
          -0.0011335430248373185 -0.002175588507900356 0 0.0046166333391863875 0 0
          -0.00023933510058372665 -0.001634048525655457 0 0.002904809965493121 0 0
          -0.0019633483928980996 -0.0002740693494667477 0 0.0036623113516495156 0 0
          -0.0009810035725226042 -0.0004071563313278308 0 0.002475742203972066 0 0
          -0.002009660545330549 0.0009372308567964188 0 0.0019966168461372173 0 0
          -0.001178791424335135 0.0006243523965947857 0 0.0015382076443932937 0 0
          -0.001753803306504805 0.001723091951498917 0 -0.00043965554214120265 0 0
          -0.0008524434990092151 0.0010111646080179163 0 -0.00018003413543196857 0 0
          -0.0015045343699665618 0.001328494162986861 0 -0.0010269898361911416 0 0
          -0.0009921467075018537 0.0011673225704841215 0 -0.0008120064074313949 0 0
          0.0001644437431267033 -0.003990471367179186 0 0.0046350683090588905 0 0
          -0.0012761277825999481 0.0010901166461916008 0 0.0008349281252586728 0 0
          -0.0014032960700538582 0.001472207268241373 0 0.000008735666781963358 0 0
          -0.00140825504320277 0.0010966620856373158 0 -0.000013152682777549364 0 0
          0.0012076762238108626 -0.00374549343876783 0 0.003738987460281726 0 0
          0.0014436059628937866 -0.00477485864857475 0 0.004028089800874923 0 0
          -0.0014120742566566757 0.0010900265614096172 0 0.0009249080645823725 0 0
          0.0003686898168313801 -0.0030245717113551087 0 0.0031894016973298936 0 0
          -0.0010360765255698792 -0.0012580238412742211 0 0.0028582821300906338 0 0
          -0.00033099552929459237 -0.0009392172256189571 0 0.0018069106036804187 0 0
          -0.0010236786289562387 -0.00014868603651789389 0 0.0020517380742424577 0 0
          -0.0003446799396769322 -0.00008957759430084947 0 0.001025989291207018 0 0
          -0.0003283741139732505 -0.0027594500095818597 0 0.003298707263514818 0 0
          -0.0000799586841935604 -0.001983945711214389 0 0.002189773124274226 0 0
          -0.0013004551061378963 0.0005564152117585068 0 0.0011453613639852897 0 0
          -0.000861624312462794 0.0003776329795483616 0 0.0009140029544283015 0 0
          -0.0005300154283075206 0.0005049036592613201 0 0.00044056499358639345 0 0
          0.00030210008365278844 -0.00430212322779174 0 0.003212439162729966 0 0
          -0.00035015669980847876 -0.0017962160628415946 0 0.002075228485927067 0 0
          -0.00016561791994294963 -0.0010866543912060103 0 0.0012188742640238549 0 0
          -0.0005366037923153922 -0.0007581710121125399 0 0.0015515397847089148 0 0
          0.0010841503982886769 -0.0044797853193156364 0 0.0031330786557279815 0 0
          0.000057857316814466085 -0.0031627096036868627 0 0.002374933325673617 0 0
          -0.0002874607318880189 -0.004135012066389195 0 0.0023304153999605583 0 0
          -0.0009331143013780723 0.0004363709587164769 0 0.0008246832477985311 0 0
          -0.00019168767567034854 -0.0029815364304894044 0 0.002327669004644948 0 0
          -0.00013858865074459472 -0.001991092818197076 0 0.001552474065072174 0 0
          -0.00002314248195323646 -0.004378112322199395 0 0.0023941172157666067 0 0
          -0.00020473818978486801 -0.0031448875656447527 0 0.0018603081892767034 0 0
          -0.00028471556085384313 -0.001862227794217513 0 0.0014855236920506198 0 0
          -0.0002776413675674192 -0.0017202034265773915 0 0.001292670092430239 0 0
          -0.0002237705616299006 -0.003218853463445493 0 0.0018266861783840034 0 0
          -0.0007802114508459924 0.000970777802091485 0 -0.00010728935302714029 0 0
          -0.0004727364834321816 0.0007507373343076163 0 -0.0003586830140671028 0 0
          -0.0008883228025774114 0.0007108238098368935 0 -0.00012069074191613669 0 0
          -0.00045876443706487037 -0.0008611068110055096 0 0.001310270911932834 0 0
          -0.00014627337867849707 -0.002104086293298381 0 0.0012369355748037955 0 0
          0.0008402710453890433 -0.004170994796662252 0 0.0018792351839167745 0 0
          -0.01598918838656239 0.007722504110722745 0 0.003932764575109655 0 0
          -0.015549628367429479 -0.000535404666263975 0 0.016696432652283967 0 0
          0.0015231025543875137 -0.0056779001606728245 0 0.007443350547338138 0 0
          0.0022690801235496 -0.0045147922324401115 0 0.004850676645695868 0 0
          -0.000053642262145989404 -0.0007716233093307707 0 0.0006169384800914953 0 0
          0.0014146537115100805 -0.0041122592571445574 0 0.004725580793037377 0 0
          0.0021248501226643055 -0.002218804996426165 0 0.0024115837174133077 0 0
          0.001798867617734483 -0.011756790795499615 0 0.015427162595751165 0 0
          0.0025365495562904745 -0.0036270536847131498 0 0.00545082043882561 0 0
          0.0027381792575717915 -0.004727084509096185 0 0.005953409374012878 0 0
          0.0016489922766269919 -0.004474197447540871 0 0.005067289991076129 0 0
          -0.00021832829320457878 -0.0031405685253274025 0 0.0020365625380086793 0 0
          0.0020778080211559416 -0.003822158230826196 0 0.0015925327025255748 0 0
          0.0023108729825609994 -0.0031665135447501076 0 0.0022479100981112553 0 0
          0.0021476492392773485 -0.004295523889828913 0 0.0038408173299591605 0 0
          0.0025510608535171645 -0.003447136477296152 0 0.0044637972470454685 0 0
          <InformationKey name="L2_NORM_RANGE" location="vtkDataArray" length="2">
            <Value index="0">
              0
            </Value>
            <Value index="1">
              0.02282210472
            </Value>
          </InformationKey>
        </DataArray>
        <DataArray type="Float64" Name="Strain" NumberOfComponents="6" format="ascii" RangeMin="0" RangeMax="0.28701059908328813">
          0 0 0 0 0 0
          0 -0.0004894149126320834 0 -0.03736260012936701 0 0
          -0.014897569438096867 -0.0006077071798849898 0 -0.04372896879552782 0 0
          -0.008415531259896601 -0.0027375117618821123 0 -0.02853242109354682 0 0
          -0.014973098756990457 0.0061555783673069 0 0.013647050630577636 0 0
          0 -0.00463646320849948 0 -0.02782042021301663 0 0
          0.0029728630284822154 0.0013382991955832536 0 0.023845415985984594 0 0
          -0.0066959959119612025 0.010026476865226322 0 0.00228344528742809 0 0
          -0.006185083477300251 -0.0033779309494845868 0 0.026438747731699637 0 0
          0 -0.00302569389061405 0 0.031102970239354454 0 0
          -0.014178415649371529 0.012268713854060528 0 0.0019370765099699342 0 0
          -0.0177101273174208 -0.002582574560675177 0 -0.018447875186371972 0 0
          0 0.0008614753793054957 0 0.05647432125452487 0 0
          0 -0.008835050629250909 0 0.0224190606451311 0 0
          0 -0.008835050629250909 0 0.0224190606451311 0 0
          0 -0.0008614753793054957 0 -0.05647432125452487 0 0
          -0.01338574831337529 0 0 0.0052751435901381 0 0
          -0.024181428029040226 0.0004940618383163576 0 0.034895670539412775 0 0
          -0.07587884169561637 0.07688684150009636 0 -0.2312827880556852 0 0
          -0.06447548114258117 0.029096636559698394 0 -0.26332950463791815 0 0
          0 -0.15020004327958164 0 0.20958979140042128 0 0
          0 0.02806020808592874 0 -0.26799024058585186 0 0
          -0.01909243239839778 -0.07297419036222463 0 0.21933657484319008 0 0
          -0.018746081549278093 -0.11172220719622103 0 0.22681236431447183 0 0
          -0.06632420502831302 0.001998508306383401 0 0.18427118830437061 0 0
          0 -0.10430212897195583 0 0.18621886998330323 0 0
          -0.03562442164044233 -0.005278087790847777 0 0.15949858394149102 0 0
          -0.05262694089403957 0.045298502203824836 0 0.1351587484358113 0 0
          -0.11427390003288132 0.06333431980911987 0 0.035760731695391165 0 0
          0 -0.013894232880423574 0 -0.19797118698409705 0 0
          -0.033597958034022664 -0.001569180239862279 0 0.15294187094244938 0 0
          -0.07158112268575006 0.04851910947803182 0 0.06021807327383005 0 0
          -0.05896969459937465 0.0055565933986585925 0 -0.19509944860900025 0 0
          -0.040099893639490625 -0.018607706612527374 0 -0.1673344021381454 0 0
          -0.0622570320792587 0.10628030849069854 0 -0.07022001847084036 0 0
          -0.08433734026115078 0.08334415995736892 0 -0.12467768322907441 0 0
          -0.09204005242806118 0.06749288673923612 0 -0.09013087299837139 0 0
          -0.048265298789691435 0.06390920652206537 0 0.02076108631346709 0 0
          -0.02391408641178302 0.04581010404337814 0 0.036965868256255544 0 0
          -0.039820999694836184 0.05645045044316237 0 -0.10936592373662254 0 0
          0 -0.024086313851140177 0 -0.15023911754499106 0 0
          -0.03190878545755127 -0.023769582887244078 0 -0.13130764732779535 0 0
          0 -0.06647439035507487 0 0.1482328042819691 0 0
          -0.06874115246209359 0.0076508290460659545 0 0.1430264846262857 0 0
          -0.030792092510426625 -0.08335435375741626 0 0.19584716848900635 0 0
          -0.07162184334058586 0.04364094676096705 0 -0.06897117110183806 0 0
          -0.02781126707378944 -0.05835694002195854 0 0.14766906476099517 0 0
          -0.02858893606235493 0.03773690122617952 0 -0.08272046718558859 0 0
          0 -0.023450064560921986 0 -0.11116582744561038 0 0
          0 -0.04892179565353331 0 0.11512817766608766 0 0
          -0.027572714141557673 0.01627489464464235 0 0.0980231287702377 0 0
          -0.019849263345989868 -0.01794919754409786 0 -0.10367832500779198 0 0
          -0.029329938549232146 -0.03509380282252776 0 0.11632764079156718 0 0
          -0.017792816413550624 0.029681407220633012 0 -0.08262817304875866 0 0
          0 -0.014563469051521016 0 -0.08718634509264843 0 0
          0 -0.026657582469229023 0 0.08365416870575015 0 0
          -0.02145055262352117 0.017737086240107225 0 0.06667595916032089 0 0
          -0.02935110602873483 0.03404709692380606 0 -0.0750009219927761 0 0
          -0.03987865282750875 0.021213679637727738 0 -0.05479216090687353 0 0
          -0.05992990888964454 0.016605398421770404 0 0.08045633599784974 0 0
          -0.027469438443756634 0.0008614753793054957 0 0.0842865842540517 0 0
          -0.029756095869674704 -0.0008614753793054957 0 -0.06974983313433825 0 0
          -0.02547308369680082 0.01798169281488642 0 0.06502754191570367 0 0
          -0.09129605090223558 0.052384451878244025 0 0.05017581453119979 0 0
          -0.09068679228975984 0.06044162563565146 0 -0.031733934607454425 0 0
          -0.10123727808809924 0.0757461578131704 0 -0.009789005176480847 0 0
          -0.07659737638605524 0.045572109974172714 0 0.05140605065745229 0 0
          -0.026968599811250098 0.001317292229077227 0 0.12238502667281431 0 0
          -0.06992693970538219 0.025084369929161406 0 0.14172245292007923 0 0
          -0.04807382789516178 0.018347311301384284 0 0.13825536943961758 0 0
          -0.02323675735272139 -0.03562058168482096 0 0.17108138775699822 0 0
          -0.09125684442631665 0.06080299964308922 0 0.07090516334301056 0 0
          -0.0906767450584065 0.06814221086245187 0 -0.0069783690095699385 0 0
          -0.10453983150450295 0.08366736331402033 0 0.013515458239785061 0 0
          -0.09565686880198675 0.07240763032930608 0 -0.09565968987414603 0 0
          -0.10044586069798564 0.09236060567785048 0 -0.062049488041038436 0 0
          -0.07949016619653926 0.054820531706882 0 0.07271640821400904 0 0
          -0.0036447726354853494 -0.03987059168876478 0 0.1639505075084164 0 0
          -0.04196980199568978 -0.014267192146785512 0 0.18917208016198975 0 0
          -0.023836355248989853 -0.020801033564473548 0 0.18776929036139928 0 0
          -0.07383094708636828 0.034296241239502416 0 0.14911040367593775 0 0
          -0.05641438219445538 0.02686155558036151 0 0.14957289465614132 0 0
          -0.004045034544117811 -0.045622259448359626 0 0.17968324521197454 0 0
          -0.09131723948272352 0.06769336300710066 0 0.089507287550468 0 0
          -0.09907899264722309 0.09109945794473612 0 -0.06151025514583118 0 0
          -0.11574080295013209 0.1047803837424957 0 -0.04586756497173028 0 0
          -0.09070912734543968 0.08035951746016506 0 0.0077921284323936284 0 0
          -0.11240368325669192 0.09140641607426883 0 0.015837050574443068 0 0
          -0.08131613322328501 0.06205680996795704 0 0.0919084092779292 0 0
          0.00883996612808613 -0.06071802758606043 0 0.1950149817056273 0 0
          -0.02073837134220123 -0.044267511231250056 0 0.20848497195125193 0 0
          -0.0043949857357504785 -0.05653411738245512 0 0.2171833531920237 0 0
          -0.04943409347080329 -0.0034979956956988625 0 0.19917643918736455 0 0
          -0.03714786039133766 -0.01321674334621364 0 0.20649145697190616 0 0
          -0.07644283449895073 0.03967790470390181 0 0.15735131868855512 0 0
          -0.057669368274025246 0.03332682713688123 0 0.15525222310838876 0 0
          -0.1071207028577037 0.10548687848622387 0 -0.053768718642829054 0 0
          -0.09443192900877993 0.109546040261716 0 -0.039410643478433594 0 0
          -0.10377583367764179 0.09313095156000847 0 -0.1427597814592596 0 0
          -0.08177867418686713 0.09419810994612947 0 -0.13234203212044285 0 0
          0.008331238359893627 -0.07545624760375425 0 0.1869403877458422 0 0
          -0.08307301721075788 0.07243750583896114 0 0.10974361556908763 0 0
          -0.08226383037771345 0.08576718935879982 0 0.001020943344355096 0 0
          -0.11780847091177349 0.09479969738274253 0 -0.002232702839784939 0 0
          0.032516733466927725 -0.08482034073739894 0 0.17714791899444804 0 0
          0.030333420235743695 -0.08328807983120434 0 0.14719955300081666 0 0
          -0.08761736021107647 0.06997086700946001 0 0.11650579480019321 0 0
          0.01774004851302252 -0.09346291120729178 0 0.2090442516935205 0 0
          -0.03410726991721 -0.04264205952373745 0 0.21982547109438605 0 0
          -0.01542028268396611 -0.053172914426778184 0 0.22431173049292102 0 0
          -0.04902809371627592 -0.003750675117149215 0 0.21233872022702346 0 0
          -0.031597783111032327 -0.0061258694722552956 0 0.20488961464785843 0 0
          -0.004162785436652855 -0.08343278157344636 0 0.21512163606868367 0 0
          0.0029191729440387615 -0.09963746521013146 0 0.23590052532796163 0 0
          -0.08167639661463011 0.039450816407886335 0 0.14942823802620164 0 0
          -0.0694100021029842 0.03420417593522956 0 0.15283939091275472 0 0
          -0.0718206893255019 0.0688510947607872 0 0.11976794011858444 0 0
          0.015648830356677905 -0.11253210892624094 0 0.17886772270338497 0 0
          -0.011936998998905865 -0.09388442939851525 0 0.23520423332703888 0 0
          -0.008375744460453388 -0.0999732984428955 0 0.24243535338753563 0 0
          -0.03208376765338465 -0.04779559089534182 0 0.22004625839985886 0 0
          0.0363617042254524 -0.11868416354811206 0 0.17461413058500905 0 0
          0.011692711566110292 -0.13332506596165178 0 0.21388007836346562 0 0
          0 -0.17272263830258824 0 0.20923203420980688 0 0
          -0.08706979658109243 0.045298502203824836 0 0.1594203628595103 0 0
          0.0006761910668198062 -0.12878338120192145 0 0.2160253549257985 0 0
          -0.000011555092484238914 -0.13433944943058 0 0.22514451070026903 0 0
          0.01122932007493127 -0.1747580584231493 0 0.20449077771449553 0 0
          0.0007837777231635701 -0.17665039868375348 0 0.22453434110354903 0 0
          -0.010968103657904849 -0.1301594235482895 0 0.22448197337450632 0 0
          -0.01395722425409246 -0.15020004327958167 0 0.24417253505683378 0 0
          0 -0.17884836150753963 0 0.21815745386840926 0 0
          -0.08014047723284218 0.0969039610289877 0 -0.021696287634317607 0 0
          -0.07587884169561637 0.11327058645485386 0 -0.1109050083693878 0 0
          -0.12900057986682245 0.10628030849069854 0 -0.0355142233415182 0 0
          -0.03510493441493043 -0.07297419036222463 0 0.24665055305161454 0 0
          0 -0.17322172904634697 0 0.2188810967446812 0 0
          0.040196258607473 -0.15041712174755342 0 0.14296083352139574 0 0
          -0.06124116316499939 0.032736662261711236 0 0.031173874469426703 0 0
          -0.0624193533863628 0.002195345642156843 0 0.14370839174236236 0 0
          0.013220384848662281 -0.03987013337335768 0 0.10975453100159718 0 0
          0.03043480086676409 -0.05505646584148717 0 0.12225775164136951 0 0
          0 -0.053365380440701694 0 0.09171037822706689 0 0
          0.027495634594726148 -0.06808056898776736 0 0.16343773621273538 0 0
          0.04583036380589073 -0.04758835682349536 0 0.10373156219574986 0 0
          0.01042078947474101 -0.04732778111098554 0 0.131442761530263 0 0
          0.029594781018700493 -0.04036311835994716 0 0.12373539726036817 0 0
          0.028602512009102077 -0.04586249817451396 0 0.11876892860571345 0 0
          0.02605108054088207 -0.06099085118436476 0 0.1440643616494231 0 0
          0 -0.11484259388141929 0 0.16007179827015192 0 0
          0.06876014642702155 -0.11638235518343223 0 0.0999481949046695 0 0
          0.0578465524571668 -0.07604286946235148 0 0.1098959812540061 0 0
          0.03858023528102872 -0.07009958977009095 0 0.12956949847820426 0 0
          0.03533723681863221 -0.045894990571862054 0 0.12090438943524823 0 0
          <InformationKey name="L2_NORM_RANGE" location="vtkDataArray" length="2">
            <Value index="0">
              0
            </Value>
            <Value index="1">
              0.28701059908
            </Value>
          </InformationKey>
        </DataArray>
      </CellData>
      <Points>
        <DataArray type="Float32" Name="Points" NumberOfComponents="3" format="ascii" RangeMin="11" RangeMax="82.46211251235322">
          80 20 0 71.25 20 0
          80 10 0 66.2388916015625 12.798850059509277 0
          70.20958709716797 5.845560073852539 0 62.5 20 0
          80 0 0 71.25 0 0
          61.98773956298828 6.017467021942139 0 57.24021911621094 11.442919731140137 0
          53.75 20 0 62.5 0 0
          53.75 0 0 45 20 0
          45 10 0 40.15702819824219 15.307769775390625 0
          45 0 0 37.99734115600586 20 0
          40.049659729003906 5.003084182739258 0 36.91453170776367 10.96895980834961 0
          35.045658111572266 16.052900314331055 0 38.01533889770508 0 0
          32.61840057373047 20 0 35.31842041015625 4.04646110534668 0
          31.990219116210938 9.977960586547852 0 30.425119400024414 16.402000427246094 0
          32.72930908203125 0 0 28.12295913696289 20 0
          30.514589309692383 4.023209095001221 0 27.527999877929688 12.006360054016113 0
          27.93014907836914 7.867103099822998 0 26.15369987487793 16.422679901123047 0
          28.299869537353516 0 0 24.184429168701172 20 0
          24.478979110717773 13.194990158081055 0 24.274250030517578 9.000702857971191 0
          25.34370994567871 4.327282905578613 0 24.47154998779297 0 0
          21 15 0 21 10.843259811401367 0
          21 6.905692100524902 0 19.282169342041016 13.698100090026855 0
          21 3.321547031402588 0 19.531700134277344 9.244172096252441 0
          18.861600875854492 10.96759033203125 0 18.876230239868164 8.006454467773438 0
          21 0 0 18.122079849243164 12.307439804077148 0
          19.210899353027344 5.246811866760254 0 17.48702049255371 13.458939552307129 0
          17.920650482177734 9.497859001159668 0 19.55401039123535 2.1721389293670654 0
          18.10565948486328 6.8028388023376465 0 17.11651039123535 10.95458984375 0
          18.390689849853516 3.9656178951263428 0 17.121780395507812 8.250059127807617 0
          16.441429138183594 12.177860260009766 0 17.33510971069336 5.599215984344482 0
          16.261079788208008 9.61844539642334 0 18.331939697265625 0 0
          16.37948989868164 7.09060001373291 0 17.43825912475586 2.477871894836426 0
          15.530030250549316 10.942770004272461 0 16.465240478515625 4.240429878234863 0
          15.518770217895508 8.458972930908203 0 14.910579681396484 12.065620422363281 0
          15.580659866333008 5.842782974243164 0 14.752360343933105 9.728070259094238 0
          14.776479721069336 7.299490928649902 0 14.087759971618652 10.93202018737793 0
          15.43025016784668 2.6237199306488037 0 14.04539966583252 8.623793601989746 0
          16.123180389404297 0 0 14.639739990234375 4.373022079467773 0
          13.380769729614258 9.827728271484375 0 13.921090126037598 5.963322162628174 0
          13.11305046081543 7.256770133972168 0 12.673810005187988 8.723417282104492 0
          14.193650245666504 0 0 12.980170249938965 4.493560791015625 0
          12.261520385742188 6.083861827850342 0 12.46481990814209 2.2999250888824463 0
          11 6.846733093261719 0 12.522089958190918 0 0
          11 4.945953845977783 0 11 3.106290102005005 0
          11 1.4935599565505981 0 11 0 0
          18.283540725708008 17.52022933959961 0 17.25609016418457 15 0
          20.521530151367188 20 0 12.776570320129395 10.922260284423828 0
          13.51276969909668 11.97500991821289 0 14.336990356445312 13.107600212097168 0
          15.845529556274414 13.259160041809082 0 12.069279670715332 9.813958168029785 0
          11 8.496806144714355 0
          <InformationKey name="L2_NORM_RANGE" location="vtkDataArray" length="2">
            <Value index="0">
              11
            </Value>
            <Value index="1">
              82.462112512
            </Value>
          </InformationKey>
        </DataArray>
      </Points>
      <Cells>
        <DataArray type="Int64" Name="connectivity" format="ascii" RangeMin="0" RangeMax="96">
          0 1 2 5 10 9
          9 10 14 5 9 3
          3 9 8 5 3 1
          8 9 12 3 8 4
          4 8 11 11 8 12
          4 2 3 3 2 1
          16 12 14 11 7 4
          4 7 6 10 13 14
          6 2 4 9 14 12
          88 89 38 88 38 90
          42 46 37 90 38 33
          40 42 36 36 42 37
          40 36 35 37 32 36
          35 36 30 40 35 39
          39 35 34 27 33 31
          30 36 28 35 30 29
          31 33 38 27 31 25
          38 39 34 38 34 31
          31 34 29 29 34 35
          29 30 24 25 31 29
          27 25 22 22 25 20
          32 26 28 24 30 28
          28 36 32 29 24 25
          28 26 23 20 25 24
          22 20 17 23 26 21
          28 23 24 17 20 15
          23 21 18 15 20 19
          17 15 13 18 21 16
          23 18 19 19 20 24
          15 19 14 19 24 23
          18 16 14 13 15 14
          19 18 14 91 74 69
          92 91 69 92 69 65
          69 74 67 74 77 71
          67 74 71 67 71 64
          71 77 76 69 67 62
          65 69 62 65 62 56
          93 92 65 93 65 94
          62 67 58 71 76 68
          64 71 68 64 68 60
          67 64 58 58 64 55
          68 76 75 62 58 53
          94 65 56 94 56 49
          56 62 53 56 53 47
          53 58 50 68 75 66
          60 68 66 60 66 57
          64 60 55 55 60 52
          58 55 50 50 55 45
          49 56 47 49 47 41
          94 49 89 89 49 41
          66 75 73 53 50 44
          47 53 44 47 44 41
          73 75 79 73 79 81
          44 50 43 66 73 63
          52 60 57 52 57 48
          55 52 45 45 52 40
          57 66 63 57 63 54
          50 45 43 43 45 40
          44 43 39 63 73 70
          48 57 54 48 54 42
          52 48 40 70 73 81
          63 70 61 78 72 70
          39 43 40 54 63 61
          54 61 51 61 70 72
          51 61 59 54 51 42
          42 51 46 72 59 61
          44 39 41 89 41 38
          38 41 39 40 48 42
          51 59 46 81 78 70
          91 95 74 74 95 77
          77 95 96 76 77 82
          86 87 83 75 76 80
          85 86 81 96 82 77
          80 76 82 80 82 84
          75 80 79 83 78 81
          81 86 83 85 81 79
          80 84 79 84 85 79
        </DataArray>
        <DataArray type="Int64" Name="offsets" format="ascii" RangeMin="3" RangeMax="462">
          3 6 9 12 15 18
          21 24 27 30 33 36
          39 42 45 48 51 54
          57 60 63 66 69 72
          75 78 81 84 87 90
          93 96 99 102 105 108
          111 114 117 120 123 126
          129 132 135 138 141 144
          147 150 153 156 159 162
          165 168 171 174 177 180
          183 186 189 192 195 198
          201 204 207 210 213 216
          219 222 225 228 231 234
          237 240 243 246 249 252
          255 258 261 264 267 270
          273 276 279 282 285 288
          291 294 297 300 303 306
          309 312 315 318 321 324
          327 330 333 336 339 342
          345 348 351 354 357 360
          363 366 369 372 375 378
          381 384 387 390 393 396
          399 402 405 408 411 414
          417 420 423 426 429 432
          435 438 441 444 447 450
          453 456 459 462
        </DataArray>
        <DataArray type="UInt8" Name="types" format="ascii" RangeMin="5" RangeMax="5">
          5 5 5 5 5 5
          5 5 5 5 5 5
          5 5 5 5 5 5
          5 5 5 5 5 5
          5 5 5 5 5 5
          5 5 5 5 5 5
          5 5 5 5 5 5
          5 5 5 5 5 5
          5 5 5 5 5 5
          5 5 5 5 5 5
          5 5 5 5 5 5
          5 5 5 5 5 5
          5 5 5 5 5 5
          5 5 5 5 5 5
          5 5 5 5 5 5
          5 5 5 5 5 5
          5 5 5 5 5 5
          5 5 5 5 5 5
          5 5 5 5 5 5
          5 5 5 5 5 5
          5 5 5 5 5 5
          5 5 5 5 5 5
          5 5 5 5 5 5
          5 5 5 5 5 5
          5 5 5 5 5 5
          5 5 5 5
        </DataArray>
      </Cells>
    </Piece>
  </UnstructuredGrid>
</VTKFile>
