<?xml version="1.0"?>
<VTKFile type="UnstructuredGrid" version="0.1" byte_order="LittleEndian" header_type="UInt32" compressor="vtkZLibDataCompressor">
  <UnstructuredGrid>
    <Piece NumberOfPoints="13" NumberOfCells="11">
      <PointData>
        <DataArray type="Float64" Name="Disp" NumberOfComponents="3" format="ascii" RangeMin="0.02514366532130749" RangeMax="0.14710904137266279">
          0.004410568455153884 0.04028813651675039 0 -0.00471471022394086 0.05859166870822995 0
          0.005056452803078942 0.05863534229010162 0 -0.00519049158452519 0.07919971319400225 0
          0.005522176379503991 0.07924661559202247 0 -0.005462197605293236 0.10129226470475794 0
          0.0057959896964187895 0.10133099453047067 0 -0.0055657875300789495 0.12410148959739503 0
          0.0058823810796185105 0.12413675974689094 0 -0.005547114353420116 0.1469927023951807 0
          0.005861883302824811 0.14699220515975625 0 -0.004055047354257095 0.040249565054493924 0
          0.003580505169337264 0.024887424304701967 0
          <InformationKey name="L2_NORM_RANGE" location="vtkDataArray" length="2">
            <Value index="0">
              0.025143665321
            </Value>
            <Value index="1">
              0.14710904137
            </Value>
          </InformationKey>
        </DataArray>
        <DataArray type="Float64" Name="Nodal Stress" NumberOfComponents="6" format="ascii" RangeMin="3253.572303674122" RangeMax="45309.445048065005">
          28765.606463762884 -8850.974312083576 0 -8652.388351356678 0 0
          -36401.77089230912 -10142.809547067274 0 13295.412946834207 0 0
          20285.137602463827 -10442.46928832592 0 -5933.372627770113 0 0
          -29088.129227860587 -11359.357882236009 0 10844.476716931114 0 0
          11864.468761206355 -11189.768222552444 0 -2955.165756346182 0 0
          -20952.990521841515 -10764.282964649383 0 7710.445359951584 0 0
          4903.70169876753 -10057.059619692533 0 -552.5760192688531 0 0
          -13253.107255233654 -9069.193222605858 0 4234.226670292271 0 0
          930.899902791834 -7237.044507828731 0 734.0450514713696 0 0
          -7020.2839067355435 -4800.880207124173 0 1501.9803241345696 0 0
          1604.2833236228525 -2731.8979920671654 0 740.7706215289151 0 0
          -42044.89199087582 -7945.930307323387 0 14900.840902122562 0 0
          37160.592783754706 -5222.272625455227 0 -11790.922952620229 0 0
          <InformationKey name="L2_NORM_RANGE" location="vtkDataArray" length="2">
            <Value index="0">
              3253.5723037
            </Value>
            <Value index="1">
              45309.445048
            </Value>
          </InformationKey>
        </DataArray>
        <DataArray type="Float64" Name="Nodal Strain" NumberOfComponents="6" format="ascii" RangeMin="0.0003391645183071394" RangeMax="0.0035435777790399866">
          0.00237079240141462 -0.0016595555388546441 0 -0.0009270416090739296 0 0
          -0.0022378832941982495 0.0005755768499348062 0 0.0014245085300179506 0 0
          0.0018218837319019137 -0.0014703598635398454 0 -0.0006357184958325122 0 0
          -0.0016720321633387559 0.0002274790522638772 0 0.001161908219671191 0 0
          0.0012470966337487556 -0.0012230001859396874 0 -0.00031662490246566226 0 0
          -0.00111220350282263 -0.000020556264552044914 0 0.0008261191457090984 0 0
          0.0007094451077581283 -0.0008934936049340213 0 -0.00005920457349309142 0 0
          -0.0006227507602807662 -0.00017447425678493092 0 0.0004536671432456003 0 0
          0.00032495872547901435 -0.0005501781756589037 0 0.00007864768408621815 0 0
          -0.00032998884308381844 -0.00009219558955402872 0 0.00016092646330013248 0 0
          0.0002121594514040311 -0.0002524314038484709 0 0.00007936828087809803 0 0
          -0.002719423345515295 0.0009340368348653229 0 0.0015965186680845602 0 0
          0.0028408377926058804 -0.0017001835012380412 0 -0.0012633131734950244 0 0
          <InformationKey name="L2_NORM_RANGE" location="vtkDataArray" length="2">
            <Value index="0">
              0.00033916451831
            </Value>
            <Value index="1">
              0.003543577779
            </Value>
          </InformationKey>
        </DataArray>
        <DataArray type="Float64" Name="Sld_traction" NumberOfComponents="3" format="ascii" RangeMin="2352.324127058323" RangeMax="41167.68713986109">
          31873.410900119266 8161.536044260578 0 33837.39410972886 -10557.746157938856 0
          23875.540955635348 10046.171497436353 0 26034.043701770952 -11552.107003678178 0
          15298.308226634921 10962.968023766649 0 17073.572393206454 -10800.380858907482 0
          7163.065219357315 9988.248231248897 0 8288.23848503427 -8714.541259724641 0
          1309.7717776030765 7387.800769778336 0 -279.77967652661323 -3084.734934612678 0
          -908.7110581117579 2169.717265361114 0 40293.43416414607 -8439.053720951797 0
          37813.34816303302 5128.29080344977 0
          <InformationKey name="L2_NORM_RANGE" location="vtkDataArray" length="2">
            <Value index="0">
              2352.3241271
            </Value>
            <Value index="1">
              41167.68714
            </Value>
          </InformationKey>
        </DataArray>
        <DataArray type="Float64" Name="Velocity" NumberOfComponents="3" format="ascii" RangeMin="2.073415454820705" RangeMax="15.283731885270257">
          -0.4397132816517759 -3.550256733821893 0 0.505364675945144 -5.446344974258118 0
          -0.5301909070884387 -5.451166511729049 0 0.5757366765630016 -7.67231459497355 0
          -0.5991989093395751 -7.678651518219404 0 0.6177519660517521 -10.124053318619616 0
          -0.6417107629227439 -10.129683556956103 0 0.6344388089213937 -12.689572180324191 0
          -0.6558490908570564 -12.695072512888501 0 0.6316155732010333 -15.269837647138473 0
          -0.6529196640566561 -15.26977918154401 0 0.41349361925128436 -3.5470802613962533 0
          -0.3338921422135006 -2.0463547311396013 0
          <InformationKey name="L2_NORM_RANGE" location="vtkDataArray" length="2">
            <Value index="0">
              2.0734154548
            </Value>
            <Value index="1">
              15.283731885
            </Value>
          </InformationKey>
        </DataArray>
        <DataArray type="Float64" Name="Acceleration" NumberOfComponents="3" format="ascii" RangeMin="156.23657614577345" RangeMax="2123.517446897831">
          -28.429027969014896 625.3401495904109 0 97.42918349820593 372.04693467549805 0
          -82.10807264419873 370.8783965855837 0 144.040233396825 -86.174319228885 0
          -127.97036944549109 -89.62952788974508 0 174.1303737363287 -701.6047625617648 0
          -158.61958541738113 -705.212939160454 0 186.8715564009699 -1402.023013102531 0
          -169.66787240513622 -1406.017321130057 0 184.9254958004285 -2115.450048637984 0
          -167.85415710127927 -2115.4300442205276 0 43.62623179028469 624.3186386792077 0
          20.703229566865048 664.8263465230557 0
          <InformationKey name="L2_NORM_RANGE" location="vtkDataArray" length="2">
            <Value index="0">
              156.23657615
            </Value>
            <Value index="1">
              2123.5174469
            </Value>
          </InformationKey>
        </DataArray>
        <DataArray type="Float64" Name="Sigma" NumberOfComponents="6" format="ascii" RangeMin="3340.948845598268" RangeMax="122442.27286730983">
          86751.52552328749 -19764.67445266837 0 -31439.867026871216 0 0
          -97040.78784206988 -9480.97733335585 0 33850.79010589624 0 0
          63826.28964515262 -19829.289076226472 0 -24150.627727206393 0 0
          -75199.08632100819 -12959.758564174015 0 26326.224721595507 0 0
          39850.29439713986 -20029.59251920311 0 -15210.867798115283 0 0
          -51891.72517879372 -13071.31480557382 0 17048.57321834745 0 0
          19331.97448531967 -16503.445360457186 0 -6795.750440142008 0 0
          -30242.21544656615 -11708.901232174492 0 7920.916764253386 0 0
          7281.97578290935 -12062.203222830374 0 -584.5217574605625 0 0
          -16528.421662344324 -5982.551227347489 0 997.1906348446247 0 0
          1686.2531927650919 -2586.9551532435003 0 1275.206804365799 0 0
          -115044.00423752627 -7191.10150907254 0 41294.97951319272 0 0
          107329.41437706978 -12142.202830308986 0 -41330.36956602434 0 0
          <InformationKey name="L2_NORM_RANGE" location="vtkDataArray" length="2">
            <Value index="0">
              3340.9488456
            </Value>
            <Value index="1">
              122442.27287
            </Value>
          </InformationKey>
        </DataArray>
        <DataArray type="Float64" Name="Press" format="ascii" RangeMin="-2283.1457991587718" RangeMax="11081.869614131303">
          11081.869614131303 -983.2082595954922 9792.660699127813 944.271296577547 8581.8818815167 2284.8074468419786
          6553.108145701582 2068.132781253431 3381.7733320458124 3044.8848314157303 2932.207312467329 -2283.1457991587718
          7940.8342959924385
        </DataArray>
        <DataArray type="Float64" Name="Dev strain" NumberOfComponents="6" format="ascii" RangeMin="0.00038465320490278896" RangeMax="0.0034976343374089965">
          0.0021395661973598592 -0.0018907817429094048 0 -0.0009270416090739296 0 0
          -0.002340594414931476 0.0004728657292015797 0 0.0014245085300179506 0 0
          0.0015887234885555471 -0.0017035201068862113 0 -0.0006357184958325122 0 0
          -0.0018021402351482826 0.00009737098045435097 0 0.001161908219671191 0 0
          0.0010259799146393252 -0.001444116905049118 0 -0.00031662490246566226 0 0
          -0.001252058350481319 -0.0001604111122107338 0 0.0008261191457090984 0 0
          0.0005309088442344294 -0.0010720298684577204 0 -0.00005920457349309142 0 0
          -0.0007346800814750314 -0.0002864035779791961 0 0.0004536671432456003 0 0
          0.00020590518180109137 -0.0006692317193368267 0 0.00007864768408621815 0 0
          -0.00043687913809933323 -0.00019908588456954353 0 0.00016092646330013248 0 0
          0.00010241773007906499 -0.000362173125173437 0 0.00007936828087809803 0 0
          -0.002766353177913317 0.0008871070024673013 0 0.0015965186680845602 0 0
          0.0026748920190970632 -0.001866129274746859 0 -0.0012633131734950244 0 0
          <InformationKey name="L2_NORM_RANGE" location="vtkDataArray" length="2">
            <Value index="0">
              0.0003846532049
            </Value>
            <Value index="1">
              0.0034976343374
            </Value>
          </InformationKey>
        </DataArray>
        <DataArray type="Float64" Name="J2 Stresses" format="ascii" RangeMin="5174431.495976993" RangeMax="7069736259.207625">
          4205351078.0856166 5039870715.800973 2379311182.472263 3084696489.801048 1052457894.8049521 1504468668.5842721
          334590029.14449584 541530212.1872283 99347375.36710504 154738418.20860046 5174431.495976993 7069736259.207625
          6260568002.164597
        </DataArray>
      </PointData>
      <CellData>
        <DataArray type="UInt8" Name="vtkGhostType" format="ascii" RangeMin="0" RangeMax="1">
          1 1 0 0 0 0
          0 0 0 0 0
        </DataArray>
        <DataArray type="Float64" Name="Gauss Stress" NumberOfComponents="6" format="ascii" RangeMin="3846.515924871424" RangeMax="42869.05510644007">
          31925.497924598676 -7452.806893694977 0 -10491.752359900947 0 0
          -39172.583666977225 -9540.412579906573 0 14568.634197405918 0 0
          24476.11646001129 -9727.87293619569 0 -7246.5682160604565 0 0
          15932.103866168789 -11166.608760793844 0 -4345.090267908726 0 0
          -32886.6202606052 -10838.767079215493 0 12008.795700095117 0 0
          8236.780392575361 -10728.185070391286 0 -1652.6816733032815 0 0
          -25143.18549257528 -11416.568421338237 0 9387.97671394256 0 0
          2791.583026887898 -9423.845185487076 0 180.21485555027175 0 0
          -17298.639255414404 -10125.871008136168 0 6057.913180819611 0 0
          599.5575964196642 -3757.6147091641633 0 562.6252272499537 0 0
          -10331.290127095384 -7086.288245879126 0 2777.8618805458154 0 0
          <InformationKey name="L2_NORM_RANGE" location="vtkDataArray" length="2">
            <Value index="0">
              3846.5159249
            </Value>
            <Value index="1">
              42869.055106
            </Value>
          </InformationKey>
        </DataArray>
        <DataArray type="Float64" Name="Gauss Strain" NumberOfComponents="6" format="ascii" RangeMin="0.0003449117454649367" RangeMax="0.003247463122524635">
          0.002546564383674726 -0.0016725397039995939 0 -0.0011241163242751014 0 0
          -0.0024573126697874227 0.0007175628038272879 0 0.0015609250925792057 0 0
          0.0020957180662935096 -0.001568995083300095 0 -0.000776418023149335 0 0
          0.0015368148747546939 -0.0013666186209913029 0 -0.0004655453858473633 0 0
          -0.001961945480071248 0.0004003245036490791 0 0.0012866566821530486 0 0
          0.0009714909234122146 -0.0010604696619056406 0 -0.00017707303642535164 0 0
          -0.0013882072344218687 0.00008250173749638559 0 0.0010058546479224171 0 0
          0.0005359646871165313 -0.0007728311927807877 0 0.00001930873452324336 0 0
          -0.0008739788393818801 -0.00010546795574492622 0 0.0006490621265163866 0 0
          0.0001770260679286961 -0.0002898138219552854 0 0.00006028127434820934 0 0
          -0.00048486757172541597 -0.00013718879873795956 0 0.00029762805862990874 0 0
          <InformationKey name="L2_NORM_RANGE" location="vtkDataArray" length="2">
            <Value index="0">
              0.00034491174546
            </Value>
            <Value index="1">
              0.0032474631225
            </Value>
          </InformationKey>
        </DataArray>
      </CellData>
      <Points>
        <DataArray type="Float32" Name="Points" NumberOfComponents="3" format="ascii" RangeMin="0.4000000059604645" RangeMax="1.0012492197622458">
          0.5 0 0 0.6000000238418579 0.05000000074505806 0
          0.6000000238418579 0 0 0.699999988079071 0.05000000074505806 0
          0.699999988079071 0 0 0.800000011920929 0.05000000074505806 0
          0.800000011920929 0 0 0.8999999761581421 0.05000000074505806 0
          0.8999999761581421 0 0 1 0.05000000074505806 0
          1 0 0 0.5 0.05000000074505806 0
          0.4000000059604645 0 0
          <InformationKey name="L2_NORM_RANGE" location="vtkDataArray" length="2">
            <Value index="0">
              0.40000000596
            </Value>
            <Value index="1">
              1.0012492198
            </Value>
          </InformationKey>
        </DataArray>
      </Points>
      <Cells>
        <DataArray type="Int64" Name="connectivity" format="ascii" RangeMin="0" RangeMax="12">
          0 11 12 1 11 0
          2 1 0 4 3 2
          3 1 2 6 5 4
          5 3 4 8 7 6
          7 5 6 10 9 8
          9 7 8
        </DataArray>
        <DataArray type="Int64" Name="offsets" format="ascii" RangeMin="3" RangeMax="33">
          3 6 9 12 15 18
          21 24 27 30 33
        </DataArray>
        <DataArray type="UInt8" Name="types" format="ascii" RangeMin="5" RangeMax="5">
          5 5 5 5 5 5
          5 5 5 5 5
        </DataArray>
      </Cells>
    </Piece>
  </UnstructuredGrid>
</VTKFile>
