<?xml version="1.0"?>
<VTKFile type="UnstructuredGrid" version="0.1" byte_order="LittleEndian" header_type="UInt32" compressor="vtkZLibDataCompressor">
  <UnstructuredGrid>
    <Piece NumberOfPoints="13" NumberOfCells="11">
      <PointData>
        <DataArray type="Float64" Name="Disp" NumberOfComponents="3" format="ascii" RangeMin="0.00550024362163157" RangeMax="0.09005007519854642">
          -0.0021451880570170245 -0.012192675393974155 0 0.0029236128619028936 -0.022339090828550092 0
          -0.002977072805009611 -0.022345855754060215 0 0.0037250833419838255 -0.03576681724224682 0
          -0.003747854710206645 -0.035805759009733665 0 0.004344598829370837 -0.05209611923705723 0
          -0.004403750308185656 -0.0521314955340317 0 0.004801483910266889 -0.0705863398176482 0
          -0.004763144748503206 -0.07070064310475843 0 0.004801103184756201 -0.08992199648291396 0
          -0.004773405517617251 -0.08990629710563203 0 0.002095539248488266 -0.012201761377158034 0
          -0.0013551072199953001 -0.005330700171611172 0
          <InformationKey name="L2_NORM_RANGE" location="vtkDataArray" length="2">
            <Value index="0">
              0.0055002436216
            </Value>
            <Value index="1">
              0.090050075199
            </Value>
          </InformationKey>
        </DataArray>
        <DataArray type="Float64" Name="Nodal Stress" NumberOfComponents="6" format="ascii" RangeMin="8560.64407212444" RangeMax="39908.37283708654">
          -36976.92906347108 -3216.5479348301856 0 12593.502972612623 0 0
          35886.76634917033 120.42455386607963 0 -12730.025471343306 0 0
          -33460.39742724301 2233.1658944890437 0 11379.624810382264 0 0
          36980.82969567671 6118.526715647756 0 -13698.908290559777 0 0
          -26663.603180151214 7539.933129616982 0 8663.248687188507 0 0
          33596.95918438883 9743.035443905454 0 -13215.353516840269 0 0
          -15565.501803589916 12356.15356096768 0 5081.033693356208 0 0
          29980.466635316145 18896.27054994542 0 -10819.00204100267 0 0
          -3502.523557105599 18305.883309856385 0 564.1656657090366 0 0
          22347.00513080236 14483.442432535718 0 -7430.864064371072 0 0
          -2590.206469667589 7715.801899142044 0 -2653.650019744032 0 0
          31586.319835686147 -4846.0168876460475 0 -10405.101620885674 0 0
          -35917.514581604984 -7402.983574431818 0 12504.648491137985 0 0
          <InformationKey name="L2_NORM_RANGE" location="vtkDataArray" length="2">
            <Value index="0">
              8560.6440721
            </Value>
            <Value index="1">
              39908.372837
            </Value>
          </InformationKey>
        </DataArray>
        <DataArray type="Float64" Name="Nodal Strain" NumberOfComponents="6" format="ascii" RangeMin="0.0008409745382012471" RangeMax="0.0031669694478705913">
          -0.0025263325068611425 0.0010908511854932398 0 0.0013493038899227811 0 0
          0.002559039576588378 -0.001273068472908506 0 -0.0013639313005010688 0 0
          -0.0024697843124633955 0.0013545260434364677 0 0.0012192455153980997 0 0
          0.0024229690241323455 -0.0008837062951564713 0 -0.0014677401739885477 0 0
          -0.0021738264103542643 0.0014908381942637563 0 0.0009282052164844829 0 0
          0.0020518172473168645 -0.0005039602963063541 0 -0.0014159307339471716 0 0
          -0.001553112756005268 0.001438493175911617 0 0.0005443964671453082 0 0
          0.0014665950971673883 0.00027900265944909677 0 -0.001159178790107429 0 0
          -0.0009039618008595563 0.0014326532206006561 0 0.00006044632132596824 0 0
          0.0010789488510381789 0.00023642427622389578 0 -0.0007961640068969007 0 0
          -0.00046057910137418647 0.000643636080998274 0 -0.0002843196449725748 0 0
          0.0024292377342506554 -0.0014742269146777941 0 -0.001114832316523465 0 0
          -0.0023011444853135057 0.0007539838368836195 0 0.0013397837669076415 0 0
          <InformationKey name="L2_NORM_RANGE" location="vtkDataArray" length="2">
            <Value index="0">
              0.0008409745382
            </Value>
            <Value index="1">
              0.0031669694479
            </Value>
          </InformationKey>
        </DataArray>
        <DataArray type="Float64" Name="Sld_traction" NumberOfComponents="3" format="ascii" RangeMin="6911.812519392793" RangeMax="38006.05247977545">
          -36771.714906515044 3824.8467635803113 0 -37440.62736845985 1004.0325854807431 0
          -35935.43125248108 -1336.9222803814628 0 -37414.50282912127 6679.4463202515135 0
          -30876.459776421107 -6948.452815312964 0 -33178.162015462236 11023.673022346446 0
          -22218.44628314431 -11064.22609039414 0 -24464.98599508319 19127.03581668558 0
          -10202.256798448625 -16905.634330946286 0 -2184.9725629034983 7137.414009722195 0
          2035.5312904980888 -6605.2830876986745 0 -33404.24887174923 -4219.376779806227 0
          -33640.60217278831 8029.172148775671 0
          <InformationKey name="L2_NORM_RANGE" location="vtkDataArray" length="2">
            <Value index="0">
              6911.8125194
            </Value>
            <Value index="1">
              38006.05248
            </Value>
          </InformationKey>
        </DataArray>
        <DataArray type="Float64" Name="Velocity" NumberOfComponents="3" format="ascii" RangeMin="4.82792625082195" RangeMax="14.594703725320166">
          -0.46790649712358023 -6.523641021666006 0 0.3595374492470669 -8.17231931697515 0
          -0.4508684006757919 -8.171817941524196 0 0.3531719466130956 -9.775333802662281 0
          -0.4440932742270731 -9.773724785192785 0 0.35434806444121847 -11.369553836614344 0
          -0.4458725081580772 -11.369292764020482 0 0.35680391331810957 -12.975662916364179 0
          -0.4485093232004955 -12.976134534164153 0 0.3567629462211388 -14.587669162713961 0
          -0.4490971702739466 -14.587792449905717 0 0.37475545592789683 -6.522166310026851 0
          -0.4776598765539912 -4.804239057926459 0
          <InformationKey name="L2_NORM_RANGE" location="vtkDataArray" length="2">
            <Value index="0">
              4.8279262508
            </Value>
            <Value index="1">
              14.594703725
            </Value>
          </InformationKey>
        </DataArray>
        <DataArray type="Float64" Name="Acceleration" NumberOfComponents="3" format="ascii" RangeMin="278.1945467423105" RangeMax="1568.0388656170003">
          -68.26095051786854 -1472.563879193477 0 -22.623142016015436 -1567.286788132329 0
          -13.890981493028676 -1567.9773355245316 0 -77.29548826670725 -1437.9574302375604 0
          38.48469675471097 -1434.8451309369448 0 -113.90184567124606 -1121.1631322680405 0
          75.14506134385647 -1117.176757463567 0 -129.60264686804567 -700.9487056091457 0
          88.37288077688436 -696.3152472594084 0 -127.4038174522334 -264.42275261011673 0
          86.29149394873093 -264.4730305896155 0 34.005365439002276 -1468.299942917948 0
          -105.47347460569193 -1175.907342529195 0
          <InformationKey name="L2_NORM_RANGE" location="vtkDataArray" length="2">
            <Value index="0">
              278.19454674
            </Value>
            <Value index="1">
              1568.0388656
            </Value>
          </InformationKey>
        </DataArray>
        <DataArray type="Float64" Name="Sigma" NumberOfComponents="6" format="ascii" RangeMin="12433.674818935899" RangeMax="111147.50260720018">
          -104667.37287730239 968.2706197309456 0 37384.098795989165 0 0
          102402.57688725393 -5695.390559324571 0 -38139.78771814011 0 0
          -97651.00637632125 8607.19021811898 0 36697.41819947065 0 0
          102336.85763165614 3838.648836168274 0 -38086.17537648019 0 0
          -81096.46964251765 17233.819638725017 0 31438.815921014706 0 0
          89758.01517620793 9320.627884000476 0 -34002.52775066679 0 0
          -52589.806871239736 19483.88873947301 0 22806.07677499717 0 0
          71139.85670254934 25207.334581570627 0 -24972.685713626077 0 0
          -26112.74462016723 30914.475635377054 0 10647.554677862463 0 0
          58438.20688955482 23258.542150671932 0 -12896.64536532804 0 0
          1870.4112236027215 11558.65020289129 0 -4182.754695755275 0 0
          93012.8106453492 -12884.957606290078 0 -33998.437961718446 0 0
          -99069.68110345199 -6025.693739965967 0 34396.476055662955 0 0
          <InformationKey name="L2_NORM_RANGE" location="vtkDataArray" length="2">
            <Value index="0">
              12433.674819
            </Value>
            <Value index="1">
              111147.50261
            </Value>
          </InformationKey>
        </DataArray>
        <DataArray type="Float64" Name="Press" format="ascii" RangeMin="-13903.563039622564" RangeMax="8358.591157359779">
          -4990.372779737174 6419.111850020911 -7598.359782054845 3817.0279628611224 -9225.505540686549 -590.3784493053361
          -10835.258675813238 -1641.970985301901 -7131.953445689753 -11488.03107032851 -13903.563039622564 8358.591157359779
          -1843.808637555114
        </DataArray>
        <DataArray type="Float64" Name="Dev strain" NumberOfComponents="6" format="ascii" RangeMin="0.001096662722818185" RangeMax="0.0031378234991968038">
          -0.0024970795333990243 0.0011201041589553574 0 0.0013493038899227811 0 0
          0.0024831085495146807 -0.0013489994999822037 0 -0.0013639313005010688 0 0
          -0.002352719558335453 0.0014715907975644104 0 0.0012192455153980997 0 0
          0.0024376024451668705 -0.000869072874121946 0 -0.0014677401739885477 0 0
          -0.001973429527393324 0.001691235077224696 0 0.0009282052164844829 0 0
          0.0021752956465766037 -0.00038048189704661495 0 -0.0014159307339471716 0 0
          -0.0012976552860336308 0.0016939506458832545 0 0.0005443964671453082 0 0
          0.001638811346198493 0.0004512189084802016 0 -0.001159178790107429 0 0
          -0.000624823269607071 0.0017117917518531419 0 0.00006044632132596824 0 0
          0.001417170124241831 0.0005746455494275476 0 -0.0007961640068969007 0 0
          -0.00004605132820219172 0.001058163854170269 0 -0.0002843196449725748 0 0
          0.002272507089809173 -0.0016309575591192762 0 -0.001114832316523465 0 0
          -0.0023637112891054845 0.0006914170330916403 0 0.0013397837669076415 0 0
          <InformationKey name="L2_NORM_RANGE" location="vtkDataArray" length="2">
            <Value index="0">
              0.0010966627228
            </Value>
            <Value index="1">
              0.0031378234992
            </Value>
          </InformationKey>
        </DataArray>
        <DataArray type="Float64" Name="J2 Stresses" format="ascii" RangeMin="72924275.54030465" RangeMax="5827490957.211716">
          5827490957.211716 5623023465.182797 5141576510.506318 5606423016.106638 3683920750.538808 4360730669.620908
          1702684138.049995 3004053222.121136 847132722.8587146 2019572769.1402571 72924275.54030465 4697675984.290942
          5221334740.755718
        </DataArray>
      </PointData>
      <CellData>
        <DataArray type="UInt8" Name="vtkGhostType" format="ascii" RangeMin="0" RangeMax="1">
          1 1 0 0 0 0
          0 0 0 0 0
        </DataArray>
        <DataArray type="Float64" Name="Gauss Stress" NumberOfComponents="6" format="ascii" RangeMin="11288.856707129436" RangeMax="39002.11597749275">
          -36399.944531779234 -5472.656995485869 0 12594.04562997789 0 0
          33511.78162764809 -2608.249106080061 0 -11584.708961289802 0 0
          -35361.80769271361 -763.183477748584 0 11980.576425773235 0 0
          -29805.818582354354 5557.607111044 0 10016.686248001726 0 0
          36575.40272447203 3129.4095085966246 0 -13176.181631716554 0 0
          -21526.4680011182 8462.39786546446 0 6747.4549817817 0 0
          34999.84904607189 8131.413443921001 0 -13549.962402044093 0 0
          -9057.292631887505 18665.50528320527 0 2826.9819130778524 0 0
          31746.81896569903 13648.081031541213 0 -12056.378896431901 0 0
          557.4419791164946 11069.373477766481 0 -2143.948461073617 0 0
          27734.454490205597 19706.132288766483 0 -9073.925467030553 0 0
          <InformationKey name="L2_NORM_RANGE" location="vtkDataArray" length="2">
            <Value index="0">
              11288.856707
            </Value>
            <Value index="1">
              39002.115977
            </Value>
          </InformationKey>
        </DataArray>
        <DataArray type="Float64" Name="Gauss Strain" NumberOfComponents="6" format="ascii" RangeMin="0.0008793356295403693" RangeMax="0.003104538787170577">
          -0.002404544002431165 0.0009090939478859823 0 0.001349362031783346 0 0
          0.0024868504414777234 -0.001383152851421722 0 -0.0012412188172810504 0 0
          -0.002498586853845667 0.0012084085977577303 0 0.0012836331884757042 0 0
          -0.002327473009848311 0.0014614654573015127 0 0.0010732163837144705 0 0
          0.002500764140726694 -0.0010827351324028134 0 -0.001411733746255345 0 0
          -0.0018398333524178875 0.001373259419001683 0 0.0007229416051908963 0 0
          0.0022095815945793853 -0.0006691793627939247 0 -0.0014517816859332961 0 0
          -0.0013135746623921525 0.0016567251142249302 0 0.00030289091925834153 0 0
          0.0017801984607091737 -0.000158952032236307 0 -0.0012917548817605608 0 0
          -0.00035551748284048143 0.000770760892014874 0 -0.00022970876368645903 0 0
          0.0012772420247015965 0.00041706464597597787 0 -0.0009722063000389878 0 0
          <InformationKey name="L2_NORM_RANGE" location="vtkDataArray" length="2">
            <Value index="0">
              0.00087933562954
            </Value>
            <Value index="1">
              0.0031045387872
            </Value>
          </InformationKey>
        </DataArray>
      </CellData>
      <Points>
        <DataArray type="Float32" Name="Points" NumberOfComponents="3" format="ascii" RangeMin="0.4000000059604645" RangeMax="1.0012492197622458">
          0.5 0 0 0.6000000238418579 0.05000000074505806 0
          0.6000000238418579 0 0 0.699999988079071 0.05000000074505806 0
          0.699999988079071 0 0 0.800000011920929 0.05000000074505806 0
          0.800000011920929 0 0 0.8999999761581421 0.05000000074505806 0
          0.8999999761581421 0 0 1 0.05000000074505806 0
          1 0 0 0.5 0.05000000074505806 0
          0.4000000059604645 0 0
          <InformationKey name="L2_NORM_RANGE" location="vtkDataArray" length="2">
            <Value index="0">
              0.40000000596
            </Value>
            <Value index="1">
              1.0012492198
            </Value>
          </InformationKey>
        </DataArray>
      </Points>
      <Cells>
        <DataArray type="Int64" Name="connectivity" format="ascii" RangeMin="0" RangeMax="12">
          0 11 12 1 11 0
          2 1 0 4 3 2
          3 1 2 6 5 4
          5 3 4 8 7 6
          7 5 6 10 9 8
          9 7 8
        </DataArray>
        <DataArray type="Int64" Name="offsets" format="ascii" RangeMin="3" RangeMax="33">
          3 6 9 12 15 18
          21 24 27 30 33
        </DataArray>
        <DataArray type="UInt8" Name="types" format="ascii" RangeMin="5" RangeMax="5">
          5 5 5 5 5 5
          5 5 5 5 5
        </DataArray>
      </Cells>
    </Piece>
  </UnstructuredGrid>
</VTKFile>
