<?xml version="1.0"?>
<VTKFile type="UnstructuredGrid" version="0.1" byte_order="LittleEndian" header_type="UInt32" compressor="vtkZLibDataCompressor">
  <UnstructuredGrid>
    <Piece NumberOfPoints="13" NumberOfCells="11">
      <PointData>
        <DataArray type="Float64" Name="Disp" NumberOfComponents="3" format="ascii" RangeMin="0" RangeMax="0.018469760984127306">
          0 0 0 0 0 0
          -0.00003216989489020063 0.00011761889991233924 0 0.000111407645009959 0.00008758428334059817 0
          -0.00028384289438396855 0.0007895705564038273 0 0.00033676486784574983 0.0007380597329249883 0
          -0.000650113044374189 0.002765348924874866 0 0.0007406823070016642 0.0027639164241980746 0
          -0.0010557682711683954 0.006317381759613474 0 0.0011288773787868896 0.006310127882450368 0
          -0.0014763004881079179 0.011534874321656842 0 0.001549959335906144 0.011544614174319382 0
          -0.0018548446787932688 0.018376387621846235 0
          <InformationKey name="L2_NORM_RANGE" location="vtkDataArray" length="2">
            <Value index="0">
              0
            </Value>
            <Value index="1">
              0.018469760984
            </Value>
          </InformationKey>
        </DataArray>
        <DataArray type="Float64" Name="Nodal Stress" NumberOfComponents="6" format="ascii" RangeMin="14311.179815929328" RangeMax="277515.2037456051">
          246333.52835477868 19354.345748615797 0 126332.45987826404 0 0
          18943.037906183723 -33264.16560327818 0 -3992.3746602623246 0 0
          -21440.089149672844 -5029.726837056467 0 -7256.685459495402 0 0
          14615.366245682253 9821.821938131387 0 -5671.620711493946 0 0
          710.9595391803781 13336.426863414184 0 5142.384930585799 0 0
          21432.299264093697 8203.719111418934 0 -6356.93328091956 0 0
          -15342.209121743752 3630.0595452707184 0 3809.0347592660933 0 0
          18576.564489894525 2876.442489828662 0 -6028.322037613169 0 0
          -16733.534233060545 1687.920296757847 0 5802.830936979558 0 0
          18450.134156903423 860.0917180934532 0 -6339.552192452196 0 0
          -18633.911960291498 -919.1401856707457 0 6634.00573235751 0 0
          16102.320963024385 -1901.109390116827 0 -5358.014609287283 0 0
          -18430.902619706383 -3601.5644954573777 0 6893.469101585639 0 0
          <InformationKey name="L2_NORM_RANGE" location="vtkDataArray" length="2">
            <Value index="0">
              14311.179816
            </Value>
            <Value index="1">
              277515.20375
            </Value>
          </InformationKey>
        </DataArray>
        <DataArray type="Float64" Name="Nodal Strain" NumberOfComponents="6" format="ascii" RangeMin="0.0009391532485687441" RangeMax="0.02288982064237282">
          0.0169040253914622 -0.007415172744912395 0 0.013535620701242576 0 0
          0.0025410800505587723 -0.0030525488968835748 0 -0.00042775442788524907 0 0
          -0.0013518018379389013 0.0004064512669842825 0 -0.0007775020135173651 0 0
          0.000693175376901183 0.0001795813439493044 0 -0.0006076736476600657 0 0
          -0.00042551813518047966 0.0009272105067017143 0 0.0005509698139913356 0 0
          0.001237888550598874 -0.00017945932290199383 0 -0.0006810999943842386 0 0
          -0.0012255170638842223 0.000807226007581614 0 0.00040811086706422434 0 0
          0.0012241673746414428 -0.00045798855393704277 0 -0.0006458916468871252 0 0
          -0.0012555353129599619 0.0007181919580920085 0 0.0006217318861049527 0 0
          0.0012871491641326216 -0.0005974982400255898 0 -0.0006792377349055925 0 0
          -0.0012981672762468663 0.000599843985319643 0 0.0007107863284668759 0 0
          0.0012180625470059143 -0.0007108764194020728 0 -0.0005740729938522089 0 0
          -0.00118786574085555 0.00040099191531398667 0 0.0007385859751698899 0 0
          <InformationKey name="L2_NORM_RANGE" location="vtkDataArray" length="2">
            <Value index="0">
              0.00093915324857
            </Value>
            <Value index="1">
              0.022889820642
            </Value>
          </InformationKey>
        </DataArray>
        <DataArray type="Float64" Name="Sld_traction" NumberOfComponents="3" format="ascii" RangeMin="7984.284398763501" RangeMax="32094.736666559027">
          -24.288318541390858 -24196.459368629636 0 -28998.540795843797 13753.426969579306 0
          19406.05084689758 12779.205884547646 0 4917.73257932771 -6290.047983804025 0
          6863.075871291063 9400.82457671139 0 16229.553473918588 -9115.178577525292 0
          15953.844076076402 3897.473856267387 0 17594.13821746644 -3448.5654323582353 0
          17423.952864280018 1176.0149484270426 0 18580.75834964449 -1185.6127965905039 0
          19160.96035154901 -1296.718911464403 0 17580.22894974316 1489.4343416552417 0
          18396.905561191692 -3968.468272276178 0
          <InformationKey name="L2_NORM_RANGE" location="vtkDataArray" length="2">
            <Value index="0">
              7984.2843988
            </Value>
            <Value index="1">
              32094.736667
            </Value>
          </InformationKey>
        </DataArray>
        <DataArray type="Float64" Name="Velocity" NumberOfComponents="3" format="ascii" RangeMin="0" RangeMax="9.798370129865146">
          0 0 0 0 0 0
          -0.14040441826124167 0.4429656031473335 0 0.2457683659249275 0.4359017146879428 0
          -0.3751306820012763 1.6547871552320779 0 0.4196655833901929 1.6478449545818994 0
          -0.47603558399250406 3.6085357298088923 0 0.5991995282685977 3.6394188563464906 0
          -0.4966894990305467 5.816553894860368 0 0.591780615815699 5.8323249332736085 0
          -0.44834715248161705 7.943534084385998 0 0.550967405070407 7.952543062977118 0
          -0.3672248383065675 9.791486256946095 0
          <InformationKey name="L2_NORM_RANGE" location="vtkDataArray" length="2">
            <Value index="0">
              0
            </Value>
            <Value index="1">
              9.7983701299
            </Value>
          </InformationKey>
        </DataArray>
        <DataArray type="Float64" Name="Acceleration" NumberOfComponents="3" format="ascii" RangeMin="0" RangeMax="784.1486191285303">
          0 0 0 0 0 0
          -28.202509416066107 87.45342762144901 0 44.64850029404539 88.36095553282735 0
          -58.963934553697186 297.79966390726304 0 64.11153578400285 300.55124620447486 0
          -50.742266651676516 562.9721063612906 0 69.88521130202184 569.9355282182496 0
          -21.223401730425678 752.3426356019299 0 35.546320733193625 756.5122902560233 0
          25.287032649826077 782.8251632683105 0 -9.425397598749868 784.0919708562806 0
          76.04897350823245 611.969589244547 0
          <InformationKey name="L2_NORM_RANGE" location="vtkDataArray" length="2">
            <Value index="0">
              0
            </Value>
            <Value index="1">
              784.14861913
            </Value>
          </InformationKey>
        </DataArray>
        <DataArray type="Float64" Name="Sigma" NumberOfComponents="6" format="ascii" RangeMin="30989.04475904664" RangeMax="684994.0752099601">
          603010.1544079836 95312.60032059131 0 310662.4292922069 0 0
          -51053.25661119043 -87099.82418320767 0 -62424.071102641356 0 0
          -142990.04846030107 534.8968618491189 0 -53570.947968716166 0 0
          90231.85393595256 37408.159591418145 0 14236.753773692271 0 0
          2297.5063127377903 23510.260051728794 0 20057.667664043376 0 0
          42279.123656315955 8269.927482646894 0 -24029.33946809403 0 0
          -49883.28539354414 4486.635777572284 0 14518.732540289027 0 0
          53928.120104072616 898.6798383093997 0 -15496.716744827656 0 0
          -48049.37342661233 6262.842690736365 0 17590.466631258936 0 0
          52365.36568348755 -1214.5351259846377 0 -19548.62285739399 0 0
          -52689.68653747751 1343.232095605434 0 19663.11812035534 0 0
          47508.53663716702 -5753.397006819563 0 -17793.34192346332 0 0
          -50340.692185936176 -2589.489899415898 0 18722.82299661377 0 0
          <InformationKey name="L2_NORM_RANGE" location="vtkDataArray" length="2">
            <Value index="0">
              30989.044759
            </Value>
            <Value index="1">
              684994.07521
            </Value>
          </InformationKey>
        </DataArray>
        <DataArray type="Float64" Name="Press" format="ascii" RangeMin="-8082.437285960366" RangeMax="4237.966063446333">
          -6595.758351063637 -6049.119404381931 -7402.25421885167 -5907.837322807751 -8082.437285960366 -3381.9850666747643
          -2925.622023375119 2740.299694343458 -4549.877335689121 2462.0671735504866 -2700.0175794293186 4237.966063446333
          -1476.6469891222252
        </DataArray>
        <DataArray type="Float64" Name="Dev strain" NumberOfComponents="6" format="ascii" RangeMin="0.001173860821372964" RangeMax="0.02299068372497587">
          0.017141908340795778 -0.007177289795578815 0 0.013535620701242576 0 0
          0.0027710112189922656 -0.0028226177284500814 0 -0.00042775442788524907 0 0
          -0.0011047612593540392 0.0006534918455691436 0 -0.0007775020135173651 0 0
          0.0009189120180247761 0.0004053179850728976 0 -0.0006076736476600657 0 0
          -0.00019515460917764017 0.0011575740327045534 0 0.0005509698139913356 0 0
          0.0013732324989535877 -0.00004411537454727988 0 -0.0006810999943842386 0 0
          -0.0011318580832099282 0.0009008849882559079 0 0.00040811086706422434 0 0
          0.0012224683223949903 -0.0004596876061834952 0 -0.0006458916468871252 0 0
          -0.0011885109978374878 0.0007852162732144824 0 0.0006217318861049527 0 0
          0.0012655691672015029 -0.0006190782369567085 0 -0.0006792377349055925 0 0
          -0.0012718977425343852 0.0006261135190321242 0 0.0007107863284668759 0 0
          0.001145721207932969 -0.0007832177584750178 0 -0.0005740729938522089 0 0
          -0.001207122897127082 0.00038173475904245487 0 0.0007385859751698899 0 0
          <InformationKey name="L2_NORM_RANGE" location="vtkDataArray" length="2">
            <Value index="0">
              0.0011738608214
            </Value>
            <Value index="1">
              0.022990683725
            </Value>
          </InformationKey>
        </DataArray>
        <DataArray type="Float64" Name="J2 Stresses" format="ascii" RangeMin="379582939.5087952" RangeMax="210480655292.94043">
          210480655292.94043 6070598354.933779 10940681653.232756 4821250223.871228 379582939.5087952 1072310287.6753721
          1306934429.7712946 1514561939.172888 1251338871.705833 1467340473.2739701 1485663223.493913 1224232069.46288
          1358081399.0898085
        </DataArray>
      </PointData>
      <CellData>
        <DataArray type="UInt8" Name="vtkGhostType" format="ascii" RangeMin="0" RangeMax="0">
          0 0 0 0 0 0
          0 0 0 0 0
        </DataArray>
        <DataArray type="Float64" Name="Gauss Stress" NumberOfComponents="6" format="ascii" RangeMin="10423.232223242843" RangeMax="145021.69375200808">
          -41056.88736052674 -22838.659558660576 0 -33919.42176588841 0 0
          129639.90578739822 -3766.486325021495 0 64889.13674028311 0 0
          39145.40807652114 17272.02915011698 0 3421.693989880535 0 0
          -23951.072346410165 13353.59589245876 0 -6425.508843660168 0 0
          14252.216990379344 3362.6452342740504 0 -8335.77455754422 0 0
          -6565.5666001668815 7292.259645312572 0 3515.68691207946 0 0
          19632.20063105089 2199.8256450886497 0 -5818.290990320905 0 0
          -16246.57946026821 2304.3195472990883 0 5537.494142240103 0 0
          17061.410480248192 -541.5614598770889 0 -5892.948886833992 0 0
          -17720.507340723412 534.5706395964024 0 5901.653964740098 0 0
          -18486.846863783958 -2312.784438578413 0 6864.199731168598 0 0
          <InformationKey name="L2_NORM_RANGE" location="vtkDataArray" length="2">
            <Value index="0">
              10423.232223
            </Value>
            <Value index="1">
              145021.69375
            </Value>
          </InformationKey>
        </DataArray>
        <DataArray type="Float64" Name="Gauss Strain" NumberOfComponents="6" format="ascii" RangeMin="0.0011155679428268743" RangeMax="0.012672541524832484">
          -0.0021169683986568904 -0.00016501541988551494 0 -0.003634223760630901 0 0
          0.009394510639279215 -0.004899031372765758 0 0.006952407507887474 0 0
          0.002179242392961618 -0.00016433392058168457 0 0.00036661007034434294 0 0
          -0.0021877050209028253 0.0018092237189759888 0 -0.0006884473761064469 0 0
          0.0008979210266601657 -0.00026881880435111576 0 -0.0008931187025940236 0 0
          -0.0007294068873445125 0.0007553602103854296 0 0.0003766807405799422 0 0
          0.0013237348434647553 -0.0005440196193169138 0 -0.0006233883203915256 0 0
          -0.001242767088136983 0.000744829234102371 0 0.0005933029438114398 0 0
          0.0012380136578704817 -0.0006480190500000847 0 -0.0006313873807322136 0 0
          -0.001284842332894401 0.000671058879282722 0 0.0006323200676507247 0 0
          -0.001237889617463911 0.0004950456423795403 0 0.0007354499711966356 0 0
          <InformationKey name="L2_NORM_RANGE" location="vtkDataArray" length="2">
            <Value index="0">
              0.0011155679428
            </Value>
            <Value index="1">
              0.012672541525
            </Value>
          </InformationKey>
        </DataArray>
      </CellData>
      <Points>
        <DataArray type="Float32" Name="Points" NumberOfComponents="3" format="ascii" RangeMin="0" RangeMax="0.6020797527609908">
          0 0.05000000074505806 0 0 0 0
          0.10000000149011612 0.05000000074505806 0 0.10000000149011612 0 0
          0.20000000298023224 0.05000000074505806 0 0.20000000298023224 0 0
          0.30000001192092896 0.05000000074505806 0 0.30000001192092896 0 0
          0.4000000059604645 0.05000000074505806 0 0.4000000059604645 0 0
          0.5 0.05000000074505806 0 0.5 0 0
          0.6000000238418579 0.05000000074505806 0
          <InformationKey name="L2_NORM_RANGE" location="vtkDataArray" length="2">
            <Value index="0">
              0
            </Value>
            <Value index="1">
              0.60207975276
            </Value>
          </InformationKey>
        </DataArray>
      </Points>
      <Cells>
        <DataArray type="Int64" Name="connectivity" format="ascii" RangeMin="0" RangeMax="12">
          3 2 1 2 0 1
          5 4 3 4 2 3
          7 6 5 6 4 5
          9 8 7 8 6 7
          11 10 9 10 8 9
          12 10 11
        </DataArray>
        <DataArray type="Int64" Name="offsets" format="ascii" RangeMin="3" RangeMax="33">
          3 6 9 12 15 18
          21 24 27 30 33
        </DataArray>
        <DataArray type="UInt8" Name="types" format="ascii" RangeMin="5" RangeMax="5">
          5 5 5 5 5 5
          5 5 5 5 5
        </DataArray>
      </Cells>
    </Piece>
  </UnstructuredGrid>
</VTKFile>
