<?xml version="1.0"?>
<VTKFile type="UnstructuredGrid" version="0.1" byte_order="LittleEndian" header_type="UInt32" compressor="vtkZLibDataCompressor">
  <UnstructuredGrid>
    <Piece NumberOfPoints="13" NumberOfCells="11">
      <PointData>
        <DataArray type="Float64" Name="Disp" NumberOfComponents="3" format="ascii" RangeMin="0.045254302762008994" RangeMax="0.1877360014253755">
          -0.006085693857007292 -0.06691755725651458 0 0.005630543150441025 -0.09040833881150921 0
          -0.006340122725368492 -0.09045743046651934 0 0.005726246789058157 -0.1146327638101777 0
          -0.006432098420499789 -0.11465710125010041 0 0.005736722116971538 -0.1390078957418697 0
          -0.006439464767773541 -0.1390183285341243 0 0.005724473617877698 -0.16334064871685972 0
          -0.006424483425650466 -0.1633410830432946 0 0.005722065187147002 -0.18762669845699195 0
          -0.006417861488602464 -0.18762627024247353 0 0.005359348673453672 -0.06684760335490712 0
          -0.0055036020938987506 -0.04491839581360412 0
          <InformationKey name="L2_NORM_RANGE" location="vtkDataArray" length="2">
            <Value index="0">
              0.045254302762
            </Value>
            <Value index="1">
              0.18773600143
            </Value>
          </InformationKey>
        </DataArray>
        <DataArray type="Float64" Name="Nodal Stress" NumberOfComponents="6" format="ascii" RangeMin="194.7328395381644" RangeMax="47395.75856485011">
          -13848.834656567735 17384.593071035266 0 1869.109853839674 0 0
          25470.804004115653 13732.516184067319 0 -8657.388921944268 0 0
          -6419.247717579445 11109.79360942653 0 178.12203873701108 0 0
          13212.741964193427 8263.1275420114 0 -4269.975327751161 0 0
          -2190.415338187487 6310.01289034293 0 -642.8659794992283 0 0
          5640.431593995878 3784.975319850355 0 -1453.8048917933202 0 0
          -709.6080750614301 2346.362280285227 0 -585.0869269242289 0 0
          1416.8636822551405 871.663933193159 0 -156.26252217806055 0 0
          -362.17028127273386 225.31556416049887 0 -208.6840005347286 0 0
          1.379242510953893 -177.45833897755418 0 80.17178064643406 0 0
          -329.34246901667734 -238.67219763509 0 -40.02763535972843 0 0
          40932.32185604539 19038.413326074864 0 -14437.512785663852 0 0
          -28015.809330557488 18884.54569970839 0 6698.956441853595 0 0
          <InformationKey name="L2_NORM_RANGE" location="vtkDataArray" length="2">
            <Value index="0">
              194.73283954
            </Value>
            <Value index="1">
              47395.758565
            </Value>
          </InformationKey>
        </DataArray>
        <DataArray type="Float64" Name="Nodal Strain" NumberOfComponents="6" format="ascii" RangeMin="0.00001647257989889708" RangeMax="0.0036323323105666772">
          -0.001610080799434669 0.0017363578856656521 0 0.00020026177005425083 0 0
          0.001328896136577286 0.00007122244157210656 0 -0.0009275773844940284 0 0
          -0.0008552960373066221 0.001022815533444018 0 0.000019084504150394055 0 0
          0.0006486555852276951 0.00011833975427962054 0 -0.0004574973565447673 0 0
          -0.00038181584166849654 0.0005289443256740482 0 -0.00006887849780348872 0 0
          0.00026771028100505 0.00006891139448945834 0 -0.0001557648098349986 0 0
          -0.000134484943943146 0.0001929404512725673 0 -0.00006268788502759596 0 0
          0.00007007369397561153 0.000011659435147542058 0 -0.00001674241309050649 0 0
          -0.000033916290239498815 0.000029028621771204704 0 -0.000022359000057292354 0 0
          0.000006436315142837925 -0.000012724854302359366 0 0.000008589833640689362 0 0
          -0.000015000455014223735 -0.0000052857830804822445 0 -0.000004288675217113762 0 0
          0.0022437939423577114 -0.00010198197156770163 0 -0.0015468763698925554 0 0
          -0.0026755772986008348 0.002349460740356224 0 0.0007177453330557422 0 0
          <InformationKey name="L2_NORM_RANGE" location="vtkDataArray" length="2">
            <Value index="0">
              1.6472579899e-05
            </Value>
            <Value index="1">
              0.0036323323106
            </Value>
          </InformationKey>
        </DataArray>
        <DataArray type="Float64" Name="Sld_traction" NumberOfComponents="3" format="ascii" RangeMin="161.67471718204996" RangeMax="38649.58390543443">
          -16215.319552931745 -17174.54115941125 0 -18365.17757528619 13345.44354183108 0
          -6577.463642876146 -11639.303426251287 0 -8314.298237791478 7936.331045012248 0
          -1556.3142745436933 -6693.64990756302 0 -2398.7790822890806 3510.6668643933785 0
          446.05226234545466 -2697.216211726301 0 3.533872924477138 767.3210392607986 0
          473.3056572035054 -408.6321660594943 0 167.62055507885032 -19.807715280573028 0
          54.29909752247562 152.28368981654117 0 -33754.29030449131 18826.529741387298 0
          -29076.590590986987 -20034.92623739644 0
          <InformationKey name="L2_NORM_RANGE" location="vtkDataArray" length="2">
            <Value index="0">
              161.67471718
            </Value>
            <Value index="1">
              38649.583905
            </Value>
          </InformationKey>
        </DataArray>
        <DataArray type="Float64" Name="Velocity" NumberOfComponents="3" format="ascii" RangeMin="0.783091984499083" RangeMax="13.562065165385366">
          -0.32964746753777296 0.710327813993402 0 0.596011257884502 -1.1607794669971696 0
          -0.5386366787274413 -1.1713250413697835 0 0.7504736582736857 -3.7746713760721278 0
          -0.6911346986764073 -3.7898613457200128 0 0.836728581343936 -6.8711700169999546 0
          -0.7780043390220457 -6.883293394174878 0 0.8684964816918606 -10.19109567915119 0
          -0.8044312963002147 -10.202033669977297 0 0.8626251130114584 -13.53460340994745 0
          -0.7975955687682066 -13.534338950450731 0 0.38676924417194325 0.7148237870492267 0
          -0.09948763244335268 1.6831007205432584 0
          <InformationKey name="L2_NORM_RANGE" location="vtkDataArray" length="2">
            <Value index="0">
              0.7830919845
            </Value>
            <Value index="1">
              13.562065165
            </Value>
          </InformationKey>
        </DataArray>
        <DataArray type="Float64" Name="Acceleration" NumberOfComponents="3" format="ascii" RangeMin="283.6069575108959" RangeMax="1602.361285699331">
          48.98579495049489 1601.6123381770885 0 64.64597450475776 1570.7443656968971 0
          -15.400760164403437 1570.044927597759 0 122.06286143944635 1289.5696074947336 0
          -70.09465553176415 1285.4596758765838 0 156.83314050665967 822.5240296326665 0
          -104.24856958807322 818.4015692279354 0 170.48666720795836 263.3357197200821 0
          -115.14500693434911 259.18050414079335 0 168.3905747701092 -307.57423188519897 0
          -112.7426487945213 -307.4521683297353 0 -2.6315795461623566 1598.5571346873548 0
          102.68967159526164 1375.2597608721699 0
          <InformationKey name="L2_NORM_RANGE" location="vtkDataArray" length="2">
            <Value index="0">
              283.60695751
            </Value>
            <Value index="1">
              1602.3612857
            </Value>
          </InformationKey>
        </DataArray>
        <DataArray type="Float64" Name="Sigma" NumberOfComponents="6" format="ascii" RangeMin="415.6025192504963" RangeMax="113797.15879648285">
          -45776.58612851647 32436.77382478503 0 14023.874796049824 0 0
          63097.22475476218 16252.558321240229 0 -16981.6360085202 0 0
          -22499.501588421896 18942.674611975424 0 6108.960406663353 0 0
          31446.771291685352 10674.093004918448 0 -7790.983094349527 0 0
          -7777.8361742612415 10938.93203470272 0 1005.0654345536419 0 0
          13093.756501865262 4861.2307710817595 0 -1740.2210408305664 0 0
          -2099.321926201291 4173.439397083463 0 -791.3364976157548 0 0
          3175.7024358410463 1099.00075306525 0 359.19276393731116 0 0
          -391.28881667195054 545.4741259340352 0 -516.033018163351 0 0
          -87.92974284432253 -356.6394359313001 0 324.65322262818415 0 0
          -207.2274904633485 -359.91357245967805 0 15.63462704812655 0 0
          105095.13721528552 26765.287955206466 0 -34473.53832328682 0 0
          -84348.75998515445 30079.068213077175 0 35087.45772672782 0 0
          <InformationKey name="L2_NORM_RANGE" location="vtkDataArray" length="2">
            <Value index="0">
              415.60251925
            </Value>
            <Value index="1">
              113797.1588
            </Value>
          </InformationKey>
        </DataArray>
        <DataArray type="Float64" Name="Press" format="ascii" RangeMin="-13862.932260369247" RangeMax="56.141531067973986">
          -13862.932260369247 -3617.0111865355707 -7793.2968321851895 -2718.1665416080123 -4274.464160771724 -1702.4974889546675
          -1818.7892272195588 -625.8591585237888 -445.24540896284356 -90.73398879684332 56.141531067973986 -5190.741706349055
          -12476.565294063046
        </DataArray>
        <DataArray type="Float64" Name="Dev strain" NumberOfComponents="6" format="ascii" RangeMin="0.000012102987766045983" RangeMax="0.0036394681449155746">
          -0.0012497743664756423 0.0020966643186246794 0 0.00020026177005425083 0 0
          0.0015459301650066885 0.0002882564700015096 0 -0.0009275773844940284 0 0
          -0.0006244402847157311 0.001253671286034909 0 0.000019084504150394055 0 0
          0.0007848580552010645 0.00025454222425299016 0 -0.0004574973565447673 0 0
          -0.00025056524915313813 0.0006601949181894067 0 -0.00006887849780348872 0 0
          0.0003443338447248191 0.00014553495820922733 0 -0.0001557648098349986 0 0
          -0.00007410054445502443 0.00025332485076068887 0 -0.00006268788502759596 0 0
          0.00010006314546745393 0.000041648886639384476 0 -0.00001674241309050649 0 0
          -0.000016454068678278835 0.00004649084333242468 0 -0.000022359000057292354 0 0
          0.000014575352645377548 -0.000004585816799819742 0 0.000008589833640689362 0 0
          -0.000011217452017583209 -0.0000015027800838417156 0 -0.000004288675217113762 0 0
          0.0024975787327559873 0.0001518028188305745 0 -0.0015468763698925554 0 0
          -0.002283317832473299 0.00274172020648376 0 0.0007177453330557422 0 0
          <InformationKey name="L2_NORM_RANGE" location="vtkDataArray" length="2">
            <Value index="0">
              1.2102987766e-05
            </Value>
            <Value index="1">
              0.0036394681449
            </Value>
          </InformationKey>
        </DataArray>
        <DataArray type="Float64" Name="J2 Stresses" format="ascii" RangeMin="86301.61661294608" RangeMax="6177790463.944186">
          1622987332.9446926 2194796702.250612 441856095.90383387 566592697.4687175 90330023.93867972 98296104.28766286
          11068927.838593628 5678699.168538602 291896.99901671184 93811.59220974863 86301.61661294608 6177790463.944186
          4317514250.231299
        </DataArray>
      </PointData>
      <CellData>
        <DataArray type="UInt8" Name="vtkGhostType" format="ascii" RangeMin="0" RangeMax="1">
          1 1 0 0 0 0
          0 0 0 0 0
        </DataArray>
        <DataArray type="Float64" Name="Gauss Stress" NumberOfComponents="6" format="ascii" RangeMin="449.04802426355496" RangeMax="39632.09850885545">
          -18853.482719722255 19250.296910762438 0 4879.264733163611 0 0
          33248.363562759114 17594.64498265928 0 -12477.099845252396 0 0
          -10150.70108042207 14119.588826303556 0 1050.3997313976597 0 0
          -4538.83133518757 8589.924039010555 0 -225.65241771084402 0 0
          19305.339965898955 10580.283792601775 0 -6221.219565402125 0 0
          -1526.3841585144073 4059.2837753073304 0 -508.83070129755976 0 0
          9355.85447598499 5926.375873122841 0 -2842.0462335421503 0 0
          -734.9340339127953 976.0068271255187 0 -316.05891728059817 0 0
          3340.997045602334 1995.5083488441524 0 -724.1215915030031 0 0
          -388.7613055571114 -216.97224971621867 0 -58.581722829013415 0 0
          511.5484400137656 41.998962261503095 0 55.937656134048154 0 0
          <InformationKey name="L2_NORM_RANGE" location="vtkDataArray" length="2">
            <Value index="0">
              449.04802426
            </Value>
            <Value index="1">
              39632.098509
            </Value>
          </InformationKey>
        </DataArray>
        <DataArray type="Float64" Name="Gauss Strain" NumberOfComponents="6" format="ascii" RangeMin="0.00002104249202351342" RangeMax="0.002933768222154175">
          -0.0020341879410788206 0.002048359876473112 0 0.0005227783642675299 0 0
          0.0017465029336735344 0.000069318800091409 0 -0.0013368321262770431 0 0
          -0.0012293211066838462 0.001371067097608185 0 0.00011254282836403501 0 0
          -0.0006309852396209176 0.0007756671219003101 0 -0.000024177044754733267 0 0
          0.0010010855763998622 0.0000662581292608784 0 -0.0006665592391502276 0 0
          -0.00025400186044057665 0.0003444625610403239 0 -0.00005451757513902426 0 0
          0.000456619038530255 0.00008917490250931053 0 -0.0003045049535938018 0 0
          -0.00008735267481968249 0.00009596241743442261 0 -0.000033863455422921235 0 0
          0.00016737449079858984 0.00002321498757449897 0 -0.00007758445623246462 0 0
          -0.00002001965576421444 -0.0000016136854955473526 0 -0.000006276613160251436 0 0
          0.000035039211348786726 -0.00001526966126752712 0 0.000005993320300076591 0 0
          <InformationKey name="L2_NORM_RANGE" location="vtkDataArray" length="2">
            <Value index="0">
              2.1042492024e-05
            </Value>
            <Value index="1">
              0.0029337682222
            </Value>
          </InformationKey>
        </DataArray>
      </CellData>
      <Points>
        <DataArray type="Float32" Name="Points" NumberOfComponents="3" format="ascii" RangeMin="0.4000000059604645" RangeMax="1.0012492197622458">
          0.5 0 0 0.6000000238418579 0.05000000074505806 0
          0.6000000238418579 0 0 0.699999988079071 0.05000000074505806 0
          0.699999988079071 0 0 0.800000011920929 0.05000000074505806 0
          0.800000011920929 0 0 0.8999999761581421 0.05000000074505806 0
          0.8999999761581421 0 0 1 0.05000000074505806 0
          1 0 0 0.5 0.05000000074505806 0
          0.4000000059604645 0 0
          <InformationKey name="L2_NORM_RANGE" location="vtkDataArray" length="2">
            <Value index="0">
              0.40000000596
            </Value>
            <Value index="1">
              1.0012492198
            </Value>
          </InformationKey>
        </DataArray>
      </Points>
      <Cells>
        <DataArray type="Int64" Name="connectivity" format="ascii" RangeMin="0" RangeMax="12">
          0 11 12 1 11 0
          2 1 0 4 3 2
          3 1 2 6 5 4
          5 3 4 8 7 6
          7 5 6 10 9 8
          9 7 8
        </DataArray>
        <DataArray type="Int64" Name="offsets" format="ascii" RangeMin="3" RangeMax="33">
          3 6 9 12 15 18
          21 24 27 30 33
        </DataArray>
        <DataArray type="UInt8" Name="types" format="ascii" RangeMin="5" RangeMax="5">
          5 5 5 5 5 5
          5 5 5 5 5
        </DataArray>
      </Cells>
    </Piece>
  </UnstructuredGrid>
</VTKFile>
