<?xml version="1.0"?>
<VTKFile type="UnstructuredGrid" version="0.1" byte_order="LittleEndian" header_type="UInt32" compressor="vtkZLibDataCompressor">
  <UnstructuredGrid>
    <Piece NumberOfPoints="13" NumberOfCells="11">
      <PointData>
        <DataArray type="Float64" Name="Disp" NumberOfComponents="3" format="ascii" RangeMin="0" RangeMax="0.004927985656196959">
          0 0 0 0 0 0
          -0.00021777189486802995 0.0006614344951077198 0 0.00031013881661675854 0.0006832947784624635 0
          -0.00034679903589785507 0.0020571080553993424 0 0.00035538062426807823 0.002105935111950167 0
          -0.00009526549702834012 0.0032476159471294106 0 0.00019561303347489546 0.00330771694521554 0
          0.0003590052589958793 0.003002432345872469 0 -0.00029681269067984576 0.0030461620345477807 0
          0.0009876380507372095 0.0005295604001478924 0 -0.0009156142526732614 0.0005449651237445459 0
          0.0016708268584457217 -0.004636095365367215 0
          <InformationKey name="L2_NORM_RANGE" location="vtkDataArray" length="2">
            <Value index="0">
              0
            </Value>
            <Value index="1">
              0.0049279856562
            </Value>
          </InformationKey>
        </DataArray>
        <DataArray type="Float64" Name="Nodal Stress" NumberOfComponents="6" format="ascii" RangeMin="13011.043311723015" RangeMax="467537.20092694">
          392728.890258693 116606.80312518071 0 225295.1541238708 0 0
          19192.414997037125 7209.017072241241 0 17080.63048172683 0 0
          -28839.687353265817 -7753.098376602233 0 331.3091243949244 0 0
          -1578.3140842444543 -13084.814918043907 0 -3065.591151086554 0 0
          6082.258780877243 -5841.93504195151 0 10543.02718593462 0 0
          -6943.559936858853 -10164.511774096112 0 4213.8965171255 0 0
          -2869.018285101064 -16362.760623035958 0 778.601993284849 0 0
          -22279.674169767517 -15644.553022991695 0 8824.32907191215 0 0
          12184.073228728448 -11420.635742561108 0 -2969.4094231656904 0 0
          -27761.643442483313 -9305.648272366738 0 10166.007346501714 0 0
          21716.719797445563 -6773.714344697542 0 -7252.305808204387 0 0
          -30563.24305979771 -4980.785773960367 0 10774.748323527094 0 0
          27825.71289282952 -1477.7974210827088 0 -10025.907490212634 0 0
          <InformationKey name="L2_NORM_RANGE" location="vtkDataArray" length="2">
            <Value index="0">
              13011.043312
            </Value>
            <Value index="1">
              467537.20093
            </Value>
          </InformationKey>
        </DataArray>
        <DataArray type="Float64" Name="Nodal Strain" NumberOfComponents="6" format="ascii" RangeMin="0.0006708591448116348" RangeMax="0.03443471925763461">
          0.023887534906864478 -0.005696974428868984 0 0.024138766513271875 0 0
          0.0011134218900654658 -0.00017051360187695194 0 0.0018300675516135887 0 0
          -0.0017830812974974784 0.0004761960928593336 0 0.000035497406185171424 0 0
          0.0003545780981983926 -0.0008782612768515484 0 -0.0003284561947592737 0 0
          0.0006430875929894999 -0.0006345046023135809 0 0.0011296100556358523 0 0
          -0.00013295028927219995 -0.00047805227183333473 0 0.0004514889125491608 0 0
          0.000379454430458351 -0.0010663036771775306 0 0.0000834216421376624 0 0
          -0.0010326712613051197 -0.00032176542415056694 0 0.0009454638291334447 0 0
          0.0012781707928577858 -0.0012509051683518096 0 -0.0003181510096248954 0 0
          -0.0016506299504499965 0.0003267981034910655 0 0.0010892150728394694 0 0
          0.0017931126406995953 -0.0012594338745300234 0 -0.0007770327651647556 0 0
          -0.002005203583772681 0.000735773982567035 0 0.001154437320377903 0 0
          0.0020403294002407776 -0.001099332419106962 0 -0.0010742043739513537 0 0
          <InformationKey name="L2_NORM_RANGE" location="vtkDataArray" length="2">
            <Value index="0">
              0.00067085914481
            </Value>
            <Value index="1">
              0.034434719258
            </Value>
          </InformationKey>
        </DataArray>
        <DataArray type="Float64" Name="Sld_traction" NumberOfComponents="3" format="ascii" RangeMin="9780.55794770759" RangeMax="64695.965238096906">
          16348.66435572107 882.5590198133189 0 -56801.18643962457 -30970.843339180363 0
          40247.83738630638 12120.32540647517 0 -2524.4697005288767 9449.146337081342 0
          6275.748260250215 -8405.859118012853 0 -2585.2007723854695 11031.282602099544 0
          -1557.6281707998544 -15691.51115492475 0 -17756.733464912766 14943.24757928629 0
          -16237.796238230922 -10923.240142979881 0 -25819.687558751128 10176.47360323272 0
          -24871.119462306993 -6167.6414981138005 0 -30069.186146548513 5512.011291968057 0
          -30322.31469091813 -680.5221628037377 0
          <InformationKey name="L2_NORM_RANGE" location="vtkDataArray" length="2">
            <Value index="0">
              9780.5579477
            </Value>
            <Value index="1">
              64695.965238
            </Value>
          </InformationKey>
        </DataArray>
        <DataArray type="Float64" Name="Velocity" NumberOfComponents="3" format="ascii" RangeMin="0" RangeMax="3.700280104029767">
          0 0 0 0 0 0
          -0.04730841685058842 0.1479197617150116 0 0.057061081302819755 0.16023309105952235 0
          -0.019226146259555654 0.3507521910085477 0 0.017421884177651392 0.3708169413911504 0
          0.11695171843947631 0.21313029053344956 0 -0.09920475550381298 0.21928010417832677 0
          0.26836979672559397 -0.5233453373413812 0 -0.2547276493600642 -0.5237297399143825 0
          0.40523193736797875 -1.8576651573140608 0 -0.39059216080656944 -1.866371108081816 0
          0.5011442013920274 -3.6661870298294508 0
          <InformationKey name="L2_NORM_RANGE" location="vtkDataArray" length="2">
            <Value index="0">
              0
            </Value>
            <Value index="1">
              3.700280104
            </Value>
          </InformationKey>
        </DataArray>
        <DataArray type="Float64" Name="Acceleration" NumberOfComponents="3" format="ascii" RangeMin="0" RangeMax="1571.8666155674275">
          0 0 0 0 0 0
          56.54417896821877 -172.23376300336798 0 -87.24708832004555 -172.9774507404857 0
          119.29361468044601 -589.3948229213418 0 -125.53491664738438 -593.975206347284 0
          102.18554503439829 -1115.180925636797 0 -135.05967558945264 -1127.3450146738949 0
          44.70436299663625 -1482.7689047918582 0 -67.79994292761921 -1485.3690325463062 0
          -22.15047332989826 -1571.71053749304 0 -1.6345985522993232 -1565.3018796782749 0
          -55.474821718741964 -1435.2590065301924 0
          <InformationKey name="L2_NORM_RANGE" location="vtkDataArray" length="2">
            <Value index="0">
              0
            </Value>
            <Value index="1">
              1571.8666156
            </Value>
          </InformationKey>
        </DataArray>
        <DataArray type="Float64" Name="Sigma" NumberOfComponents="6" format="ascii" RangeMin="35012.349238381044" RangeMax="1121468.847581198">
          953473.4011390625 278578.925614864 0 520552.23716614326 0 0
          -110028.2106225259 -22887.27623325562 0 -62613.83903148791 0 0
          -206315.12418805453 -48155.45606297738 0 -77310.01880531515 0 0
          79523.44287584646 -6332.3388055576725 0 21168.20042425331 0 0
          30278.445606344285 6683.674684310751 0 30174.862372955908 0 0
          -32325.360063349402 -11539.408775875498 0 -6912.144462352112 0 0
          -4887.904325111593 -34429.61200407215 0 -5734.941125007216 0 0
          -53155.88518888913 -24394.276077187315 0 21991.582059467975 0 0
          42966.53261527536 -17208.479242497913 0 -16580.866897726144 0 0
          -75172.47085262887 -9473.183975536123 0 25486.21701395679 0 0
          66741.15176573224 -14845.369041731405 0 -25368.368713473745 0 0
          -85285.85400809917 -3248.1770104847365 0 30981.675237211617 0 0
          81019.74903488402 -6645.251717692484 0 -31172.37502222085 0 0
          <InformationKey name="L2_NORM_RANGE" location="vtkDataArray" length="2">
            <Value index="0">
              35012.349238
            </Value>
            <Value index="1">
              1121468.8476
            </Value>
          </InformationKey>
        </DataArray>
        <DataArray type="Float64" Name="Press" format="ascii" RangeMin="-6282.657648782679" RangeMax="11656.179015865268">
          -6282.657648782679 -3902.3445055807074 -3220.2466296259777 1618.0957579583499 -755.1794411274784 491.1236826210573
          11656.179015865268 7113.963885207136 8224.649022593672 -16.7676390064563 8014.682051675952 -2570.545958761087
          5945.9809091357365
        </DataArray>
        <DataArray type="Float64" Name="Dev strain" NumberOfComponents="6" format="ascii" RangeMin="0.0007692056518048886" RangeMax="0.034528349829373146">
          0.024063319785728513 -0.005521189550004948 0 0.024138766513271875 0 0
          0.001232682752442248 -0.000051252739500170216 0 0.0018300675516135887 0 0
          -0.0016910342309411973 0.0005682431594156159 0 0.000035497406185171424 0 0
          0.00035949922443862035 -0.0008733401506113211 0 -0.0003284561947592737 0 0
          0.000618911120904282 -0.0006586810743987988 0 0.0011296100556358523 0 0
          -0.00023259553001138856 -0.0005776975125725236 0 0.0004514889125491608 0 0
          0.00010380943399313012 -0.0013419486736427515 0 0.0000834216421376624 0 0
          -0.001279456366756832 -0.0005685505296022793 0 0.0009454638291334447 0 0
          0.0010305126151925936 -0.001498563346017002 0 -0.0003181510096248954 0 0
          -0.0017605152904528135 0.00021691276348824833 0 0.0010892150728394694 0 0
          0.0016232195006809945 -0.0014293270145486244 0 -0.0007770327651647556 0 0
          -0.0020253218709992853 0.0007156556953404307 0 0.001154437320377903 0 0
          0.0019487152873957619 -0.0011909465319519773 0 -0.0010742043739513537 0 0
          <InformationKey name="L2_NORM_RANGE" location="vtkDataArray" length="2">
            <Value index="0">
              0.0007692056518
            </Value>
            <Value index="1">
              0.034528349829
            </Value>
          </InformationKey>
        </DataArray>
        <DataArray type="Float64" Name="J2 Stresses" format="ascii" RangeMin="600987864.3280747" RangeMax="561102530142.881">
          561102530142.881 7295140482.651405 23936648960.602394 3294061418.088533 708358467.6177305 600987864.3280747
          612867283.1480217 1831221838.1417763 1139858628.1795292 3032707608.78247 2498271693.2965393 3882079824.017135
          3547108793.1650367
        </DataArray>
      </PointData>
      <CellData>
        <DataArray type="UInt8" Name="vtkGhostType" format="ascii" RangeMin="0" RangeMax="0">
          0 0 0 0 0 0
          0 0 0 0 0
        </DataArray>
        <DataArray type="Float64" Name="Gauss Stress" NumberOfComponents="6" format="ascii" RangeMin="11081.127111427631" RangeMax="252013.5434627147">
          -80774.79577066074 -27626.522159679662 0 -39585.21913751657 0 0
          207908.27251483078 64710.31484488053 0 126876.12644311336 0 0
          26276.856139431082 -3278.010965890165 0 14810.306111619033 0 0
          -32956.85533955295 -16720.483499006463 0 -8655.65200270197 0 0
          -23702.627664552227 -17034.010091147167 0 3114.8321573695525 0 0
          1485.7681584140464 -9297.740946092686 0 5842.592261865524 0 0
          -23346.659385816103 -11918.03134214233 0 10298.977391899545 0 0
          3972.511674980242 -16345.858466697096 0 -108.07532108846317 0 0
          -29429.93488036247 -7379.787191281286 0 10366.507845898224 0 0
          16919.258987880632 -8434.822941500759 0 -5487.672865747705 0 0
          24621.721264855907 -4449.560255952674 0 -8519.689499494329 0 0
          <InformationKey name="L2_NORM_RANGE" location="vtkDataArray" length="2">
            <Value index="0">
              11081.127111
            </Value>
            <Value index="1">
              252013.54346
            </Value>
          </InformationKey>
        </DataArray>
        <DataArray type="Float64" Name="Gauss Strain" NumberOfComponents="6" format="ascii" RangeMin="0.0010479661589963478" RangeMax="0.01870535017393952">
          -0.004782966763630065 0.000911491123260764 0 -0.004241273479019633 0 0
          0.01253950822088504 -0.0028031301008953477 0 0.013593870690333576 0 0
          0.0019939901158840118 -0.0011726027882575502 0 0.001586818511959182 0 0
          -0.0017569009707178369 -0.00001728970208785658 0 -0.000927391286003783 0 0
          -0.0010846873299270462 -0.00037019258991936117 0 0.0003337320168610235 0 0
          0.00043818847367574213 -0.0007171875018071221 0 0.0006259920280570204 0 0
          -0.00124197455105321 -0.000017478689231020236 0 0.001103461863417808 0 0
          0.0008675314934520567 -0.001309436736013373 0 -0.000011579498688049682 0 0
          -0.0018385743774801309 0.0005239414463499965 0 0.001110697269203381 0 0
          0.0015097621756165012 -0.0012067466025315057 0 -0.0005879649499015397 0 0
          0.0019176072423451604 -0.0011971729205986165 0 -0.000912823874945821 0 0
          <InformationKey name="L2_NORM_RANGE" location="vtkDataArray" length="2">
            <Value index="0">
              0.001047966159
            </Value>
            <Value index="1">
              0.018705350174
            </Value>
          </InformationKey>
        </DataArray>
      </CellData>
      <Points>
        <DataArray type="Float32" Name="Points" NumberOfComponents="3" format="ascii" RangeMin="0" RangeMax="0.6020797527609908">
          0 0.05000000074505806 0 0 0 0
          0.10000000149011612 0.05000000074505806 0 0.10000000149011612 0 0
          0.20000000298023224 0.05000000074505806 0 0.20000000298023224 0 0
          0.30000001192092896 0.05000000074505806 0 0.30000001192092896 0 0
          0.4000000059604645 0.05000000074505806 0 0.4000000059604645 0 0
          0.5 0.05000000074505806 0 0.5 0 0
          0.6000000238418579 0.05000000074505806 0
          <InformationKey name="L2_NORM_RANGE" location="vtkDataArray" length="2">
            <Value index="0">
              0
            </Value>
            <Value index="1">
              0.60207975276
            </Value>
          </InformationKey>
        </DataArray>
      </Points>
      <Cells>
        <DataArray type="Int64" Name="connectivity" format="ascii" RangeMin="0" RangeMax="12">
          3 2 1 2 0 1
          5 4 3 4 2 3
          7 6 5 6 4 5
          9 8 7 8 6 7
          11 10 9 10 8 9
          12 10 11
        </DataArray>
        <DataArray type="Int64" Name="offsets" format="ascii" RangeMin="3" RangeMax="33">
          3 6 9 12 15 18
          21 24 27 30 33
        </DataArray>
        <DataArray type="UInt8" Name="types" format="ascii" RangeMin="5" RangeMax="5">
          5 5 5 5 5 5
          5 5 5 5 5
        </DataArray>
      </Cells>
    </Piece>
  </UnstructuredGrid>
</VTKFile>
