<?xml version="1.0"?>
<VTKFile type="UnstructuredGrid" version="0.1" byte_order="LittleEndian" header_type="UInt32" compressor="vtkZLibDataCompressor">
  <UnstructuredGrid>
    <Piece NumberOfPoints="13" NumberOfCells="11">
      <PointData>
        <DataArray type="Float64" Name="Disp" NumberOfComponents="3" format="ascii" RangeMin="0.01320600580886159" RangeMax="0.09980904975243532">
          -0.0028610967072757332 -0.022793351937468738 0 0.0033102131822101504 -0.03517521614242047 0
          -0.0034662472490679485 -0.0352069665025265 0 0.0037821516840223883 -0.049765805786225435 0
          -0.003929175132047269 -0.04980812130329786 0 0.004064489435582155 -0.06587267829159553 0
          -0.0042149600839004805 -0.06591041162978054 0 0.004176801963790484 -0.08274507576888536 0
          -0.004310221281166211 -0.08278205621046483 0 0.004157844284303811 -0.09971717178283612 0
          -0.0042906035572002855 -0.0997167846132187 0 0.0026960875457063813 -0.02277300712649945 0
          -0.0021576671902518558 -0.013028547951318163 0
          <InformationKey name="L2_NORM_RANGE" location="vtkDataArray" length="2">
            <Value index="0">
              0.013206005809
            </Value>
            <Value index="1">
              0.099809049752
            </Value>
          </InformationKey>
        </DataArray>
        <DataArray type="Float64" Name="Nodal Stress" NumberOfComponents="6" format="ascii" RangeMin="3432.84431891823" RangeMax="34296.016058297144">
          -26262.294529905925 4240.08950537938 0 8552.487608068519 0 0
          30791.49404616823 6665.047033315256 0 -11456.100495335793 0 0
          -19500.538642793366 7743.792729077448 0 6184.460856752143 0 0
          26684.118946691622 9534.303593514722 0 -10155.656588065163 0 0
          -11870.875267062576 9923.252312847451 0 3293.3961902225496 0 0
          20347.789454382455 10210.530587484845 0 -7681.095586553094 0 0
          -4973.692089075546 9886.067824282081 0 751.7920902888501 0 0
          13497.20627706241 9278.331359742753 0 -4405.604611134842 0 0
          -885.8929867148896 7541.040326929576 0 -710.2874454165591 0 0
          7369.020274712026 5097.8152202777255 0 -1602.3352009954403 0 0
          -1596.990351884031 2940.406336087133 0 -766.8458206296295 0 0
          32202.910967652253 2803.7408787947165 0 -11459.855137173987 0 0
          -30966.84082153951 -21.510358328043683 0 10446.695368518172 0 0
          <InformationKey name="L2_NORM_RANGE" location="vtkDataArray" length="2">
            <Value index="0">
              3432.8443189
            </Value>
            <Value index="1">
              34296.016058
            </Value>
          </InformationKey>
        </DataArray>
        <DataArray type="Float64" Name="Nodal Strain" NumberOfComponents="6" format="ascii" RangeMin="0.00035506667064898726" RangeMax="0.002713251823809767">
          -0.0020273099487568298 0.00124080262645231 0 0.0009163379580073413 0 0
          0.001961355037822186 -0.0006236214278406325 0 -0.0012274393387859779 0 0
          -0.0016694596433808639 0.0012495758607481524 0 0.0006626208060805869 0 0
          0.001565497653566733 -0.00027198256284507744 0 -0.0010881060630069817 0 0
          -0.001202321530249022 0.0011327635675984816 0 0.0003528638775238446 0 0
          0.0010887517257600027 0.000002616847163829833 0 -0.0008229745271306888 0 0
          -0.0007083375715154705 0.000883779562058561 0 0.00008054915253094818 0 0
          0.0006327171855136453 0.00018069487294368223 0 -0.0004720290654787331 0 0
          -0.0003326009392985483 0.0005702847728776443 0 -0.00007610222629463133 0 0
          0.000344293761755226 0.00010095036306583669 0 -0.00017167877153522574 0 0
          -0.00021908525142339986 0.0002670643937163678 0 -0.00008216205221031745 0 0
          0.0022000743234467783 -0.0009498367575022432 0 -0.00122784162184007 0 0
          -0.0022111489744553923 0.0011044221466029792 0 0.00111928878948409 0 0
          <InformationKey name="L2_NORM_RANGE" location="vtkDataArray" length="2">
            <Value index="0">
              0.00035506667065
            </Value>
            <Value index="1">
              0.0027132518238
            </Value>
          </InformationKey>
        </DataArray>
        <DataArray type="Float64" Name="Sld_traction" NumberOfComponents="3" format="ascii" RangeMin="2506.3972229879882" RangeMax="32703.809029640077">
          -28786.20165952048 -3575.942944512455 0 -30223.885275751898 7213.785014069562 0
          -23181.747311624713 -7172.745264652514 0 -24944.21534154328 9831.790618437746 0
          -15626.97015592089 -9573.459671631092 0 -17247.902478378695 10328.645392454722 0
          -7660.342808556277 -9711.364293274666 0 -8714.28280796367 8936.203703416102 0
          -1515.8977773489466 -7645.78425078996 0 242.44330015546103 3248.004468128585 0
          937.349518885927 -2324.5220839661256 0 -32528.198359400365 3384.5880899558665 0
          -31287.42331664571 459.86835524425356 0
          <InformationKey name="L2_NORM_RANGE" location="vtkDataArray" length="2">
            <Value index="0">
              2506.397223
            </Value>
            <Value index="1">
              32703.80903
            </Value>
          </InformationKey>
        </DataArray>
        <DataArray type="Float64" Name="Velocity" NumberOfComponents="3" format="ascii" RangeMin="1.652300872741363" RangeMax="19.083778282950288">
          0.5149145305414868 3.3143371390245377 0 -0.6551993188386973 5.662350558402519 0
          0.6696123145174657 5.668707060800067 0 -0.7813560795309646 8.585577882930437 0
          0.7936164900855642 8.596059728330424 0 -0.8595975825604998 11.923361613756661 0
          0.8731543360917997 11.93335690896025 0 -0.8916973739777401 15.477769119555887 0
          0.9007464149432503 15.48811652116553 0 -0.8865153096793188 19.06282117025853 0
          0.8956576554047522 19.062748776530626 0 -0.4990147724846572 3.3120582029880072 0
          0.3490102748218653 1.615020124373265 0
          <InformationKey name="L2_NORM_RANGE" location="vtkDataArray" length="2">
            <Value index="0">
              1.6523008727
            </Value>
            <Value index="1">
              19.083778283
            </Value>
          </InformationKey>
        </DataArray>
        <DataArray type="Float64" Name="Acceleration" NumberOfComponents="3" format="ascii" RangeMin="321.16138741128" RangeMax="2326.152597645219">
          19.784157257239713 -1124.8031346585703 0 -117.87884132540421 -847.0901268777961 0
          94.60309301412781 -845.4809744331797 0 -182.6557595377135 -284.17349777641357 0
          158.49479496116692 -279.3278302177496 0 -224.37588611032788 497.31762556415924 0
          201.08275617035633 502.3492519568681 0 -241.9784986161385 1396.6057504687196 0
          216.4024535996923 1402.1515541632107 0 -239.26806681748985 2313.8143183352076 0
          213.87024954119715 2313.786508723948 0 -43.122622297136786 -1123.278079357944 0
          -48.026764975472815 -1105.5453116618992 0
          <InformationKey name="L2_NORM_RANGE" location="vtkDataArray" length="2">
            <Value index="0">
              321.16138741
            </Value>
            <Value index="1">
              2326.1525976
            </Value>
          </InformationKey>
        </DataArray>
        <DataArray type="Float64" Name="Sigma" NumberOfComponents="6" format="ascii" RangeMin="3567.040228226083" RangeMax="96245.27879149951">
          -77883.91671856851 11358.219668171447 0 28971.00450552482 0 0
          83601.8192594376 5265.6189765270265 0 -30642.03422491961 0 0
          -60555.70410656718 15359.838751154708 0 23606.08257463573 0 0
          69864.20569608918 10535.703920259462 0 -25402.52514407739 0 0
          -39637.46688529974 17888.520161559296 0 15695.149065680533 0 0
          50710.24171252325 12336.60860312755 0 -17413.157248030515 0 0
          -19718.182890818567 16144.152699676557 0 7375.142098167487 0 0
          30848.82129027373 11995.370044997979 0 -8432.26073407271 0 0
          -7543.200357337294 12528.086722467304 0 766.3393929871777 0 0
          17391.69892907673 6392.295161691625 0 -1143.4966634606626 0 0
          -1715.4134394493176 2823.4382802832642 0 -1345.1130060225166 0 0
          90273.88615723893 -213.13301262729843 0 -33372.649610755536 0 0
          -88277.96009425209 4028.7260565635543 0 33227.109360387876 0 0
          <InformationKey name="L2_NORM_RANGE" location="vtkDataArray" length="2">
            <Value index="0">
              3567.0402282
            </Value>
            <Value index="1">
              96245.278791
            </Value>
          </InformationKey>
        </DataArray>
        <DataArray type="Float64" Name="Press" format="ascii" RangeMin="-8052.633649499945" RangeMax="3884.1191553381263">
          -7641.300433094747 2059.183844424362 -8052.633649499945 -223.1912623584685 -7797.788215339961 -1920.7183450564462
          -6373.5275564221 -1999.5713804550574 -3433.133482056464 -3174.1578574378073 -3099.170880441326 3884.1191553381263
          -4747.950431450383
        </DataArray>
        <DataArray type="Float64" Name="Dev strain" NumberOfComponents="6" format="ascii" RangeMin="0.00040396692223529276" RangeMax="0.0026895485752736056">
          -0.0018881379824473245 0.0013799745927618155 0 0.0009163379580073413 0 0
          0.0020071045533152326 -0.0005778719123475865 0 -0.0012274393387859779 0 0
          -0.0014906414726031775 0.0014283940315258387 0 0.0006626208060805869 0 0
          0.0016634188613181098 -0.0001740613550937003 0 -0.0010881060630069817 0 0
          -0.0010073789418180944 0.0013277061560294091 0 0.0003528638775238446 0 0
          0.0012140187027143965 0.00012788382411822366 0 -0.0008229745271306888 0 0
          -0.0005377641593519228 0.001054352974222109 0 0.00008054915253094818 0 0
          0.0007419601217106146 0.0002899378091406517 0 -0.0004720290654787331 0 0
          -0.00021230642202179853 0.0006905792901543942 0 -0.00007610222629463133 0 0
          0.0004543903718211213 0.00021104697313173201 0 -0.00017167877153522574 0 0
          -0.00010474924159860584 0.00038140040354116175 0 -0.00008216205221031745 0 0
          0.0021765515382611202 -0.0009733595426879014 0 -0.00122784162184007 0 0
          -0.0021499025258399688 0.001165668595218403 0 0.00111928878948409 0 0
          <InformationKey name="L2_NORM_RANGE" location="vtkDataArray" length="2">
            <Value index="0">
              0.00040396692224
            </Value>
            <Value index="1">
              0.0026895485753
            </Value>
          </InformationKey>
        </DataArray>
        <DataArray type="Float64" Name="J2 Stresses" format="ascii" RangeMin="5909555.74514886" RangeMax="4353143409.316169">
          3307286594.2424603 3743229028.7071037 2090770756.7819257 2657326218.2442865 1007148393.3753568 1437664774.5208068
          338318381.69516253 565545094.0296865 107073233.29460849 171993210.69175383 5909555.74514886 4353143409.316169
          4180624635.132393
        </DataArray>
      </PointData>
      <CellData>
        <DataArray type="UInt8" Name="vtkGhostType" format="ascii" RangeMin="0" RangeMax="1">
          1 1 0 0 0 0
          0 0 0 0 0
        </DataArray>
        <DataArray type="Float64" Name="Gauss Stress" NumberOfComponents="6" format="ascii" RangeMin="4087.1032481508278" RangeMax="33888.448236039825">
          -28131.040788262908 2222.8936676335666 0 9608.488085052388 0 0
          31431.263754925272 4904.236066246306 0 -11681.226443383446 0 0
          -22824.183934622815 6116.3090525609505 0 7311.684285080315 0 0
          -15467.526140992046 9236.816568591696 0 4632.902165412957 0 0
          28897.893260508525 8314.840193502383 0 -10812.825598120427 0 0
          -8245.814060137855 10092.415782514967 0 1885.7113052725026 0 0
          23665.094233519278 10273.044954063811 0 -9040.17777547579 0 0
          -2739.598125605253 9620.459016069404 0 -96.92641430601498 0 0
          17182.354276681603 10060.771355289497 0 -6156.758627978577 0 0
          -524.4590292151606 4012.4526481688645 0 -574.090092165334 0 0
          10696.819047354613 7436.296403069192 0 -2936.472668182065 0 0
          <InformationKey name="L2_NORM_RANGE" location="vtkDataArray" length="2">
            <Value index="0">
              4087.1032482
            </Value>
            <Value index="1">
              33888.448236
            </Value>
          </InformationKey>
        </DataArray>
        <DataArray type="Float64" Name="Gauss Strain" NumberOfComponents="6" format="ascii" RangeMin="0.00036012207168223116" RangeMax="0.0026031401390341296">
          -0.002088749115862834 0.0011634581472689295 0 0.0010294808662556132 0 0
          0.002069938980128723 -0.0007722425579440228 0 -0.001251559976076798 0 0
          -0.001848738461493092 0.001252028644276597 0 0.0007833947448300338 0 0
          -0.001434709601806278 0.001212184259934837 0 0.0004963823748656741 0 0
          0.001767176654554095 -0.00043815045976799104 0 -0.0011585170283700459 0 0
          -0.0009494301393853816 0.0010153802008988494 0 0.00020204049699348235 0 0
          0.0013234694111776697 -0.00011139301162113027 0 -0.0009685904759438347 0 0
          -0.0005392734024028539 0.0007850184342051451 0 -0.000010384972961358834 0 0
          0.0008679977570740614 0.00010497101549633532 0 -0.000659652710140562 0 0
          -0.0001807632395213995 0.0003053344401983175 0 -0.00006150965273200007 0 0
          0.0004984764889871442 0.00014913477709942044 0 -0.0003146220715909355 0 0
          <InformationKey name="L2_NORM_RANGE" location="vtkDataArray" length="2">
            <Value index="0">
              0.00036012207168
            </Value>
            <Value index="1">
              0.002603140139
            </Value>
          </InformationKey>
        </DataArray>
      </CellData>
      <Points>
        <DataArray type="Float32" Name="Points" NumberOfComponents="3" format="ascii" RangeMin="0.4000000059604645" RangeMax="1.0012492197622458">
          0.5 0 0 0.6000000238418579 0.05000000074505806 0
          0.6000000238418579 0 0 0.699999988079071 0.05000000074505806 0
          0.699999988079071 0 0 0.800000011920929 0.05000000074505806 0
          0.800000011920929 0 0 0.8999999761581421 0.05000000074505806 0
          0.8999999761581421 0 0 1 0.05000000074505806 0
          1 0 0 0.5 0.05000000074505806 0
          0.4000000059604645 0 0
          <InformationKey name="L2_NORM_RANGE" location="vtkDataArray" length="2">
            <Value index="0">
              0.40000000596
            </Value>
            <Value index="1">
              1.0012492198
            </Value>
          </InformationKey>
        </DataArray>
      </Points>
      <Cells>
        <DataArray type="Int64" Name="connectivity" format="ascii" RangeMin="0" RangeMax="12">
          0 11 12 1 11 0
          2 1 0 4 3 2
          3 1 2 6 5 4
          5 3 4 8 7 6
          7 5 6 10 9 8
          9 7 8
        </DataArray>
        <DataArray type="Int64" Name="offsets" format="ascii" RangeMin="3" RangeMax="33">
          3 6 9 12 15 18
          21 24 27 30 33
        </DataArray>
        <DataArray type="UInt8" Name="types" format="ascii" RangeMin="5" RangeMax="5">
          5 5 5 5 5 5
          5 5 5 5 5
        </DataArray>
      </Cells>
    </Piece>
  </UnstructuredGrid>
</VTKFile>
