<?xml version="1.0"?>
<VTKFile type="UnstructuredGrid" version="0.1" byte_order="LittleEndian" header_type="UInt32" compressor="vtkZLibDataCompressor">
  <UnstructuredGrid>
    <Piece NumberOfPoints="13" NumberOfCells="11">
      <PointData>
        <DataArray type="Float64" Name="Disp" NumberOfComponents="3" format="ascii" RangeMin="0" RangeMax="0.09125315863647138">
          0 0 0 0 0 0
          0.0007382756359301566 -0.00236702670215 0 -0.0014286176621015046 -0.002259387287323644 0
          0.0024663586021367984 -0.009721022274521946 0 -0.002805377831227519 -0.00956188869212758 0
          0.003847295093727053 -0.023797354859533486 0 -0.004647667755563547 -0.02394223317558723 0
          0.004933507785267851 -0.04294657666433866 0 -0.005559069087457149 -0.04300764387424323 0
          0.005709569245018097 -0.06573591072417821 0 -0.006372953744711932 -0.06580675558740834 0
          0.0062081161937264 -0.09104173907861275 0
          <InformationKey name="L2_NORM_RANGE" location="vtkDataArray" length="2">
            <Value index="0">
              0
            </Value>
            <Value index="1">
              0.091253158636
            </Value>
          </InformationKey>
        </DataArray>
        <DataArray type="Float64" Name="Nodal Stress" NumberOfComponents="6" format="ascii" RangeMin="29165.51724636265" RangeMax="2745227.3904001336">
          -2389717.7878709203 -411774.44161577063 0 -1286842.697678494 0 0
          -156439.2866042738 164916.75249688822 0 -21977.067201916347 0 0
          193009.80677548458 47645.77344708215 0 39553.08358188075 0 0
          -78605.6875440249 -20822.40509718352 0 39527.49058289677 0 0
          -20602.195029697115 -59259.43006669566 0 -55871.49140799439 0 0
          -103089.10607813527 -19705.759132485236 0 24606.817263893692 0 0
          92287.01995060507 21432.072524220337 0 -22989.259628353055 0 0
          -48986.21302137316 23301.763662929145 0 11197.42710260029 0 0
          61802.972995333526 17907.418443778628 0 -24142.701876961706 0 0
          -37401.60697891329 16142.332971333068 0 10450.619483617305 0 0
          49412.08352150976 17812.1363852483 0 -17597.95490737133 0 0
          -22964.894002357578 17179.725700328156 0 5300.760753876986 0 0
          35544.83397296387 15263.0744800068 0 -12569.444341340317 0 0
          <InformationKey name="L2_NORM_RANGE" location="vtkDataArray" length="2">
            <Value index="0">
              29165.517246
            </Value>
            <Value index="1">
              2745227.3904
            </Value>
          </InformationKey>
        </DataArray>
        <DataArray type="Float64" Name="Nodal Strain" NumberOfComponents="6" format="ascii" RangeMin="0.0024126881117099114" RangeMax="0.21557062972471902">
          -0.15598789764735968 0.05593460373712066 0 -0.13787600332269584 0 0
          -0.017064118775194134 0.017366885414216084 0 -0.0023546857716338983 0 0
          0.01208478000371025 -0.0034899378529042947 0 0.004237830383772938 0 0
          -0.004871034642530937 0.0013200313339163518 0 0.00423508827673894 0 0
          0.0006448228574036219 -0.0034970237537033655 0 -0.005986231222285112 0 0
          -0.006659730465135192 0.002274199564755886 0 0.0026364447068457524 0 0
          0.005826498834892493 -0.0017651026750772993 0 -0.0024631349601806846 0 0
          -0.00433122106091698 0.0034139192981154087 0 0.0011997243324214596 0 0
          0.0037749474123888738 -0.0009281477181348667 0 -0.0025867180582458977 0 0
          -0.003248055247469988 0.00248879546148498 0 0.0011197092303875684 0 0
          0.002893286809206116 -0.0004924218125361838 0 -0.0018854951686469283 0 0
          -0.002253911203751547 0.002047298050107639 0 0.0005679386522011056 0 0
          0.0019938069094971767 -0.00017923875046250932 0 -0.0013467261794293198 0 0
          <InformationKey name="L2_NORM_RANGE" location="vtkDataArray" length="2">
            <Value index="0">
              0.0024126881117
            </Value>
            <Value index="1">
              0.21557062972
            </Value>
          </InformationKey>
        </DataArray>
        <DataArray type="Float64" Name="Sld_traction" NumberOfComponents="3" format="ascii" RangeMin="23482.320455008925" RangeMax="309011.2620914445">
          -41811.11103843586 131261.61674774 0 308974.05914502323 4794.8800605568 0
          -212278.26618169917 -102755.23999752247 0 -20850.740610141784 10801.203171883899 0
          -54376.786079288184 -30780.39067952182 0 -83788.39074462376 22479.45782103928 0
          -84583.5634090027 18079.157469539205 0 -52643.9873808411 -18393.06058969418 0
          -54929.05331436192 19230.797272905445 0 -39067.20873288321 -16788.441779113782 0
          -43580.553019416875 17920.8195245785 0 -26573.3044713102 -16674.697637834375 0
          -29076.586673098333 15156.083675284497 0
          <InformationKey name="L2_NORM_RANGE" location="vtkDataArray" length="2">
            <Value index="0">
              23482.320455
            </Value>
            <Value index="1">
              309011.26209
            </Value>
          </InformationKey>
        </DataArray>
        <DataArray type="Float64" Name="Velocity" NumberOfComponents="3" format="ascii" RangeMin="0" RangeMax="2.4546851972218673">
          0 0 0 0 0 0
          -0.125570705197303 0.39170475976593844 0 0.192173570645773 0.40223520668288515 0
          -0.22238028579586144 1.2603640665507854 0 0.24424370412547725 1.2822190807283302 0
          -0.11875645721055195 2.152641930228043 0 0.20400472721329477 2.1834387314985193 0
          0.07867517976784733 2.4373565192854123 0 -0.009949833420712206 2.4546650317864263 0
          0.33862701936294703 1.7755303450309086 0 -0.2608861984753301 1.7763945191450077 0
          0.5930319051311486 0.05515590145385829 0
          <InformationKey name="L2_NORM_RANGE" location="vtkDataArray" length="2">
            <Value index="0">
              0
            </Value>
            <Value index="1">
              2.4546851972
            </Value>
          </InformationKey>
        </DataArray>
        <DataArray type="Float64" Name="Acceleration" NumberOfComponents="3" format="ascii" RangeMin="0" RangeMax="1055.4028391814138">
          0 0 0 0 0 0
          6.402934240737977 -19.673245220537865 0 -1.9108918458628068 -22.75461132811506 0
          -15.948709914884603 -6.1366111654970155 0 21.697810473801837 -10.093021244440024 0
          -56.16561646049877 149.05390635640288 0 62.45378377735415 153.25219796327656 0
          -79.60492018654895 448.93677066629607 0 88.041277769913 455.3024376352623 0
          -73.09734521504015 793.7376873593385 0 84.77515966626561 800.9477102257442 0
          -36.87642919825339 1054.758399787257 0
          <InformationKey name="L2_NORM_RANGE" location="vtkDataArray" length="2">
            <Value index="0">
              0
            </Value>
            <Value index="1">
              1055.4028392
            </Value>
          </InformationKey>
        </DataArray>
        <DataArray type="Float64" Name="Sigma" NumberOfComponents="6" format="ascii" RangeMin="83798.07126976395" RangeMax="6708233.798372599">
          -5827031.719615464 -1254247.3947450686 0 -3077818.302791592 0 0
          568473.3161551583 542084.0392208708 0 509791.3251353354 0 0
          1330226.173842559 122820.18605665544 0 498474.4897338721 0 0
          -709324.4808851127 -190891.40963725428 0 -134112.5148328249 0 0
          -91396.74845212877 -148201.13517507378 0 -189749.25323409226 0 0
          -153859.13711546 -16248.149288529325 0 151763.1778568152 0 0
          291152.5292986962 63409.89882870928 0 -65738.19327323195 0 0
          -168433.4684295459 57161.731094676026 0 29790.14787330659 0 0
          159534.79689113869 6123.222615083094 0 -54799.35412699621 0 0
          -111009.49265206365 27572.45207938665 0 44940.15493500511 0 0
          129949.30843381943 23060.44143013649 0 -44638.710104954705 0 0
          -72795.53927158628 33245.75477792325 0 24852.48478397225 0 0
          90791.24362904447 17090.176730140465 0 -28129.123569686235 0 0
          <InformationKey name="L2_NORM_RANGE" location="vtkDataArray" length="2">
            <Value index="0">
              83798.07127
            </Value>
            <Value index="1">
              6708233.7984
            </Value>
          </InformationKey>
        </DataArray>
        <DataArray type="Float64" Name="Press" format="ascii" RangeMin="-33534.17037267685" RangeMax="52251.16577396272">
          52251.16577396272 43063.559175140486 48926.907026461944 28137.078833186104 46677.55182857501 17310.655077487652
          -13745.002602962355 -33534.17037267685 5215.72064566314 -12786.83721817664 -2696.3270614356716 -15285.124270079776
          -2360.660318218963
        </DataArray>
        <DataArray type="Float64" Name="Dev strain" NumberOfComponents="6" format="ascii" RangeMin="0.00258316405836678" RangeMax="0.2163975952549896">
          -0.15774229762726616 0.05418020375721417 0 -0.13787600332269584 0 0
          -0.018628834379482682 0.015802169809927536 0 -0.0023546857716338983 0 0
          0.01049284120675203 -0.005081876649862518 0 0.004237830383772938 0 0
          -0.006122241800155397 0.0000688241762918896 0 0.00423508827673894 0 0
          -0.0005639351283591666 -0.004705781739466155 0 -0.005986231222285112 0 0
          -0.007148813612089537 0.0017851164178015386 0 0.0026364447068457524 0 0
          0.006014069590052953 -0.00157753191991684 0 -0.0024631349601806846 0 0
          -0.00369509079814511 0.004050049560887279 0 0.0011997243324214596 0 0
          0.004006462355758297 -0.0006966327747654435 0 -0.0025867180582458977 0 0
          -0.002889419739186173 0.0028474309697687937 0 0.0011197092303875684 0 0
          0.0031000333122349327 -0.00028567530950736634 0 -0.0018854951686469283 0 0
          -0.0018821240461796753 0.0024190852076795104 0 0.0005679386522011056 0 0
          0.002204109835528589 0.00003106417556890317 0 -0.0013467261794293198 0 0
          <InformationKey name="L2_NORM_RANGE" location="vtkDataArray" length="2">
            <Value index="0">
              0.0025831640584
            </Value>
            <Value index="1">
              0.21639759525
            </Value>
          </InformationKey>
        </DataArray>
        <DataArray type="Float64" Name="J2 Stresses" format="ascii" RangeMin="3356646874.2818274" RangeMax="20131958970564.504">
          20131958970564.504 373480307175.03894 954412440068.2638 274286916386.8124 24159665823.12502 17726333752.90796
          45475682806.95484 16040511622.051811 13495164940.329353 7046578167.664889 9207456970.648893 3356646874.2818274
          4465373928.387642
        </DataArray>
      </PointData>
      <CellData>
        <DataArray type="UInt8" Name="vtkGhostType" format="ascii" RangeMin="0" RangeMax="0">
          0 0 0 0 0 0
          0 0 0 0 0
        </DataArray>
        <DataArray type="Float64" Name="Gauss Stress" NumberOfComponents="6" format="ascii" RangeMin="34342.48082051368" RangeMax="1445318.285980535">
          436500.85138246417 198046.7868916868 0 291384.4333454608 0 0
          -1261363.5325473933 -148367.17916399235 0 -689850.8293074614 0 0
          -287485.02690448414 -87738.46945386953 0 -57366.19673670063 0 0
          217748.82739784682 -30843.6070224832 0 58204.24055565161 0 0
          -20369.531381487126 24784.987578901473 0 38605.04415229661 0 0
          32046.616011402606 -16932.060443931165 0 -34574.75621683634 0 0
          -53671.15037855375 16584.039614651803 0 6643.649560438504 0 0
          80063.46847677098 28210.466736164104 0 -30249.133175640527 0 0
          -28208.00401317421 17703.453245918103 0 8384.64320467422 0 0
          56069.05634631511 15496.224163552353 0 -18165.969765648602 0 0
          42534.30038051441 17684.753762821936 0 -15971.782963556232 0 0
          <InformationKey name="L2_NORM_RANGE" location="vtkDataArray" length="2">
            <Value index="0">
              34342.480821
            </Value>
            <Value index="1">
              1445318.286
            </Value>
          </InformationKey>
        </DataArray>
        <DataArray type="Float64" Name="Gauss Strain" NumberOfComponents="6" format="ascii" RangeMin="0.0029640270438441724" RangeMax="0.11764668336618798">
          0.024105532709758633 -0.001443117057110378 0 0.031219760715585087 0 0
          -0.08479856735467126 0.034451041936407446 0 -0.07391258885437088 0 0
          -0.017401128012682104 0.0040002888570266106 0 -0.006146378221789352 0 0
          0.01665504506493489 -0.009979858622957617 0 0.006236168630962674 0 0
          -0.00234014465506699 0.0024978395192603595 0 0.004136254730603208 0 0
          0.0028937604452405853 -0.002353954889259462 0 -0.003704438166089609 0 0
          -0.004425940727562833 0.003101401057423477 0 0.0007118195957612678 0 0
          0.004711302507763496 -0.0008443762501586694 0 -0.0032409785545329138 0 0
          -0.0026471236168666614 0.002271961089464658 0 0.0008983546290722381 0 0
          0.0034514960188956377 -0.0008955931435432273 0 -0.0019463539034623501 0 0
          0.002406565964221675 -0.0002558854591025192 0 -0.0017112624603810246 0 0
          <InformationKey name="L2_NORM_RANGE" location="vtkDataArray" length="2">
            <Value index="0">
              0.0029640270438
            </Value>
            <Value index="1">
              0.11764668337
            </Value>
          </InformationKey>
        </DataArray>
      </CellData>
      <Points>
        <DataArray type="Float32" Name="Points" NumberOfComponents="3" format="ascii" RangeMin="0" RangeMax="0.6020797527609908">
          0 0.05000000074505806 0 0 0 0
          0.10000000149011612 0.05000000074505806 0 0.10000000149011612 0 0
          0.20000000298023224 0.05000000074505806 0 0.20000000298023224 0 0
          0.30000001192092896 0.05000000074505806 0 0.30000001192092896 0 0
          0.4000000059604645 0.05000000074505806 0 0.4000000059604645 0 0
          0.5 0.05000000074505806 0 0.5 0 0
          0.6000000238418579 0.05000000074505806 0
          <InformationKey name="L2_NORM_RANGE" location="vtkDataArray" length="2">
            <Value index="0">
              0
            </Value>
            <Value index="1">
              0.60207975276
            </Value>
          </InformationKey>
        </DataArray>
      </Points>
      <Cells>
        <DataArray type="Int64" Name="connectivity" format="ascii" RangeMin="0" RangeMax="12">
          3 2 1 2 0 1
          5 4 3 4 2 3
          7 6 5 6 4 5
          9 8 7 8 6 7
          11 10 9 10 8 9
          12 10 11
        </DataArray>
        <DataArray type="Int64" Name="offsets" format="ascii" RangeMin="3" RangeMax="33">
          3 6 9 12 15 18
          21 24 27 30 33
        </DataArray>
        <DataArray type="UInt8" Name="types" format="ascii" RangeMin="5" RangeMax="5">
          5 5 5 5 5 5
          5 5 5 5 5
        </DataArray>
      </Cells>
    </Piece>
  </UnstructuredGrid>
</VTKFile>
