<?xml version="1.0"?>
<VTKFile type="UnstructuredGrid" version="0.1" byte_order="LittleEndian" header_type="UInt32" compressor="vtkZLibDataCompressor">
  <UnstructuredGrid>
    <Piece NumberOfPoints="13" NumberOfCells="11">
      <PointData>
        <DataArray type="Float64" Name="Disp" NumberOfComponents="3" format="ascii" RangeMin="0" RangeMax="0.06305456724743391">
          0 0 0 0 0 0
          0.0004975785751708644 -0.001597484519943752 0 -0.0009668996328398611 -0.0015226029600715592 0
          0.0016757552497699587 -0.006580711342129325 0 -0.0019074921364773542 -0.006468692523639856 0
          0.0026339154383423326 -0.016176856121738664 0 -0.0031780974878389033 -0.016271427437942357 0
          0.0034081944457504624 -0.029329043296003394 0 -0.0038332400504694983 -0.029366012146610717 0
          0.0039907596461908985 -0.045136607581708565 0 -0.00444011908191517 -0.04518206759992025 0
          0.004395984605721123 -0.06290114283625878 0
          <InformationKey name="L2_NORM_RANGE" location="vtkDataArray" length="2">
            <Value index="0">
              0
            </Value>
            <Value index="1">
              0.063054567247
            </Value>
          </InformationKey>
        </DataArray>
        <DataArray type="Float64" Name="Nodal Stress" NumberOfComponents="6" format="ascii" RangeMin="21939.057142610953" RangeMax="1863691.8959673613">
          -1622775.3929561425 -277613.69956462854 0 -873428.9558541636 0 0
          -106434.11930101296 113443.82195912531 0 -14461.33436738568 0 0
          131279.34670562882 32403.98390003904 0 27103.67998455902 0 0
          -53916.44946460292 -14771.833506442346 0 26974.349055967265 0 0
          -13753.737827406203 -40931.96218248801 0 -37840.71656465077 0 0
          -71145.43590118557 -14082.301797500639 0 17084.43273031662 0 0
          63333.53849873769 13681.209082769208 0 -15636.27842104768 0 0
          -35114.509039022676 14864.3632024353 0 8236.4954994554 0 0
          43220.29151778666 11177.047847265718 0 -16634.6038786899 0 0
          -27897.198138378404 10001.299121623806 0 7988.231201743521 0 0
          35483.93973353538 11282.240417768906 0 -12520.1380570672 0 0
          -18399.870048708108 11017.55769080426 0 4623.898033824145 0 0
          26673.12488194073 10116.066691035845 0 -9457.176933848938 0 0
          <InformationKey name="L2_NORM_RANGE" location="vtkDataArray" length="2">
            <Value index="0">
              21939.057143
            </Value>
            <Value index="1">
              1863691.896
            </Value>
          </InformationKey>
        </DataArray>
        <DataArray type="Float64" Name="Nodal Strain" NumberOfComponents="6" format="ascii" RangeMin="0.001861012061461017" RangeMax="0.14644691756133668">
          -0.10599775308384489 0.038126714065245905 0 -0.09358167384151754 0 0
          -0.011654002162898261 0.01190434868640227 0 -0.0015494286822198948 0 0
          0.008219811053972095 -0.002373977818055384 0 0.002903965712631323 0 0
          -0.003323609479384412 0.0008704565161327942 0 0.002890108827425065 0 0
          0.0004794459474169857 -0.002432506662056065 0 -0.004054362489069725 0 0
          -0.004578877500173947 0.0015350297252208667 0 0.0018304749353910666 0 0
          0.004035209568382364 -0.001284682869042831 0 -0.0016753155451122515 0 0
          -0.003039049331445737 0.0023158298372819024 0 0.0008824816606559357 0 0
          0.002687983399582415 -0.0007452212794019721 0 -0.0017822789870024893 0 0
          -0.0023498462642278796 0.0017107070136295004 0 0.0008558819144725201 0 0
          0.002131629966046495 -0.0004614092463570557 0 -0.0013414433632572003 0 0
          -0.0017077606352935888 0.001444106622511308 0 0.0004954176464811585 0 0
          0.0015439351097444867 -0.00023003541070960848 0 -0.0010132689571981006 0 0
          <InformationKey name="L2_NORM_RANGE" location="vtkDataArray" length="2">
            <Value index="0">
              0.0018610120615
            </Value>
            <Value index="1">
              0.14644691756
            </Value>
          </InformationKey>
        </DataArray>
        <DataArray type="Float64" Name="Sld_traction" NumberOfComponents="3" format="ascii" RangeMin="16317.553958428674" RangeMax="209624.8456420734">
          -28092.677481072893 90109.08610704888 0 209615.06942351145 2024.4952555103127 0
          -143956.7624072875 -69950.05505942888 0 -14364.893708889598 7740.309807658564 0
          -36955.14618443738 -21540.107471696676 0 -57581.57739236342 15994.178887208047 0
          -57996.232078777866 11374.365785054519 0 -37145.5494167388 -11563.511516171935 0
          -38562.58321616264 12095.091495150946 0 -28700.04855684829 -10427.095497494294 0
          -31709.128557169504 11417.152995909339 0 -20824.21946934303 -10623.66127621133 0
          -22575.84757481825 10144.629400736158 0
          <InformationKey name="L2_NORM_RANGE" location="vtkDataArray" length="2">
            <Value index="0">
              16317.553958
            </Value>
            <Value index="1">
              209624.84564
            </Value>
          </InformationKey>
        </DataArray>
        <DataArray type="Float64" Name="Velocity" NumberOfComponents="3" format="ascii" RangeMin="0" RangeMax="4.758740818121581">
          0 0 0 0 0 0
          -0.009221161329818484 0.023747939012960795 0 -0.002186838867489771 0.032747645498886535 0
          0.04125887815769025 -0.027914240241109667 0 -0.05252799791746765 -0.01175414751591397 0
          0.14887321178025315 -0.40835042410683897 0 -0.16149508753725428 -0.4035053463208742 0
          0.280907624515925 -1.2772986561234934 0 -0.29169233387109705 -1.272670268127417 0
          0.42756004641605383 -2.711621636869314 0 -0.43745532364263084 -2.7136089885582386 0
          0.564770975832301 -4.72510824414784 0
          <InformationKey name="L2_NORM_RANGE" location="vtkDataArray" length="2">
            <Value index="0">
              0
            </Value>
            <Value index="1">
              4.7587408181
            </Value>
          </InformationKey>
        </DataArray>
        <DataArray type="Float64" Name="Acceleration" NumberOfComponents="3" format="ascii" RangeMin="0" RangeMax="470.98701619201375">
          0 0 0 0 0 0
          -5.775530533677681 18.284649074416848 0 10.337084643855746 17.873476401478 0
          -16.263036570544045 69.77864878353557 0 18.267351067395566 69.2823579204678 0
          -21.85780883063535 156.55421855192435 0 27.17426014122384 157.7882245201854 0
          -24.392434306755604 260.1664189898511 0 28.50459462929166 260.7692557838018 0
          -24.214788377109926 367.5110152942798 0 28.62871650412626 367.91382782342407 0
          -22.540536771981806 470.44733352787443 0
          <InformationKey name="L2_NORM_RANGE" location="vtkDataArray" length="2">
            <Value index="0">
              0
            </Value>
            <Value index="1">
              470.98701619
            </Value>
          </InformationKey>
        </DataArray>
        <DataArray type="Float64" Name="Sigma" NumberOfComponents="6" format="ascii" RangeMin="64469.9849593017" RangeMax="4554934.460116367">
          -3957288.5247171987 -848876.0623900557 0 -2089666.2170782948 0 0
          385359.7348075303 370805.764573696 0 346933.28213502874 0 0
          903872.2142202206 82248.03336582542 0 338683.3286049057 0 0
          -483225.8309184826 -131150.52052039135 0 -91124.24361071733 0 0
          -61302.5188421639 -101516.9300385273 0 -128807.67178505367 0 0
          -107361.64768592121 -11846.964241190455 0 103753.05456117836 0 0
          199853.75667004965 41445.72475599961 0 -45183.518571315086 0 0
          -119298.51534294584 37540.569055624204 0 21601.48972018427 0 0
          112262.82125530725 2389.935257747589 0 -38435.646402353195 0 0
          -82166.6936115188 17592.419273045325 0 32714.283058517405 0 0
          94114.69666166778 14044.725948556206 0 -32449.39511624793 0 0
          -57307.10863484071 21966.810200573513 0 19741.669386835838 0 0
          69008.95102961986 10815.206076694662 0 -22021.54447567212 0 0
          <InformationKey name="L2_NORM_RANGE" location="vtkDataArray" length="2">
            <Value index="0">
              64469.984959
            </Value>
            <Value index="1">
              4554934.4601
            </Value>
          </InformationKey>
        </DataArray>
        <DataArray type="Float64" Name="Press" format="ascii" RangeMin="-22495.387714446068" RangeMax="35652.53757815262">
          35652.53757815262 29448.125696850293 33490.32772892026 19432.33773362044 32086.68011487401 12023.946271776571
          -8703.73098631213 -22495.387714446068 4318.534297482798 -8569.057571312378 -1050.0489682595653 -10542.865363717672
          -999.4655776555686
        </DataArray>
        <DataArray type="Float64" Name="Dev strain" NumberOfComponents="6" format="ascii" RangeMin="0.001961613439646876" RangeMax="0.1470111350006313">
          -0.10719635601761342 0.03692811113147736 0 -0.09358167384151754 0 0
          -0.012724796955563507 0.010833553893737026 0 -0.0015494286822198948 0 0
          0.007129209533354562 -0.0034645793386729137 0 0.002903965712631323 0 0
          -0.00418438362836637 0.0000096823671508349 0 0.002890108827425065 0 0
          -0.0003545399021147005 -0.00326649251158775 0 -0.004054362489069725 0 0
          -0.0049236588272779875 0.0011902483981168267 0 0.0018304749353910666 0 0
          0.00414461449216467 -0.0011752779452605241 0 -0.0016753155451122515 0 0
          -0.002621526025005646 0.002733353143721995 0 0.0008824816606559357 0 0
          0.0028248032351216755 -0.0006084014438627104 0 -0.0017822789870024893 0 0
          -0.0021179545146814754 0.0019425987631759044 0 0.0008558819144725201 0 0
          0.0022542641058077755 -0.00033877510659577505 0 -0.0013414433632572003 0 0
          -0.001459444932659769 0.001692422325145128 0 0.0004954176464811585 0 0
          0.0016768357534413755 -0.00009713476701271964 0 -0.0010132689571981006 0 0
          <InformationKey name="L2_NORM_RANGE" location="vtkDataArray" length="2">
            <Value index="0">
              0.0019616134396
            </Value>
            <Value index="1">
              0.147011135
            </Value>
          </InformationKey>
        </DataArray>
        <DataArray type="Float64" Name="J2 Stresses" format="ascii" RangeMin="1980756102.7815106" RangeMax="9282037743278.21">
          9282037743278.21 173090195689.2525 440551458584.67975 127429738293.22008 11179697028.09208 8524611060.477671
          21340023665.46184 7937371133.558397 6673651141.960328 3797985456.47211 4790656038.196488 1980756102.7815106
          2560839107.6184235
        </DataArray>
      </PointData>
      <CellData>
        <DataArray type="UInt8" Name="vtkGhostType" format="ascii" RangeMin="0" RangeMax="0">
          0 0 0 0 0 0
          0 0 0 0 0
        </DataArray>
        <DataArray type="Float64" Name="Gauss Stress" NumberOfComponents="6" format="ascii" RangeMin="25411.371455022607" RangeMax="981034.3247963074">
          296125.63642288634 134758.02285950695 0 198164.12237640566 0 0
          -856488.528228508 -99077.09114887036 0 -468016.5354461201 0 0
          -196115.6777754322 -60323.816893279334 0 -38726.286944864194 0 0
          148117.7366789963 -21803.357205226188 0 39583.80440304487 0 0
          -15327.192929266359 15988.05238048391 0 26723.675236682506 0 0
          22198.82851410102 -12170.424707793225 0 -23412.711931730148 0 0
          -38649.43289581101 10259.004199380492 0 5293.375458782827 0 0
          55312.492726378565 18165.214888698665 0 -20672.55841782801 0 0
          -21840.359162660454 11147.327839628475 0 6668.852443035107 0 0
          39636.750687789034 9575.502745753323 0 -12723.58615336125 0 0
          31074.719715604722 11411.454105397192 0 -11576.42340169474 0 0
          <InformationKey name="L2_NORM_RANGE" location="vtkDataArray" length="2">
            <Value index="0">
              25411.371455
            </Value>
            <Value index="1">
              981034.3248
            </Value>
          </InformationKey>
        </DataArray>
        <DataArray type="Float64" Name="Gauss Strain" NumberOfComponents="6" format="ascii" RangeMin="0.0022155980434332093" RangeMax="0.07993486272087347">
          0.016339044642366633 -0.0009503425251382955 0 0.02123187025461489 0 0
          -0.05763928447529093 0.023511940926098835 0 -0.050144628797798574 0 0
          -0.011853840666342328 0.0026952872853169114 0 -0.004149245029806877 0 0
          0.011358529662972098 -0.006847301824623165 0 0.004241121900326238 0 0
          -0.0016658013656791664 0.0016894034889369345 0 0.002863250918215983 0 0
          0.002020288633428403 -0.0016621313546316956 0 -0.0025085048498282286 0 0
          -0.003127066785392947 0.002113122903377571 0 0.0005671473705838747 0 0
          0.00330213466300209 -0.0006779308196064732 0 -0.002214916973338715 0 0
          -0.0019581445058910493 0.0015762505300684787 0 0.0007145199046109041 0 0
          0.002489214236779455 -0.0007316337570100848 0 -0.001363241373574419 0 0
          0.001812070904493295 -0.00029470755374322614 0 -0.0012403310787530077 0 0
          <InformationKey name="L2_NORM_RANGE" location="vtkDataArray" length="2">
            <Value index="0">
              0.0022155980434
            </Value>
            <Value index="1">
              0.079934862721
            </Value>
          </InformationKey>
        </DataArray>
      </CellData>
      <Points>
        <DataArray type="Float32" Name="Points" NumberOfComponents="3" format="ascii" RangeMin="0" RangeMax="0.6020797527609908">
          0 0.05000000074505806 0 0 0 0
          0.10000000149011612 0.05000000074505806 0 0.10000000149011612 0 0
          0.20000000298023224 0.05000000074505806 0 0.20000000298023224 0 0
          0.30000001192092896 0.05000000074505806 0 0.30000001192092896 0 0
          0.4000000059604645 0.05000000074505806 0 0.4000000059604645 0 0
          0.5 0.05000000074505806 0 0.5 0 0
          0.6000000238418579 0.05000000074505806 0
          <InformationKey name="L2_NORM_RANGE" location="vtkDataArray" length="2">
            <Value index="0">
              0
            </Value>
            <Value index="1">
              0.60207975276
            </Value>
          </InformationKey>
        </DataArray>
      </Points>
      <Cells>
        <DataArray type="Int64" Name="connectivity" format="ascii" RangeMin="0" RangeMax="12">
          3 2 1 2 0 1
          5 4 3 4 2 3
          7 6 5 6 4 5
          9 8 7 8 6 7
          11 10 9 10 8 9
          12 10 11
        </DataArray>
        <DataArray type="Int64" Name="offsets" format="ascii" RangeMin="3" RangeMax="33">
          3 6 9 12 15 18
          21 24 27 30 33
        </DataArray>
        <DataArray type="UInt8" Name="types" format="ascii" RangeMin="5" RangeMax="5">
          5 5 5 5 5 5
          5 5 5 5 5
        </DataArray>
      </Cells>
    </Piece>
  </UnstructuredGrid>
</VTKFile>
