<?xml version="1.0"?>
<VTKFile type="UnstructuredGrid" version="0.1" byte_order="LittleEndian" header_type="UInt32" compressor="vtkZLibDataCompressor">
  <UnstructuredGrid>
    <Piece NumberOfPoints="13" NumberOfCells="11">
      <PointData>
        <DataArray type="Float64" Name="Disp" NumberOfComponents="3" format="ascii" RangeMin="0.04513484732736562" RangeMax="0.1618940314889272">
          -0.005384959727429798 -0.06461536550464243 0 0.0046359443878347265 -0.08468784732863023 0
          -0.005363747497715192 -0.08472160117084986 0 0.004530404681726846 -0.10451874174344244 0
          -0.005255507070624418 -0.10452280098972445 0 0.004427952645398684 -0.12386878407840933 0
          -0.005147897294636164 -0.12386300990674773 0 0.0043738147883515 -0.1428806734130002 0
          -0.0050972959087426176 -0.14286645527280778 0 0.004379270262886595 -0.16181385308259674 0
          -0.005099537401284602 -0.1618136958048689 0 0.004639256457928036 -0.06455402458930831 0
          -0.00511657210345038 -0.04484389739055691 0
          <InformationKey name="L2_NORM_RANGE" location="vtkDataArray" length="2">
            <Value index="0">
              0.045134847327
            </Value>
            <Value index="1">
              0.16189403149
            </Value>
          </InformationKey>
        </DataArray>
        <DataArray type="Float64" Name="Nodal Stress" NumberOfComponents="6" format="ascii" RangeMin="1420.1234224691577" RangeMax="35532.6183101324">
          -2329.809526770289 16055.05827251255 0 -2148.402943832822 0 0
          12321.371411029968 10620.86280242526 0 -3484.79257919524 0 0
          1863.8079302577873 7284.468681427013 0 -2476.125938004178 0 0
          1530.0682386876992 3676.7295866790137 0 237.14072242508624 0 0
          2712.6893086724444 1659.4647105396352 0 -1913.3783166558303 0 0
          -3010.1011199558147 -770.1646226021393 0 1784.8921099530285 0 0
          1309.6460080942397 -1910.0957179146028 0 -802.0376116023896 0 0
          -4071.925115554796 -2907.106865769315 0 1594.0145621535094 0 0
          42.96048241252697 -2762.6236089544473 0 104.23144024495242 0 0
          -2866.8099664144333 -2141.4623027736448 0 694.4477651841079 0 0
          351.15093097529603 -1350.027201747865 0 266.2144121972471 0 0
          28541.62190357725 18848.179761916974 0 -9627.50760837191 0 0
          -14963.616482870822 20650.913290606306 0 1831.7456522261505 0 0
          <InformationKey name="L2_NORM_RANGE" location="vtkDataArray" length="2">
            <Value index="0">
              1420.1234225
            </Value>
            <Value index="1">
              35532.61831
            </Value>
          </InformationKey>
        </DataArray>
        <DataArray type="Float64" Name="Nodal Strain" NumberOfComponents="6" format="ascii" RangeMin="0.00013439081942078962" RangeMax="0.0027091461187569313">
          -0.0007398099045018978 0.0012299973597069786 0 -0.00023018602969637379 0 0
          0.0005007814292726671 0.00031858407835073406 0 -0.0003733706334852042 0 0
          -0.00012703045788969421 0.0004537546225927229 0 -0.00026529920764330477 0 0
          -0.000022021182475129074 0.00020797824766679744 0 0.000025407934545544957 0 0
          0.0001344969252430448 0.000021651432585958086 0 -0.00020500481964169607 0 0
          -0.00018750134347533898 0.00005249185266969773 0 0.0001912384403521102 0 0
          0.00016176384764653864 -0.00018320848014012303 0 -0.00008593260124311317 0 0
          -0.00018702654876215277 -0.00006222459342799413 0 0.00017078727451644746 0 0
          0.00010173373477783935 -0.00019886456072576507 0 0.000011167654311959188 0 0
          -0.00012829134393054365 -0.000050575522826173444 0 0.00007440511769829728 0 0
          0.00007329746656065918 -0.00010897161908825094 0 0.000028522972735419332 0 0
          0.0013655380016156257 0.0003269549150091683 0 -0.001031518672325562 0 0
          -0.0018063623662981413 0.002009480109431551 0 0.00019625846273851614 0 0
          <InformationKey name="L2_NORM_RANGE" location="vtkDataArray" length="2">
            <Value index="0">
              0.00013439081942
            </Value>
            <Value index="1">
              0.0027091461188
            </Value>
          </InformationKey>
        </DataArray>
        <DataArray type="Float64" Name="Sld_traction" NumberOfComponents="3" format="ascii" RangeMin="1084.373651314938" RangeMax="27093.262487079985">
          -3173.865030734773 -16215.989937687744 0 -4754.488328635744 9960.38684728542 0
          3647.221823129425 -8146.040617021219 0 2604.5377857156946 3264.2335542800356 0
          4923.2030311288445 -2163.3209745744975 0 4765.43616377439 -1049.2783030787264 0
          3416.8615215374493 1531.413355528922 0 3424.4217857519766 -2854.450512896549 0
          989.9383843400641 2654.4667495968606 0 47.814996488427454 -1287.460336739747 0
          -322.0790184262839 1035.4377439303883 0 -19789.96863456748 18266.105369183566 0
          -15216.961442908614 -22416.2654480814 0
          <InformationKey name="L2_NORM_RANGE" location="vtkDataArray" length="2">
            <Value index="0">
              1084.3736513
            </Value>
            <Value index="1">
              27093.262487
            </Value>
          </InformationKey>
        </DataArray>
        <DataArray type="Float64" Name="Velocity" NumberOfComponents="3" format="ascii" RangeMin="1.9930905903822789" RangeMax="12.185877844989063">
          -0.35581508150786645 -3.1660377626154528 0 0.37563794332805056 -4.633578168522348 0
          -0.4217325618808192 -4.637251046723264 0 0.4269795607645035 -6.342355447677939 0
          -0.47392765237826184 -6.34708469098635 0 0.4587700113072466 -8.221893408962316 0
          -0.5075132869403856 -8.226276899653264 0 0.47196512353707076 -10.19180724152801 0
          -0.5194448036827533 -10.196278130361442 0 0.469712172620419 -12.174857478329784 0
          -0.5174239635243856 -12.174887732335193 0 0.3107740764171085 -3.1640107227293086 0
          -0.2820764272922993 -1.973028887430793 0
          <InformationKey name="L2_NORM_RANGE" location="vtkDataArray" length="2">
            <Value index="0">
              1.9930905904
            </Value>
            <Value index="1">
              12.185877845
            </Value>
          </InformationKey>
        </DataArray>
        <DataArray type="Float64" Name="Acceleration" NumberOfComponents="3" format="ascii" RangeMin="381.2531801618877" RangeMax="2508.640429845688">
          -46.97105710334472 2426.694053893989 0 172.4358080302536 1965.9184439140736 0
          -124.2711467470699 1958.1988436973334 0 209.8051334489005 1278.3809067877592 0
          -162.4400325374072 1272.4666048752842 0 226.26403186625294 491.1157480446418 0
          -177.739479064041 488.22004552546423 0 231.6746273554627 -332.85518421449524 0
          -181.74618210353674 -335.14521132539085 0 230.29775273577343 -1158.4445307433198 0
          -179.9330168286615 -1158.3323693863786 0 99.12267205729358 2435.613330848704 0
          68.32784215812899 2507.709734447424 0
          <InformationKey name="L2_NORM_RANGE" location="vtkDataArray" length="2">
            <Value index="0">
              381.25318016
            </Value>
            <Value index="1">
              2508.6404298
            </Value>
          </InformationKey>
        </DataArray>
        <DataArray type="Float64" Name="Sigma" NumberOfComponents="6" format="ascii" RangeMin="1579.886709863113" RangeMax="77419.2793745823">
          -11810.867302677367 28603.470497879258 0 557.2025550001974 0 0
          27012.83105250809 13394.873574593135 0 -2948.3725157468753 0 0
          3335.984345356854 11464.739293591947 0 -4254.120528517525 0 0
          835.5565248904586 5443.982951192008 0 3287.402885627611 0 0
          8733.117347140122 2613.2409744304496 0 -5424.0513797066515 0 0
          -8411.990279475738 -702.4123345251555 0 5425.987687530593 0 0
          5850.317247499761 -2833.883384575275 0 -3588.8921394289373 0 0
          -9403.139895330558 -3781.642013522077 0 3601.263346896356 0 0
          2617.656993295121 -4456.3152071692175 0 -721.5491918022915 0 0
          -6845.928311909 -2790.328885205954 0 715.4896393958431 0 0
          489.8136570781446 -1403.3562214875308 0 535.4586005977184 0 0
          69069.35416375964 28676.383804107867 0 -20020.842794454577 0 0
          -47581.62514714516 30443.86236780749 0 21068.500492925377 0 0
          <InformationKey name="L2_NORM_RANGE" location="vtkDataArray" length="2">
            <Value index="0">
              1579.8867099
            </Value>
            <Value index="1">
              77419.279375
            </Value>
          </InformationKey>
        </DataArray>
        <DataArray type="Float64" Name="Press" format="ascii" RangeMin="-10988.956927381898" RangeMax="1254.9196725484214">
          -10988.956927381898 -4509.784475627362 -4120.325690359791 -2404.7954158915218 -729.1652557291175 -754.0255799623409
          933.0927539847811 272.5363176992163 986.9218776563278 1156.4865056056021 1254.9196725484214 -7493.606651558926
          -10950.390626902637
        </DataArray>
        <DataArray type="Float64" Name="Dev strain" NumberOfComponents="6" format="ascii" RangeMin="0.0001564527797224785" RangeMax="0.0027957249005297496">
          -0.0004272764517164021 0.0015425308124924735 0 -0.00023018602969637379 0 0
          0.0007007090309295063 0.0005185116800075734 0 -0.0003733706334852042 0 0
          0.00002258036386122111 0.0006033654443436383 0 -0.00026529920764330477 0 0
          0.00006545371170081337 0.0002954531418427399 0 0.000025407934545544957 0 0
          0.00017580605161940624 0.00006296055896231953 0 -0.00020500481964169607 0 0
          -0.0001689044459114847 0.00007108875023355197 0 0.0001912384403521102 0 0
          0.0001472003517497837 -0.000197771976036878 0 -0.00008593260124311317 0 0
          -0.0002045197276166789 -0.00007971777228252025 0 0.00017078727451644746 0 0
          0.00006909209984009882 -0.00023150619566350558 0 0.000011167654311959188 0 0
          -0.0001645736911090379 -0.00008685787000466767 0 0.00007440511769829728 0 0
          0.00003175061184317012 -0.00015051847380574001 0 0.000028522972735419332 0 0
          0.001647329012259246 0.0006087459256527883 0 -0.001031518672325562 0 0
          -0.0014093064389197397 0.0024065360368099526 0 0.00019625846273851614 0 0
          <InformationKey name="L2_NORM_RANGE" location="vtkDataArray" length="2">
            <Value index="0">
              0.00015645277972
            </Value>
            <Value index="1">
              0.0027957249005
            </Value>
          </InformationKey>
        </DataArray>
        <DataArray type="Float64" Name="J2 Stresses" format="ascii" RangeMin="1176342.0297625298" RangeMax="2896663872.8897457">
          478905174.154076 456731064.8982422 75808904.67903715 17869306.972686317 48903266.83710537 42987817.371152095
          24348590.163996205 54602202.52822103 13485594.989144877 27454316.22572665 1176342.0297625298 2896663872.8897457
          1706390332.0118203
        </DataArray>
      </PointData>
      <CellData>
        <DataArray type="UInt8" Name="vtkGhostType" format="ascii" RangeMin="0" RangeMax="1">
          1 1 0 0 0 0
          0 0 0 0 0
        </DataArray>
        <DataArray type="Float64" Name="Gauss Stress" NumberOfComponents="6" format="ascii" RangeMin="1763.0785262310478" RangeMax="26938.241731397553">
          -6585.364163968785 19430.25415465039 0 534.9534178236663 0 0
          20426.323286340725 15894.126607337359 0 -7470.6709184004185 0 0
          -360.372999393825 11281.338757565096 0 -2215.096829754735 0 0
          1883.4572851356688 4089.225619077991 0 -2130.2563408655224 0 0
          6716.488780292241 6422.896745832804 0 -1305.0300528789292 0 0
          1873.7820778191563 -491.0509421255533 0 -1195.6519438683324 0 0
          -910.4342196760481 1155.6084465047736 0 1096.4463978171848 0 0
          419.12843160154944 -2959.7632186420815 0 -236.39266144495798 0 0
          -3837.7364785282944 -2288.7780803002834 0 1812.7862983326706 0 0
          -113.37653524179382 -1750.5574193507832 0 176.46634939709003 0 0
          -3738.488837661097 -2870.780468312034 0 1198.401264829969 0 0
          <InformationKey name="L2_NORM_RANGE" location="vtkDataArray" length="2">
            <Value index="0">
              1763.0785262
            </Value>
            <Value index="1">
              26938.241731
            </Value>
          </InformationKey>
        </DataArray>
        <DataArray type="Float64" Name="Gauss Strain" NumberOfComponents="6" format="ascii" RangeMin="0.00013400718577757933" RangeMax="0.001998317838539793">
          -0.00116432080294957 0.0016230668740453414 0 0.00005731643762396416 0 0
          0.0008913757130480035 0.00040578321172621425 0 -0.0008004290269714732 0 0
          -0.0004286458841554553 0.0008186803755187151 0 -0.00023733180318800728 0 0
          -0.000011511108885951923 0.00022482121260786837 0 -0.00022824175080702025 0 0
          0.0002503600290982743 0.0002189037396919061 0 -0.00013982464852274238 0 0
          0.00015137911063442376 -0.00010199585578822367 0 -0.00012810556541446418 0 0
          -0.00010630274592345954 0.00011505896831019981 0 0.00011747639976612692 0 0
          0.00013564357435161362 -0.0002263805310316326 0 -0.000025327785154816932 0 0
          -0.0001923819598841537 -0.00002642213150258123 0 0.00019422710339278616 0 0
          0.00005442158388811413 -0.00012099065369499189 0 0.00001890710886397394 0 0
          -0.00016450704310750578 -0.00007153828924867756 0 0.00012840013551749667 0 0
          <InformationKey name="L2_NORM_RANGE" location="vtkDataArray" length="2">
            <Value index="0">
              0.00013400718578
            </Value>
            <Value index="1">
              0.0019983178385
            </Value>
          </InformationKey>
        </DataArray>
      </CellData>
      <Points>
        <DataArray type="Float32" Name="Points" NumberOfComponents="3" format="ascii" RangeMin="0.4000000059604645" RangeMax="1.0012492197622458">
          0.5 0 0 0.6000000238418579 0.05000000074505806 0
          0.6000000238418579 0 0 0.699999988079071 0.05000000074505806 0
          0.699999988079071 0 0 0.800000011920929 0.05000000074505806 0
          0.800000011920929 0 0 0.8999999761581421 0.05000000074505806 0
          0.8999999761581421 0 0 1 0.05000000074505806 0
          1 0 0 0.5 0.05000000074505806 0
          0.4000000059604645 0 0
          <InformationKey name="L2_NORM_RANGE" location="vtkDataArray" length="2">
            <Value index="0">
              0.40000000596
            </Value>
            <Value index="1">
              1.0012492198
            </Value>
          </InformationKey>
        </DataArray>
      </Points>
      <Cells>
        <DataArray type="Int64" Name="connectivity" format="ascii" RangeMin="0" RangeMax="12">
          0 11 12 1 11 0
          2 1 0 4 3 2
          3 1 2 6 5 4
          5 3 4 8 7 6
          7 5 6 10 9 8
          9 7 8
        </DataArray>
        <DataArray type="Int64" Name="offsets" format="ascii" RangeMin="3" RangeMax="33">
          3 6 9 12 15 18
          21 24 27 30 33
        </DataArray>
        <DataArray type="UInt8" Name="types" format="ascii" RangeMin="5" RangeMax="5">
          5 5 5 5 5 5
          5 5 5 5 5
        </DataArray>
      </Cells>
    </Piece>
  </UnstructuredGrid>
</VTKFile>
