<?xml version="1.0"?>
<VTKFile type="UnstructuredGrid" version="0.1" byte_order="LittleEndian" header_type="UInt32" compressor="vtkZLibDataCompressor">
  <UnstructuredGrid>
    <Piece NumberOfPoints="13" NumberOfCells="11">
      <PointData>
        <DataArray type="Float64" Name="Disp" NumberOfComponents="3" format="ascii" RangeMin="0" RangeMax="0.023063483208785263">
          0 0 0 0 0 0
          -0.00029321902441899444 0.0009274388664888116 0 0.0005219098035876495 0.0009080473829436537 0
          -0.0008153080759266457 0.003521082239586408 0 0.000914808281960714 0.0034984957846519605 0
          -0.0010813993073601543 0.007846606049300127 0 0.0013480121228601413 0.007909700128183235 0
          -0.0011890954788391075 0.012947461907860704 0 0.0013951349721710938 0.012978637175407964 0
          -0.0011574687605347134 0.01814961535131942 0 0.0013788816130585677 0.018169665688847772 0
          -0.0010516475639468562 0.023039494246253855 0
          <InformationKey name="L2_NORM_RANGE" location="vtkDataArray" length="2">
            <Value index="0">
              0
            </Value>
            <Value index="1">
              0.023063483209
            </Value>
          </InformationKey>
        </DataArray>
        <DataArray type="Float64" Name="Nodal Stress" NumberOfComponents="6" format="ascii" RangeMin="3176.165947192741" RangeMax="945497.8599387802">
          817640.3916970106 162249.1845456072 0 446212.4999690818 0 0
          50900.94123147592 -41404.68610763972 0 13359.115039858903 0 0
          -64654.642914943 -16215.360339539668 0 -10572.100741206248 0 0
          20864.43318970548 5.039158593605463 0 -12043.57924990185 0 0
          8285.656507924985 13636.245550494605 0 19655.277537201815 0 0
          25428.346587543572 1148.4530748457419 0 -4916.689902667226 0 0
          -26286.875100348174 -12482.430337968834 0 6467.266699809804 0 0
          4722.477726810123 -12511.675084318656 0 532.2022112680609 0 0
          -11798.08984283575 -8933.296479622464 0 5164.022893587042 0 0
          150.5079039598765 -7351.434241104225 0 993.2352756032828 0 0
          -4895.268386248048 -6441.633413180998 0 1668.0225352812222 0 0
          -3734.9186131044803 -5307.119841873222 0 2221.1854258230223 0 0
          641.8782273077592 -3056.4778410282474 0 -577.897631694675 0 0
          <InformationKey name="L2_NORM_RANGE" location="vtkDataArray" length="2">
            <Value index="0">
              3176.1659472
            </Value>
            <Value index="1">
              945497.85994
            </Value>
          </InformationKey>
        </DataArray>
        <DataArray type="Float64" Name="Nodal Strain" NumberOfComponents="6" format="ascii" RangeMin="0.00029335999063507916" RangeMax="0.07323572422900174">
          0.05260827138744336 -0.017612215093064147 0 0.04780848213954448 0 0
          0.005114520306092556 -0.00477536833738412 0 0.001431333754270598 0 0
          -0.004039068767512373 0.0011508543655665599 0 -0.001132725079414956 0 0
          0.001490136686457762 -0.0007447983883042234 0 -0.0012903834910609124 0 0
          0.00010482383804840587 0.0006781012354665797 0 0.0021059225932716225 0 0
          0.0017752942892943358 -0.0008261228727804314 0 -0.0005267882038572028 0 0
          -0.0014318328522402689 0.00004721480087180384 0 0.000692921432122479 0 0
          0.0007841653763549611 -0.0010623509962659802 0 0.00005702166549300657 0 0
          -0.0005236744002160372 -0.00021673225415747078 0 0.0005532881671700402 0 0
          0.000273301787465142 -0.0005304777280774403 0 0.00010641806524320886 0 0
          -0.00011960369140411068 -0.00028528565857549826 0 0.00017871670020870237 0 0
          -0.00007723990658341928 -0.0002456900382372131 0 0.00023798415276675243 0 0
          0.00015500836770156304 -0.00024124406819158058 0 -0.00006191760339585806 0 0
          <InformationKey name="L2_NORM_RANGE" location="vtkDataArray" length="2">
            <Value index="0">
              0.00029335999064
            </Value>
            <Value index="1">
              0.073235724229
            </Value>
          </InformationKey>
        </DataArray>
        <DataArray type="Float64" Name="Sld_traction" NumberOfComponents="3" format="ascii" RangeMin="4251.941429109629" RangeMax="109395.03399920181">
          18361.216507227266 -35072.80332968645 0 -108385.76720144918 -14825.617418501737 0
          74933.1496585372 33125.109303655125 0 4551.463458846503 1118.1600380996383 0
          17388.268841391528 4840.187076737809 0 21665.819467296034 -1501.2208856947668 0
          22204.35536022028 -11237.970410332382 0 6995.141439206324 10919.24586156398 0
          8084.255270347615 -9029.859225011518 0 529.8447225852059 7949.449452689341 0
          1922.8469601554825 -6159.982950371263 0 -3612.662792719797 5453.436852751987 0
          -3270.54236551518 -2717.0864086276697 0
          <InformationKey name="L2_NORM_RANGE" location="vtkDataArray" length="2">
            <Value index="0">
              4251.9414291
            </Value>
            <Value index="1">
              109395.034
            </Value>
          </InformationKey>
        </DataArray>
        <DataArray type="Float64" Name="Velocity" NumberOfComponents="3" format="ascii" RangeMin="0" RangeMax="7.624113291991699">
          0 0 0 0 0 0
          0.05264407515720837 -0.16995611930591903 0 -0.1055328686628989 -0.16036187882488284 0
          0.18893234458589714 -0.7203554381266919 0 -0.2159531042297883 -0.7055691952046508 0
          0.3104805733442154 -1.8254641724660035 0 -0.37170657461022427 -1.8349722411526646 0
          0.4159543290397849 -3.396015562649799 0 -0.46392406551009313 -3.3992924930421484 0
          0.5029237040555192 -5.346396389593789 0 -0.5533946472662954 -5.3516616058541295 0
          0.5690808187127601 -7.6028448958858625 0
          <InformationKey name="L2_NORM_RANGE" location="vtkDataArray" length="2">
            <Value index="0">
              0
            </Value>
            <Value index="1">
              7.624113292
            </Value>
          </InformationKey>
        </DataArray>
        <DataArray type="Float64" Name="Acceleration" NumberOfComponents="3" format="ascii" RangeMin="0" RangeMax="1006.9721702484742">
          0 0 0 0 0 0
          31.712190178130754 -98.72519773376371 0 -51.02132384360948 -99.43120161487377 0
          68.66349535839231 -340.3749387708076 0 -75.22680696473458 -342.85308947622343 0
          63.611258623906 -657.5464987237101 0 -86.32190914251032 -665.2045050712095 0
          35.76036709988284 -908.9724268882819 0 -53.01218315335109 -913.4076701552112 0
          -10.141170109230188 -1005.5285024574332 0 -8.8923507125578 -1006.9329062821053 0
          -60.629471647169794 -902.2708820813568 0
          <InformationKey name="L2_NORM_RANGE" location="vtkDataArray" length="2">
            <Value index="0">
              0
            </Value>
            <Value index="1">
              1006.9721702
            </Value>
          </InformationKey>
        </DataArray>
        <DataArray type="Float64" Name="Sigma" NumberOfComponents="6" format="ascii" RangeMin="7333.712843298335" RangeMax="2302355.591769077">
          1991617.3105048537 460637.45220203855 0 1059299.248124232 0 0
          -201460.65426595038 -156579.5449457214 0 -165222.88900518717 0 0
          -449737.751347066 -54223.97266727934 0 -168525.6073669498 0 0
          226917.90918374897 48900.754133149385 0 45516.44294928749 0 0
          37762.7835972709 43203.45218694734 0 64402.079294790754 0 0
          28622.90702013418 -376.89490876593004 0 -44151.66354504192 0 0
          -81526.86815265591 -31443.675900666414 0 15246.903236135873 0 0
          25017.220973569838 -25373.25623813573 0 1095.2944271040042 0 0
          -26169.736568037166 -7675.663239887092 0 7836.439921987476 0 0
          2353.666135951787 -10268.033558739213 0 -2200.3627986120714 0 0
          -9806.129031880613 -10451.887081417995 0 1912.8686979999077 0 0
          -9074.489748407674 -8673.750666550704 0 4527.08843183305 0 0
          4238.493684890008 -4495.490443563128 0 -3950.8329530542123 0 0
          <InformationKey name="L2_NORM_RANGE" location="vtkDataArray" length="2">
            <Value index="0">
              7333.7128433
            </Value>
            <Value index="1">
              2302355.5918
            </Value>
          </InformationKey>
        </DataArray>
        <DataArray type="Float64" Name="Press" format="ascii" RangeMin="-16797.616017937075" RangeMax="11994.28420777314">
          -16797.616017937075 -13283.905509899338 -14595.511062874142 -6885.309895578711 -13014.697628503909 -4530.39181449394
          8549.263857472994 11994.28420777314 1636.7343922230916 3175.733234065569 3322.8591651983033 2725.227279471833
          2090.633253878318
        </DataArray>
        <DataArray type="Float64" Name="Dev strain" NumberOfComponents="6" format="ascii" RangeMin="0.00032694229547864767" RangeMax="0.07350164059205794">
          0.05315715217859201 -0.017063334301915513 0 0.04780848213954448 0 0
          0.005587777315373187 -0.004302111328103489 0 0.001431333754270598 0 0
          -0.0035696526638378397 0.0016202704692410892 0 -0.001132725079414956 0 0
          0.0018304538712215174 -0.0004044812035404684 0 -0.0012903834910609124 0 0
          0.00042317454160962576 0.0009964519390277995 0 0.0021059225932716225 0 0
          0.0018675688253563332 -0.0007338483367184344 0 -0.0005267882038572028 0 0
          -0.0015950632233566841 -0.00011601557024461163 0 0.000692921432122479 0 0
          0.0005133825097906672 -0.0013331338628302736 0 0.00005702166549300657 0 0
          -0.0006785332224174872 -0.0003715910763589211 0 0.0005532881671700402 0 0
          0.00014326280530299566 -0.0006605167102395865 0 0.00010641806524320886 0 0
          -0.00022515858326234293 -0.00039084055043373054 0 0.00017871670020870237 0 0
          -0.00016826154587580385 -0.0003367116775295976 0 0.00023798415276675243 0 0
          0.00008733479569977595 -0.0003089176401933677 0 -0.00006191760339585806 0 0
          <InformationKey name="L2_NORM_RANGE" location="vtkDataArray" length="2">
            <Value index="0">
              0.00032694229548
            </Value>
            <Value index="1">
              0.073501640592
            </Value>
          </InformationKey>
        </DataArray>
        <DataArray type="Float64" Name="J2 Stresses" format="ascii" RangeMin="22989401.778244715" RangeMax="2369891911206.027">
          2369891911206.027 39376425319.14209 109702362183.86842 27459447276.246372 2683190007.315207 897048776.4763961
          3875784507.0363674 635131656.1537696 387237906.7690376 56696527.83283943 103615821.74024908 83913789.82713154
          22989401.778244715
        </DataArray>
      </PointData>
      <CellData>
        <DataArray type="UInt8" Name="vtkGhostType" format="ascii" RangeMin="0" RangeMax="0">
          0 0 0 0 0 0
          0 0 0 0 0
        </DataArray>
        <DataArray type="Float64" Name="Gauss Stress" NumberOfComponents="6" format="ascii" RangeMin="5658.768944123638" RangeMax="499717.72559227084">
          -153015.07429920646 -65555.8299827345 0 -96077.35114094979 0 0
          431913.95743370865 68385.63399944242 0 241850.25058403163 0 0
          89624.40015419248 22432.304024251403 0 21922.2862330121 0 0
          -73184.1923843343 1128.2383552868741 0 -19535.695040957165 0 0
          -3957.8613027332267 -13726.890265605292 0 -9269.821960600679 0 0
          -8045.667706925238 795.6852639967087 0 11832.439661961569 0 0
          6002.634125182087 -8836.73373423341 0 2243.7905168264683 0 0
          -20166.367096551337 -14104.104307073336 0 8059.545861742452 0 0
          -2434.3776552002637 -6723.283875990735 0 1413.1981104069628 0 0
          -8495.624224159676 -6753.419029519111 0 2516.315273791771 0 0
          -2167.80179894994 -5160.802830994457 0 829.7080589262475 0 0
          <InformationKey name="L2_NORM_RANGE" location="vtkDataArray" length="2">
            <Value index="0">
              5658.7689441
            </Value>
            <Value index="1">
              499717.72559
            </Value>
          </InformationKey>
        </DataArray>
        <DataArray type="Float64" Name="Gauss Strain" NumberOfComponents="6" format="ascii" RangeMin="0.0003058969964248205" RangeMax="0.03987002996163862">
          -0.008588368521988517 0.0007822647976334809 0 -0.010294001907958907 0 0
          0.028408652888141966 -0.010540810336957992 0 0.025912526848289104 0 0
          0.00560058915300477 -0.0015985640037746306 0 0.0023488163821084396 0 0
          -0.005267736540141267 0.0026943096105324304 0 -0.0020931101829596956 0 0
          0.00020754170214781536 -0.0008391399724456202 0 -0.0009931952100643588 0 0
          -0.0006031078813516853 0.0003441799369613807 0 0.0012677613923530251 0 0
          0.000744357213735628 -0.0008455750569160324 0 0.00024040612680283592 0 0
          -0.0009367367816439048 -0.000287208625628405 0 0.0008635227709009768 0 0
          0.00006623316305679299 -0.00039329250345647166 0 0.00015141408325788883 0 0
          -0.0003656367649571517 -0.0001789719226742339 0 0.0002696052079062611 0 0
          0.00002947140118194917 -0.0002912072808228206 0 0.00008889729202781225 0 0
          <InformationKey name="L2_NORM_RANGE" location="vtkDataArray" length="2">
            <Value index="0">
              0.00030589699642
            </Value>
            <Value index="1">
              0.039870029962
            </Value>
          </InformationKey>
        </DataArray>
      </CellData>
      <Points>
        <DataArray type="Float32" Name="Points" NumberOfComponents="3" format="ascii" RangeMin="0" RangeMax="0.6020797527609908">
          0 0.05000000074505806 0 0 0 0
          0.10000000149011612 0.05000000074505806 0 0.10000000149011612 0 0
          0.20000000298023224 0.05000000074505806 0 0.20000000298023224 0 0
          0.30000001192092896 0.05000000074505806 0 0.30000001192092896 0 0
          0.4000000059604645 0.05000000074505806 0 0.4000000059604645 0 0
          0.5 0.05000000074505806 0 0.5 0 0
          0.6000000238418579 0.05000000074505806 0
          <InformationKey name="L2_NORM_RANGE" location="vtkDataArray" length="2">
            <Value index="0">
              0
            </Value>
            <Value index="1">
              0.60207975276
            </Value>
          </InformationKey>
        </DataArray>
      </Points>
      <Cells>
        <DataArray type="Int64" Name="connectivity" format="ascii" RangeMin="0" RangeMax="12">
          3 2 1 2 0 1
          5 4 3 4 2 3
          7 6 5 6 4 5
          9 8 7 8 6 7
          11 10 9 10 8 9
          12 10 11
        </DataArray>
        <DataArray type="Int64" Name="offsets" format="ascii" RangeMin="3" RangeMax="33">
          3 6 9 12 15 18
          21 24 27 30 33
        </DataArray>
        <DataArray type="UInt8" Name="types" format="ascii" RangeMin="5" RangeMax="5">
          5 5 5 5 5 5
          5 5 5 5 5
        </DataArray>
      </Cells>
    </Piece>
  </UnstructuredGrid>
</VTKFile>
