<?xml version="1.0"?>
<VTKFile type="UnstructuredGrid" version="0.1" byte_order="LittleEndian" header_type="UInt32" compressor="vtkZLibDataCompressor">
  <UnstructuredGrid>
    <Piece NumberOfPoints="13" NumberOfCells="11">
      <PointData>
        <DataArray type="Float64" Name="Disp" NumberOfComponents="3" format="ascii" RangeMin="0.02609172913271218" RangeMax="0.1085898390130177">
          -0.0035140437443975455 -0.038607495050371095 0 0.0032632676310975065 -0.05219522839947045 0
          -0.0036645540669189226 -0.05222349609545874 0 0.003322194914215722 -0.0662215136023113 0
          -0.003720506756509897 -0.0662356981807554 0 0.003330346813078144 -0.08034517290715269 0
          -0.003726337912107071 -0.08035133996231095 0 0.00332413302366074 -0.09444907310958414 0
          -0.003718058049360022 -0.0944494847615029 0 0.0033226759634221816 -0.10852657598297354 0
          -0.00371409132878537 -0.10852630401185946 0 0.0031020513709380743 -0.03856743195411699 0
          -0.0031746812683016005 -0.025897871109022 0
          <InformationKey name="L2_NORM_RANGE" location="vtkDataArray" length="2">
            <Value index="0">
              0.026091729133
            </Value>
            <Value index="1">
              0.10858983901
            </Value>
          </InformationKey>
        </DataArray>
        <DataArray type="Float64" Name="Nodal Stress" NumberOfComponents="6" format="ascii" RangeMin="102.25634385877966" RangeMax="27564.484274727805">
          -8056.893939459415 10017.871404435373 0 1141.6971118710587 0 0
          14965.355830329798 7947.678643872834 0 -5064.906111029948 0 0
          -3745.2649387891206 6454.15147432749 0 147.6086739756256 0 0
          7874.248329073187 4835.1046437871155 0 -2533.053323189371 0 0
          -1271.3048078983445 3715.039516581579 0 -350.52593148274036 0 0
          3447.710014938748 2259.770033535954 0 -889.8799499582981 0 0
          -393.3676824955856 1424.8074330465506 0 -335.87236932927914 0 0
          938.6526146126469 562.4804139574542 0 -115.95367027375376 0 0
          -192.46668976099193 175.91161868252973 0 -126.41464530351125 0 0
          60.84209733190358 -73.06239802181398 0 37.63621988088318 0 0
          -188.99820797795203 -120.39427838374021 0 -27.983808633380537 0 0
          23866.86916061572 10951.812261316105 0 -8380.403211937537 0 0
          -16217.827501775826 10838.232478904281 0 3930.454337720845 0 0
          <InformationKey name="L2_NORM_RANGE" location="vtkDataArray" length="2">
            <Value index="0">
              102.25634386
            </Value>
            <Value index="1">
              27564.484275
            </Value>
          </InformationKey>
        </DataArray>
        <DataArray type="Float64" Name="Nodal Strain" NumberOfComponents="6" format="ascii" RangeMin="0.000009851508704264493" RangeMax="0.0020970226040128905">
          -0.0009332735458340787 0.0010033084552975057 0 0.00012232469055761347 0 0
          0.0007851083220280989 0.00003321433776485255 0 -0.0005426685118960657 0 0
          -0.0004980243339966333 0.0005947702816944323 0 0.000015815215068817044 0 0
          0.0003897640005128307 0.00006414146280360877 0 -0.0002713985703417183 0 0
          -0.0002234874690135096 0.00031076370860933937 0 -0.00003755634980172218 0 0
          0.0001655589284407694 0.00003827964471904146 0 -0.0000953442803526748 0 0
          -0.00007898367135849005 0.00011582080530673885 0 -0.000035986325285279904 0 0
          0.000046958029116708556 0.000006653864760795055 0 -0.000012423607529330763 0 0
          -0.000020030178507304058 0.000019438925968787553 0 -0.000013544426282519064 0 0
          0.000006955235453057897 -0.00000739167476341184 0 0.000004032452130094626 0 0
          -0.000009200076341862999 -0.000001849655313911729 0 -0.000002998265210719343 0 0
          0.0013136402164255479 -0.0000701158799279823 0 -0.0008979003441361646 0 0
          -0.0015454959815162836 0.0013533675878422994 0 0.0004211201076129476 0 0
          <InformationKey name="L2_NORM_RANGE" location="vtkDataArray" length="2">
            <Value index="0">
              9.8515087043e-06
            </Value>
            <Value index="1">
              0.002097022604
            </Value>
          </InformationKey>
        </DataArray>
        <DataArray type="Float64" Name="Sld_traction" NumberOfComponents="3" format="ascii" RangeMin="84.5603285315386" RangeMax="22430.898383515574">
          -9541.527319679835 -9891.074832560085 0 -10788.861174688911 7730.517602603421 0
          -3955.4267038811436 -6752.6940886929915 0 -4966.898634036807 4648.77932028654 0
          -1000.6438270663779 -3933.200426155854 0 -1495.8867904767483 2100.751951094146 0
          214.45365982153155 -1627.2747590112267 0 -47.21454418503249 499.0889865911962 0
          268.5793070203637 -283.83087930672764 0 103.82487980051908 7.8676010018675075 0
          40.66451064574656 74.14072251673642 0 -19640.00432344508 10835.840182775872 0
          -16942.843292669226 -11495.880487134418 0
          <InformationKey name="L2_NORM_RANGE" location="vtkDataArray" length="2">
            <Value index="0">
              84.560328532
            </Value>
            <Value index="1">
              22430.898384
            </Value>
          </InformationKey>
        </DataArray>
        <DataArray type="Float64" Name="Velocity" NumberOfComponents="3" format="ascii" RangeMin="2.2711874150703504" RangeMax="17.03334595516466">
          -0.4886924015070251 -3.9099675808644996 0 0.564360843986133 -6.022717955584579 0
          -0.5912449768482555 -6.028112685235566 0 0.6443256448367158 -8.509756002915903 0
          -0.6696664589360903 -8.51692606685451 0 0.6921616397436707 -11.253656574036533 0
          -0.7180763124379514 -11.260049281207383 0 0.7111928208069258 -14.127244734744558 0
          -0.7342114505750514 -14.133509339554855 0 0.7079815931731064 -17.017723475841862 0
          -0.7308879135321715 -17.017657808469906 0 0.4602583963434437 -3.9064880854931907 0
          -0.3693166670414969 -2.2409590522406475 0
          <InformationKey name="L2_NORM_RANGE" location="vtkDataArray" length="2">
            <Value index="0">
              2.2711874151
            </Value>
            <Value index="1">
              17.033345955
            </Value>
          </InformationKey>
        </DataArray>
        <DataArray type="Float64" Name="Acceleration" NumberOfComponents="3" format="ascii" RangeMin="175.82046600745775" RangeMax="906.0273780541602">
          22.660670669259844 905.7439504564827 0 28.714318044113725 892.9321927017227 0
          -13.108032712754266 892.4556622101227 0 60.63912066881858 741.9271059451348 0
          -44.54354972612123 739.6791028556763 0 81.60795055143149 482.027456249074 0
          -65.9309131944508 479.57580099255574 0 90.60316490938749 162.389382561174 0
          -73.76522654924611 159.59801884490298 0 89.25834599526479 -166.6739116099634 0
          -72.54312698204944 -166.66313067652663 0 -7.01280651895172 904.5439799328742 0
          52.96249230579747 779.448774198203 0
          <InformationKey name="L2_NORM_RANGE" location="vtkDataArray" length="2">
            <Value index="0">
              175.82046601
            </Value>
            <Value index="1">
              906.02737805
            </Value>
          </InformationKey>
        </DataArray>
        <DataArray type="Float64" Name="Sigma" NumberOfComponents="6" format="ascii" RangeMin="228.66471934147538" RangeMax="66119.49423326529">
          -26854.808569889698 18660.27417702997 0 8286.674691222932 0 0
          36943.65034391066 9342.242085912805 0 -10000.330944881194 0 0
          -13338.902800757325 10969.81893312248 0 3690.803111545313 0 0
          18643.363484233338 6198.394730002094 0 -4671.100234453797 0 0
          -4713.9179536037345 6404.41987805529 0 682.6730858826805 0 0
          7924.484943390498 2871.862372265321 0 -1116.6599215244587 0 0
          -1314.6161523428036 2497.9496682951894 0 -417.6324926777666 0 0
          2051.6697916388084 695.2868911935562 0 162.41917769114536 0 0
          -265.8382253262674 376.54134883323746 0 -298.8650741008038 0 0
          62.571505931112455 -170.46571772950733 0 183.69594564968193 0 0
          -124.3969128336353 -191.8602288946541 0 1.6169469587998566 0 0
          61114.70626288495 15308.389366020789 0 -20060.743034154897 0 0
          -49082.37138775977 17231.04483330388 0 20411.662041641983 0 0
          <InformationKey name="L2_NORM_RANGE" location="vtkDataArray" length="2">
            <Value index="0">
              228.66471934
            </Value>
            <Value index="1">
              66119.494233
            </Value>
          </InformationKey>
        </DataArray>
        <DataArray type="Float64" Name="Press" format="ascii" RangeMin="-7966.08056059772" RangeMax="15.941809722624848">
          -7966.08056059772 -2016.6440318363623 -4495.091548204443 -1531.893589110614 -2481.358502001731 -970.7890681884468
          -1065.7200004923363 -361.5695418276586 -264.8728420308519 -70.94306426378044 15.941809722624848 -2894.1771075975075
          -7136.097688590396
        </DataArray>
        <DataArray type="Float64" Name="Dev strain" NumberOfComponents="6" format="ascii" RangeMin="0.000007197878694455906" RangeMax="0.002100360284343919">
          -0.0007271743944077426 0.0012094076067238418 0 0.00012232469055761347 0 0
          0.0009084662955558683 0.00015657231129262224 0 -0.0005426685118960657 0 0
          -0.0003655390256819903 0.0007272555900090753 0 0.000015815215068817044 0 0
          0.00046753690151015456 0.00014191436380093278 0 -0.0002713985703417183 0 0
          -0.00014773054081319625 0.00038652063680965287 0 -0.00003755634980172218 0 0
          0.00020964331696772504 0.00008236403324599711 0 -0.0000953442803526748 0 0
          -0.00004384894348045789 0.00015095553318477105 0 -0.000035986325285279904 0 0
          0.00006443521682047213 0.000024131052464558624 0 -0.000012423607529330763 0 0
          -0.000009601486676537085 0.000029867617799554523 0 -0.000013544426282519064 0 0
          0.00001212999292279834 -0.0000022169172936713946 0 0.000004032452130094626 0 0
          -0.000006486395209279224 8.640258186720462e-7 0 -0.000002998265210719343 0 0
          0.0014571471727985181 0.00007339107644498794 0 -0.0008979003441361646 0 0
          -0.0013220226363889562 0.0015768409329696264 0 0.0004211201076129476 0 0
          <InformationKey name="L2_NORM_RANGE" location="vtkDataArray" length="2">
            <Value index="0">
              7.1978786945e-06
            </Value>
            <Value index="1">
              0.0021003602843
            </Value>
          </InformationKey>
        </DataArray>
        <DataArray type="Float64" Name="J2 Stresses" format="ascii" RangeMin="24922.927249794375" RangeMax="2085285406.0608022">
          551860532.2032149 751057048.7142524 152537134.57882017 198452343.96715993 31735318.85941582 35834259.89671281
          4027588.3114033835 2352981.394814883 128556.75784220628 24922.927249794375 26143.123306390957 2085285406.0608022
          1457153030.3722053
        </DataArray>
      </PointData>
      <CellData>
        <DataArray type="UInt8" Name="vtkGhostType" format="ascii" RangeMin="0" RangeMax="1">
          1 1 0 0 0 0
          0 0 0 0 0
        </DataArray>
        <DataArray type="Float64" Name="Gauss Stress" NumberOfComponents="6" format="ascii" RangeMin="241.66699898409627" RangeMax="23099.665058654416">
          -10939.609683850053 11067.784339856338 0 2879.197899570006 0 0
          19442.21544562477 10144.667976310657 0 -7258.13309593772 0 0
          -5909.292389124965 8164.839685142242 0 659.0489526290171 0 0
          -2639.266969814837 5021.429967287691 0 -99.20801234193436 0 0
          11401.493952745084 6155.608859961987 0 -3660.209355929893 0 0
          -873.9722444128513 2418.7881159777617 0 -283.87310943984824 0 0
          5623.296438239771 3496.878607007304 0 -1701.6956900318587 0 0
          -406.9823234603699 625.871841323712 0 -184.692796362475 0 0
          2087.81999072602 1222.340107081875 0 -457.2910788370265 0 0
          -215.84590960026588 -101.88623145431055 0 -37.850727164107326 0 0
          383.67254137378734 67.99235805833173 0 15.750016413341186 0 0
          <InformationKey name="L2_NORM_RANGE" location="vtkDataArray" length="2">
            <Value index="0">
              241.66699898
            </Value>
            <Value index="1">
              23099.665059
            </Value>
          </InformationKey>
        </DataArray>
        <DataArray type="Float64" Name="Gauss Strain" NumberOfComponents="6" format="ascii" RangeMin="0.00001246482764608364" RangeMax="0.0016956127745187733">
          -0.0011766787038413014 0.0011812563701272408 0 0.0003084854892396434 0 0
          0.0010264201041049607 0.000030254303821304986 0 -0.0007776571174218988 0 0
          -0.0007136937308354346 0.0007942489914074804 0 0.00007061238778168039 0 0
          -0.00036785585381847723 0.0004529331037282221 0 -0.000010629429893778706 0 0
          0.0005945492516260064 0.0000324901345421033 0 -0.00039216528813534564 0 0
          -0.00014881187874298088 0.00020398387415601336 0 -0.000030414976011412312 0 0
          0.0002767755096240086 0.0000489450277062442 0 -0.00018232453821769913 0 0
          -0.00005142273172301613 0.00005924021450384978 0 -0.00001978851389597947 0 0
          0.0001054749955132202 0.000012745007979918912 0 -0.00004899547273253855 0 0
          -0.000011778770990936475 4.311945247016002e-7 0 -0.000004055435053297212 0 0
          0.000024976883024615826 -0.000008845993759182997 0 0.0000016875017585722717 0 0
          <InformationKey name="L2_NORM_RANGE" location="vtkDataArray" length="2">
            <Value index="0">
              1.2464827646e-05
            </Value>
            <Value index="1">
              0.0016956127745
            </Value>
          </InformationKey>
        </DataArray>
      </CellData>
      <Points>
        <DataArray type="Float32" Name="Points" NumberOfComponents="3" format="ascii" RangeMin="0.4000000059604645" RangeMax="1.0012492197622458">
          0.5 0 0 0.6000000238418579 0.05000000074505806 0
          0.6000000238418579 0 0 0.699999988079071 0.05000000074505806 0
          0.699999988079071 0 0 0.800000011920929 0.05000000074505806 0
          0.800000011920929 0 0 0.8999999761581421 0.05000000074505806 0
          0.8999999761581421 0 0 1 0.05000000074505806 0
          1 0 0 0.5 0.05000000074505806 0
          0.4000000059604645 0 0
          <InformationKey name="L2_NORM_RANGE" location="vtkDataArray" length="2">
            <Value index="0">
              0.40000000596
            </Value>
            <Value index="1">
              1.0012492198
            </Value>
          </InformationKey>
        </DataArray>
      </Points>
      <Cells>
        <DataArray type="Int64" Name="connectivity" format="ascii" RangeMin="0" RangeMax="12">
          0 11 12 1 11 0
          2 1 0 4 3 2
          3 1 2 6 5 4
          5 3 4 8 7 6
          7 5 6 10 9 8
          9 7 8
        </DataArray>
        <DataArray type="Int64" Name="offsets" format="ascii" RangeMin="3" RangeMax="33">
          3 6 9 12 15 18
          21 24 27 30 33
        </DataArray>
        <DataArray type="UInt8" Name="types" format="ascii" RangeMin="5" RangeMax="5">
          5 5 5 5 5 5
          5 5 5 5 5
        </DataArray>
      </Cells>
    </Piece>
  </UnstructuredGrid>
</VTKFile>
