<?xml version="1.0"?>
<VTKFile type="UnstructuredGrid" version="0.1" byte_order="LittleEndian" header_type="UInt32" compressor="vtkZLibDataCompressor">
  <UnstructuredGrid>
    <Piece NumberOfPoints="13" NumberOfCells="11">
      <PointData>
        <DataArray type="Float64" Name="Disp" NumberOfComponents="3" format="ascii" RangeMin="0" RangeMax="0.021520630092222798">
          0 0 0 0 0 0
          0.0002141306515497602 -0.0006819161215526131 0 -0.0003970337387136832 -0.0006595423587300743 0
          0.0006525732002099241 -0.002689849728301373 0 -0.0007375405667521644 -0.0026589374543634146 0
          0.0009460151436741709 -0.006290060049562012 0 -0.0011586680189505979 -0.006333691187715429 0
          0.0011403975329991511 -0.010894810446193122 0 -0.001305616979718066 -0.010914459454346478 0
          0.001241783443240363 -0.016059440694466312 0 -0.001417882635122078 -0.016076320443747825 0
          0.0012789230800212986 -0.021482594706451877 0
          <InformationKey name="L2_NORM_RANGE" location="vtkDataArray" length="2">
            <Value index="0">
              0
            </Value>
            <Value index="1">
              0.021520630092
            </Value>
          </InformationKey>
        </DataArray>
        <DataArray type="Float64" Name="Nodal Stress" NumberOfComponents="6" format="ascii" RangeMin="4763.381631130924" RangeMax="741141.352606841">
          -643136.2980870461 -118933.61547305631 0 -348598.6255527912 0 0
          -41096.10308066063 38685.61273904825 0 -8149.809332061657 0 0
          51434.71133550338 12797.90281454063 0 9513.400066315118 0 0
          -18858.466765321416 -2892.1926903122876 0 10074.123745384466 0 0
          -5990.825740143534 -13439.294033835291 0 -15231.60577417657 0 0
          -24047.018822604532 -3212.653788451952 0 5300.768566265866 0 0
          22860.488238332546 7648.033101173646 0 -5634.961419300038 0 0
          -8751.095038301495 7891.172268650702 0 1399.5562058353876 0 0
          13154.949142025906 5744.61431447128 0 -5311.26093942283 0 0
          -5518.158302650529 4884.584636253823 0 1167.3686063651649 0 0
          8892.182137103437 4772.8721521874595 0 -3113.9312821743797 0 0
          -2112.5478875010335 4269.255550366974 0 20.075668636653003 0 0
          4963.080444134503 3196.5346377994147 0 -1620.1870807538705 0 0
          <InformationKey name="L2_NORM_RANGE" location="vtkDataArray" length="2">
            <Value index="0">
              4763.3816311
            </Value>
            <Value index="1">
              741141.35261
            </Value>
          </InformationKey>
        </DataArray>
        <DataArray type="Float64" Name="Nodal Strain" NumberOfComponents="6" format="ascii" RangeMin="0.00030084446011563465" RangeMax="0.057815376550400796">
          -0.041690677882179866 0.01447389525503334 0 -0.03734985273779906 0 0
          -0.004317064960727483 0.004230976019955613 0 -0.000873193857006603 0 0
          0.0032168399948737905 -0.000922818060943647 0 0.0010192928642480483 0 0
          -0.0012437407442975198 0.0004669314780248872 0 0.0010793704012911926 0 0
          0.00005205866262672214 -0.0007459915116973946 0 -0.0016319577615189187 0 0
          -0.0016029065663127546 0.0006293468302035938 0 0.0005679394892427713 0 0
          0.001359747977696123 -0.00027015792985661606 0 -0.0006037458663535755 0 0
          -0.0009069057980447749 0.0008761942705572465 0 0.00014995245062522007 0 0
          0.0007344744274850189 -0.00005949001832440506 0 -0.0005690636720810175 0 0
          -0.0005686036157698171 0.0005459759848270776 0 0.00012507520782483912 0 0
          0.00046469614721497915 0.000023341505973981584 0 -0.00033363549451868353 0 0
          -0.0003033696901917514 0.000380394963865535 0 0.0000021509644967842473 0 0
          0.00024034379465962826 0.000051071029695154524 0 -0.00017359147293791473 0 0
          <InformationKey name="L2_NORM_RANGE" location="vtkDataArray" length="2">
            <Value index="0">
              0.00030084446012
            </Value>
            <Value index="1">
              0.05781537655
            </Value>
          </InformationKey>
        </DataArray>
        <DataArray type="Float64" Name="Sld_traction" NumberOfComponents="3" format="ascii" RangeMin="4371.107727656069" RangeMax="84413.24285984907">
          -12808.977868878523 31598.329666903537 0 84177.78140858717 6300.530711295383 0
          -58008.61749446453 -26878.43367004535 0 -4623.223402861856 1069.1168177388545 0
          -14155.485370796629 -6142.075720695987 0 -19894.72094662976 3727.215218874757 0
          -20190.327879121396 6701.071628194687 0 -10053.5858497623 -6611.145165051185 0
          -10764.585728858194 5962.691429836173 0 -5826.315162700798 -5206.0579573153 0
          -6969.832690987111 4687.098570547756 0 -2635.572613588924 -4250.459818355097 0
          -3114.5399755470303 3066.9567175775583 0
          <InformationKey name="L2_NORM_RANGE" location="vtkDataArray" length="2">
            <Value index="0">
              4371.1077277
            </Value>
            <Value index="1">
              84413.24286
            </Value>
          </InformationKey>
        </DataArray>
        <DataArray type="Float64" Name="Velocity" NumberOfComponents="3" format="ascii" RangeMin="0" RangeMax="9.194208642735873">
          0 0 0 0 0 0
          0.11553513598677007 -0.36553729981335237 0 -0.20600666593456188 -0.3577089769718613 0
          0.3225554497179989 -1.3900900376194525 0 -0.3620403566612666 -1.380861332395977 0
          0.4296639865294166 -3.104518815962805 0 -0.5351231585395116 -3.1293237006950956 0
          0.4747388869598518 -5.134447533460412 0 -0.556257226194943 -5.146660494041868 0
          0.46511474601498526 -7.215369264706681 0 -0.552682187945904 -7.22332095612542 0
          0.4260245192647878 -9.18433316442431 0
          <InformationKey name="L2_NORM_RANGE" location="vtkDataArray" length="2">
            <Value index="0">
              0
            </Value>
            <Value index="1">
              9.1942086427
            </Value>
          </InformationKey>
        </DataArray>
        <DataArray type="Float64" Name="Acceleration" NumberOfComponents="3" format="ascii" RangeMin="0" RangeMax="473.09307902642564">
          0 0 0 0 0 0
          -13.759451557088937 42.895071991098064 0 22.34198452257047 43.09579840756936 0
          -30.527509854396953 149.2082656063958 0 33.533711784413356 150.09809529855124 0
          -29.610307784713086 292.5023042440366 0 39.695376214652754 295.79362818647814 0
          -19.014591172633516 412.90799043693914 0 26.690114669781224 414.7923683492072 0
          -0.6991952985372052 472.3665069179233 0 9.143422278740331 473.0047137732736 0
          19.736013424303962 451.3848033250333 0
          <InformationKey name="L2_NORM_RANGE" location="vtkDataArray" length="2">
            <Value index="0">
              0
            </Value>
            <Value index="1">
              473.09307903
            </Value>
          </InformationKey>
        </DataArray>
        <DataArray type="Float64" Name="Sigma" NumberOfComponents="6" format="ascii" RangeMin="11048.793572716972" RangeMax="1808082.1591547215">
          -1567441.657255901 -349539.5898461685 0 -830728.4878241787 0 0
          155630.95676651207 134909.12417714522 0 133680.64342460447 0 0
          355958.9659044049 37687.39413026664 0 133381.83001258748 0 0
          -184917.5261175799 -45135.393063897296 0 -35956.220555907494 0 0
          -27033.49272929499 -37068.43267438267 0 -50850.537192958815 0 0
          -32405.16000549851 -2167.8133996658544 0 37883.579216196704 0 0
          71571.14753858562 20631.780139918334 0 -14912.593465531932 0 0
          -33304.65945624358 17450.12295241875 0 3790.229370899218 0 0
          32387.092071858773 3524.516734053386 0 -10641.056219641861 0 0
          -17013.66067453126 7531.391424033801 0 7277.018398780243 0 0
          22319.360345845107 6910.492826234452 0 -7110.696029049784 0 0
          -7598.380354230664 7752.325627400929 0 2059.5880101845905 0 0
          11813.887132903521 3906.4316089878125 0 -2735.1558100816637 0 0
          <InformationKey name="L2_NORM_RANGE" location="vtkDataArray" length="2">
            <Value index="0">
              11048.793573
            </Value>
            <Value index="1">
              1808082.1592
            </Value>
          </InformationKey>
        </DataArray>
        <DataArray type="Float64" Name="Press" format="ascii" RangeMin="-9178.165023325158" RangeMax="13665.385376108206">
          13665.385376108206 11052.096541440289 12365.332199043283 6544.163913381828 11461.12980693099 4156.808376709189
          -5107.749323597432 -9178.165023325158 193.09263728277787 -2941.3471271444005 -1528.8125488829742 -3148.1130001603196
          -1028.1706664433489
        </DataArray>
        <DataArray type="Float64" Name="Dev strain" NumberOfComponents="6" format="ascii" RangeMin="0.0003563413570755086" RangeMax="0.0580318250207838">
          -0.042143786806221835 0.014020786330991377 0 -0.03734985273779906 0 0
          -0.004715049781501313 0.003832991199181783 0 -0.000873193857006603 0 0
          0.0028165095505674107 -0.0013231485052500244 0 0.0010192928642480483 0 0
          -0.0015476895907570111 0.00016298263156539633 0 0.0010793704012911926 0 0
          -0.0002379005823054621 -0.0010359507566295785 0 -0.0016319577615189187 0 0
          -0.0017071137392799533 0.0005251396572363946 0 0.0005679394892427713 0 0
          0.0014461616288586315 -0.0001837442786941079 0 -0.0006037458663535755 0 0
          -0.0007173735294048476 0.0010657265391971736 0 0.00014995245062522007 0 0
          0.0008229179701925275 0.000028953524383103497 0 -0.0005690636720810175 0 0
          -0.0004714434949080543 0.0006431361056888405 0 0.00012507520782483912 0 0
          0.0005307285090514907 0.00008937386781049312 0 -0.00033363549451868353 0 0
          -0.0002185351602267534 0.0004652294938305331 0 0.0000021509644967842473 0 0
          0.0002932982478553022 0.0001040254828908284 0 -0.00017359147293791473 0 0
          <InformationKey name="L2_NORM_RANGE" location="vtkDataArray" length="2">
            <Value index="0">
              0.00035634135708
            </Value>
            <Value index="1">
              0.058031825021
            </Value>
          </InformationKey>
        </DataArray>
        <DataArray type="Float64" Name="J2 Stresses" format="ascii" RangeMin="59977444.01333189" RangeMax="1462053092006.1384">
          1462053092006.1384 25678361851.756233 68511240686.408356 18439060035.40544 1698883498.2431648 886188298.516328
          2829646116.8330164 710445025.9464498 558980994.9072344 186332002.35909724 285594878.1789465 59977444.01333189
          79284337.8786971
        </DataArray>
      </PointData>
      <CellData>
        <DataArray type="UInt8" Name="vtkGhostType" format="ascii" RangeMin="0" RangeMax="0">
          0 0 0 0 0 0
          0 0 0 0 0
        </DataArray>
        <DataArray type="Float64" Name="Gauss Stress" NumberOfComponents="6" format="ascii" RangeMin="5922.083143317529" RangeMax="390892.19609239773">
          118877.99640240078 52474.23929912663 0 77035.41762709481 0 0
          -339589.6401561307 -46620.08580738829 0 -187888.67146232878 0 0
          -74064.69225178378 -20736.512346974603 0 -16307.726177556526 0 0
          58126.190992295335 -4715.268562885743 0 15525.024087907046 0 0
          -1422.592631123296 8594.99457415261 0 8920.40504052133 0 0
          7547.561221278293 -2698.0923580291437 0 -9293.18381409801 0 0
          -9952.549190700953 5526.537199106385 0 142.06385001253375 0 0
          18853.586148186994 9171.19937225022 0 -7254.473438091528 0 0
          -3303.651119701505 4858.645733827163 0 741.9701266383506 0 0
          11138.574901476013 4563.111315192347 0 -3491.577949970468 0 0
          6943.256969677111 4288.05128237885 0 -2595.4212763156183 0 0
          <InformationKey name="L2_NORM_RANGE" location="vtkDataArray" length="2">
            <Value index="0">
              5922.0831433
            </Value>
            <Value index="1">
              390892.19609
            </Value>
          </InformationKey>
        </DataArray>
        <DataArray type="Float64" Name="Gauss Strain" NumberOfComponents="6" format="ascii" RangeMin="0.0004452449660085819" RangeMax="0.03151244026656442">
          0.006617205482345533 -0.0004974827787195533 0 0.008253794745760157 0 0
          -0.022591399803745468 0.008798195305048358 0 -0.020130929085249518 0 0
          -0.0045497454341640355 0.0011639881270655203 0 -0.0017472563761667713 0 0
          0.004320273233838445 -0.002412740289930958 0 0.0016633954379900403 0 0
          -0.0004085778512999716 0.0006647350635510185 0 0.0009557576829129993 0 0
          0.0006354719571637761 -0.0004622766406191639 0 -0.000995698265796216 0 0
          -0.0009082726993038674 0.0007502008424612042 0 0.000015221126787057275 0 0
          0.0010191418901472785 -0.000018256692988805685 0 -0.0007772650112240922 0 0
          -0.00040949814190107753 0.00046503366383413675 0 0.00007949679928268043 0 0
          0.0006326442317057026 -0.00007186972396754695 0 -0.00037409763749683586 0 0
          0.00034280223774912027 0.000058315914110021184 0 -0.0002780808510338163 0 0
          <InformationKey name="L2_NORM_RANGE" location="vtkDataArray" length="2">
            <Value index="0">
              0.00044524496601
            </Value>
            <Value index="1">
              0.031512440267
            </Value>
          </InformationKey>
        </DataArray>
      </CellData>
      <Points>
        <DataArray type="Float32" Name="Points" NumberOfComponents="3" format="ascii" RangeMin="0" RangeMax="0.6020797527609908">
          0 0.05000000074505806 0 0 0 0
          0.10000000149011612 0.05000000074505806 0 0.10000000149011612 0 0
          0.20000000298023224 0.05000000074505806 0 0.20000000298023224 0 0
          0.30000001192092896 0.05000000074505806 0 0.30000001192092896 0 0
          0.4000000059604645 0.05000000074505806 0 0.4000000059604645 0 0
          0.5 0.05000000074505806 0 0.5 0 0
          0.6000000238418579 0.05000000074505806 0
          <InformationKey name="L2_NORM_RANGE" location="vtkDataArray" length="2">
            <Value index="0">
              0
            </Value>
            <Value index="1">
              0.60207975276
            </Value>
          </InformationKey>
        </DataArray>
      </Points>
      <Cells>
        <DataArray type="Int64" Name="connectivity" format="ascii" RangeMin="0" RangeMax="12">
          3 2 1 2 0 1
          5 4 3 4 2 3
          7 6 5 6 4 5
          9 8 7 8 6 7
          11 10 9 10 8 9
          12 10 11
        </DataArray>
        <DataArray type="Int64" Name="offsets" format="ascii" RangeMin="3" RangeMax="33">
          3 6 9 12 15 18
          21 24 27 30 33
        </DataArray>
        <DataArray type="UInt8" Name="types" format="ascii" RangeMin="5" RangeMax="5">
          5 5 5 5 5 5
          5 5 5 5 5
        </DataArray>
      </Cells>
    </Piece>
  </UnstructuredGrid>
</VTKFile>
