<?xml version="1.0"?>
<VTKFile type="UnstructuredGrid" version="0.1" byte_order="LittleEndian" header_type="UInt32" compressor="vtkZLibDataCompressor">
  <UnstructuredGrid>
    <Piece NumberOfPoints="13" NumberOfCells="11">
      <PointData>
        <DataArray type="Float64" Name="Disp" NumberOfComponents="3" format="ascii" RangeMin="0" RangeMax="0.0721131950349757">
          0 0 0 0 0 0
          0.0004896633113990056 -0.0015820226962372948 0 -0.0009856773633296506 -0.001490684144879009 0
          0.001771958954178688 -0.006730652122670201 0 -0.0020264515504756406 -0.006589432395907809 0
          0.0029278812130941636 -0.01712264381293346 0 -0.0035019843289006286 -0.017210456660328357 0
          0.0039385468668156134 -0.03195605062898144 0 -0.004388536089965251 -0.031985731866330934 0
          0.004779347475883664 -0.050446763736192446 0 -0.005252517995682437 -0.050496308491750026 0
          0.005424003720899905 -0.07190892212923308 0
          <InformationKey name="L2_NORM_RANGE" location="vtkDataArray" length="2">
            <Value index="0">
              0
            </Value>
            <Value index="1">
              0.072113195035
            </Value>
          </InformationKey>
        </DataArray>
        <DataArray type="Float64" Name="Nodal Stress" NumberOfComponents="6" format="ascii" RangeMin="31852.78857439113" RangeMax="1943290.1427354733">
          -1695882.9931983666 -274158.1866762006 0 -908402.3012475381 0 0
          -113174.18495764014 129794.85187781154 0 -10780.101634246583 0 0
          138257.28057028662 33943.35073098759 0 30525.201697072243 0 0
          -60841.44065051305 -20743.990042846068 0 29293.691319495836 0 0
          -13406.04707167756 -47761.353412823766 0 -39125.156101207336 0 0
          -81783.96746201684 -18959.733064472082 0 20487.790997904358 0 0
          70199.28869581882 10309.854908925869 0 -17347.50040532558 0 0
          -45950.3204645035 11950.766101923326 0 11948.187269999009 0 0
          52286.87231077215 9324.864938163519 0 -19679.518709304662 0 0
          -39075.351708077615 8802.095737562753 0 11928.438651374123 0 0
          46345.88745103584 11250.34404779076 0 -16394.915170618613 0 0
          -28508.17420979992 11688.036786101931 0 8079.2288787537545 0 0
          37921.41248473172 12027.646319556665 0 -13695.294571085244 0 0
          <InformationKey name="L2_NORM_RANGE" location="vtkDataArray" length="2">
            <Value index="0">
              31852.788574
            </Value>
            <Value index="1">
              1943290.1427
            </Value>
          </InformationKey>
        </DataArray>
        <DataArray type="Float64" Name="Nodal Strain" NumberOfComponents="6" format="ascii" RangeMin="0.0027554899158343834" RangeMax="0.15345984404652052">
          -0.11134313570430474 0.04098452213735589 0 -0.09732881799080767 0 0
          -0.012719400778324706 0.013312996025473686 0 -0.0011550108893835633 0 0
          0.008663257514628056 -0.002513234968153977 0 0.003270557324686311 0 0
          -0.0036049604020778597 0.0006911950201721753 0 0.0031386097842316966 0 0
          0.00074818783105245 -0.00293273784835607 0 -0.004191981010843643 0 0
          -0.005164578637841487 0.0015665893333240237 0 0.0021951204640611815 0 0
          0.004646025802953991 -0.0017706992456416814 0 -0.0018586607577134554 0 0
          -0.0037089788225332264 0.0024947090238696483 0 0.0012801629217856082 0 0
          0.003401745702977886 -0.001201326515515897 0 -0.0021085198617112138 0 0
          -0.0031054571126327857 0.0020242693994001115 0 0.0012780469983615132 0 0
          0.002908622530510033 -0.0008516142626947968 0 -0.001756598053994852 0 0
          -0.0024537280430607777 0.001853008849357278 0 0.0008656316655807594 0 0
          0.0022791135232109565 -0.0004952185659149423 0 -0.0014673529897591333 0 0
          <InformationKey name="L2_NORM_RANGE" location="vtkDataArray" length="2">
            <Value index="0">
              0.0027554899158
            </Value>
            <Value index="1">
              0.15345984405
            </Value>
          </InformationKey>
        </DataArray>
        <DataArray type="Float64" Name="Sld_traction" NumberOfComponents="3" format="ascii" RangeMin="20560.965181603355" RangeMax="217219.44346926938">
          -26356.951497476643 101537.99406318186 0 217081.7102241144 -7734.190796246498 0
          -148729.7510618842 -74613.54156940535 0 -16928.67325263246 11669.332076203495 0
          -39498.79036693677 -26800.536886395224 0 -65417.46174476584 21393.34249566352 0
          -65615.6229574572 7957.696008747462 0 -47181.468089785194 -8450.75640785798 0
          -48394.6844210506 10545.395331608044 0 -39932.30193208771 -8973.475529372618 0
          -43164.79138631069 11640.785545884493 0 -31826.01344090966 -11030.400337473786 0
          -34042.14593280873 12309.914557158634 0
          <InformationKey name="L2_NORM_RANGE" location="vtkDataArray" length="2">
            <Value index="0">
              20560.965182
            </Value>
            <Value index="1">
              217219.44347
            </Value>
          </InformationKey>
        </DataArray>
        <DataArray type="Float64" Name="Velocity" NumberOfComponents="3" format="ascii" RangeMin="0" RangeMax="4.308029063720681">
          0 0 0 0 0 0
          0.0012793297946458726 -0.008204586903236444 0 -0.016552006771412664 -0.0007447668489399817 0
          0.05490093850825628 -0.12176990993013259 0 -0.06638508008385846 -0.1087235845340686 0
          0.14507655304404632 -0.53702048877207 0 -0.16236119108518143 -0.535100093755144 0
          0.24947981944395448 -1.3492916525442826 0 -0.26362803305750737 -1.346627950496556 0
          0.36113118890137375 -2.5983636257118086 0 -0.37503476564521376 -2.600460351219052 0
          0.4634214987780916 -4.2830310445211985 0
          <InformationKey name="L2_NORM_RANGE" location="vtkDataArray" length="2">
            <Value index="0">
              0
            </Value>
            <Value index="1">
              4.3080290637
            </Value>
          </InformationKey>
        </DataArray>
        <DataArray type="Float64" Name="Acceleration" NumberOfComponents="3" format="ascii" RangeMin="0" RangeMax="285.4393321816539">
          0 0 0 0 0 0
          14.513366812023719 -44.75446126765746 0 -21.882622457423622 -45.83549845534412 0
          26.147255225568188 -144.83677678380627 0 -28.014359384153977 -147.3017122288984 0
          14.685846159050016 -249.2502627784379 0 -23.421072918541086 -252.980790982112 0
          -8.7439164978 -283.11295213471385 0 2.2121239962743857 -285.4307601919136 0
          -41.24363768767353 -201.24051926528045 0 33.86468877895959 -201.67694901193317 0
          -74.91497304558743 17.00342013107729 0
          <InformationKey name="L2_NORM_RANGE" location="vtkDataArray" length="2">
            <Value index="0">
              0
            </Value>
            <Value index="1">
              285.43933218
            </Value>
          </InformationKey>
        </DataArray>
        <DataArray type="Float64" Name="Sigma" NumberOfComponents="6" format="ascii" RangeMin="95548.8728924515" RangeMax="4755128.484884911">
          -4137191.1204769574 -863625.0661878213 0 -2179231.1225435836 0 0
          397515.06635933806 409094.9502889625 0 369398.4030022554 0 0
          948645.8015397914 76833.03512055821 0 355454.63709475775 0 0
          -516808.562400742 -149316.32488629592 0 -95512.57672892672 0 0
          -59158.89411246687 -111759.75084593288 0 -134965.93220675352 0 0
          -130371.7555853815 -16908.411004280155 0 114223.94342924643 0 0
          222534.71805511985 35777.784590300114 0 -52583.650469364125 0 0
          -149710.15423411314 34623.93393194119 0 31121.573480535884 0 0
          139005.92309615976 -2119.69031848257 0 -48393.20366053329 0 0
          -113727.07633875472 17383.182639863906 0 44378.57118732122 0 0
          125191.29042648543 12269.121618509454 0 -44211.641414806305 0 0
          -86964.62858809967 24664.663167055114 0 30957.95336270547 0 0
          99949.89213177802 11982.896087788438 0 -33748.978998105646 0 0
          <InformationKey name="L2_NORM_RANGE" location="vtkDataArray" length="2">
            <Value index="0">
              95548.872892
            </Value>
            <Value index="1">
              4755128.4849
            </Value>
          </InformationKey>
        </DataArray>
        <DataArray type="Float64" Name="Press" format="ascii" RangeMin="-23037.99367405984" RangeMax="38090.63566133716">
          38090.63566133716 31883.250764372002 36624.87817427306 22380.939632272024 35781.27877665946 13655.758509820505
          -6125.030926408964 -23037.99367405984 7233.323784676086 -9769.752729781798 895.9628424735946 -12863.469889029187
          87.84587739281382
        </DataArray>
        <DataArray type="Float64" Name="Dev strain" NumberOfComponents="6" format="ascii" RangeMin="0.0028503919712030536" RangeMax="0.1540618379204674">
          -0.11263500534949511 0.039692652492165525 0 -0.09732881799080767 0 0
          -0.013885714772519544 0.012146682031278848 0 -0.0011550108893835633 0 0
          0.007466383811422931 -0.003710108671359108 0 0.003270557324686311 0 0
          -0.0045711418335352685 -0.00027498641128523543 0 0.0031386097842316966 0 0
          -0.00019604108618566246 -0.003876966765594183 0 -0.004191981010843643 0 0
          -0.005583001235215404 0.0011481667359501061 0 0.0021951204640611815 0 0
          0.004683228342613506 -0.0017334967059821666 0 -0.0018586607577134554 0 0
          -0.003315748553045768 0.002887939293357107 0 0.0012801629217856082 0 0
          0.0034834261142384876 -0.0011196461042552953 0 -0.0021085198617112138 0 0
          -0.0028725362593962356 0.0022571902526366604 0 0.0012780469983615132 0 0
          0.0030055555618216747 -0.0007546812313831555 0 -0.001756598053994852 0 0
          -0.002169901153270187 0.0021368357391478685 0 0.0008656316655807594 0 0
          0.0024174937406303038 -0.0003568383484955958 0 -0.0014673529897591333 0 0
          <InformationKey name="L2_NORM_RANGE" location="vtkDataArray" length="2">
            <Value index="0">
              0.0028503919712
            </Value>
            <Value index="1">
              0.15406183792
            </Value>
          </InformationKey>
        </DataArray>
        <DataArray type="Float64" Name="J2 Stresses" format="ascii" RangeMin="4325194836.407065" RangeMax="10118361382516.293">
          10118361382516.293 196802248202.45303 484503085790.49646 146973890602.48553 12548959044.987032 11903121821.683979
          26092135379.201866 12048111624.838785 10249045411.563341 7110375860.782938 8400362581.117052 4325194836.407065
          5351533763.756042
        </DataArray>
      </PointData>
      <CellData>
        <DataArray type="UInt8" Name="vtkGhostType" format="ascii" RangeMin="0" RangeMax="0">
          0 0 0 0 0 0
          0 0 0 0 0
        </DataArray>
        <DataArray type="Float64" Name="Gauss Stress" NumberOfComponents="6" format="ascii" RangeMin="35723.258840120485" RangeMax="1021702.4092378926">
          306747.12468976807 142500.24303138058 0 209780.1544560288 0 0
          -894810.495992615 -90366.10539277276 0 -484792.69414885656 0 0
          -211507.07839327943 -68722.16993925232 0 -38751.52183547792 0 0
          155821.813869929 -29818.648009488697 0 41658.70938635914 0 0
          -24351.485951674404 12662.013809104286 0 30920.62214680606 0 0
          25438.691572447533 -16526.123633280637 0 -24441.879748957086 0 0
          -50001.91003195791 8104.334544718992 0 9035.647002441276 0 0
          63300.26203379127 15450.775795988673 0 -23285.093549787176 0 0
          -32412.558092235464 10859.90254969703 0 10374.961045073465 0 0
          49609.89036041945 8630.71594575289 0 -16075.42462933946 0 0
          42098.96426700033 12345.673234730075 0 -15667.555683402163 0 0
          <InformationKey name="L2_NORM_RANGE" location="vtkDataArray" length="2">
            <Value index="0">
              35723.25884
            </Value>
            <Value index="1">
              1021702.4092
            </Value>
          </InformationKey>
        </DataArray>
        <DataArray type="Float64" Name="Gauss Strain" NumberOfComponents="6" format="ascii" RangeMin="0.003128828768527778" RangeMax="0.0838532380274959">
          0.01682121451243413 -0.000776665665250244 0 0.022476445120288797 0 0
          -0.060687674521159196 0.025502795900252475 0 -0.05194207437309177 0 0
          -0.012653285244546666 0.0026450978040991006 0 -0.0041519487680869195 0 0
          0.012195081276762382 -0.007694968210318086 0 0.004463433148538479 0 0
          -0.002191606632587611 0.001774125484638677 0 0.0033129238014435068 0 0
          0.0024072680992205608 -0.0020889621013931723 0 -0.002618772830245402 0 0
          -0.0038610055217369577 0.0023646635400498524 0 0.0009681050359758511 0 0
          0.003969633866842638 -0.0011570968014933541 0 -0.0024948314517629125 0 0
          -0.002703036383363142 0.0019332986854153405 0 0.0011116029691150139 0 0
          0.0032353237419673582 -0.0011553020881754882 0 -0.0017223669245720857 0 0
          0.002566151974973951 -0.0006217006356264354 0 -0.0016786666803645176 0 0
          <InformationKey name="L2_NORM_RANGE" location="vtkDataArray" length="2">
            <Value index="0">
              0.0031288287685
            </Value>
            <Value index="1">
              0.083853238027
            </Value>
          </InformationKey>
        </DataArray>
      </CellData>
      <Points>
        <DataArray type="Float32" Name="Points" NumberOfComponents="3" format="ascii" RangeMin="0" RangeMax="0.6020797527609908">
          0 0.05000000074505806 0 0 0 0
          0.10000000149011612 0.05000000074505806 0 0.10000000149011612 0 0
          0.20000000298023224 0.05000000074505806 0 0.20000000298023224 0 0
          0.30000001192092896 0.05000000074505806 0 0.30000001192092896 0 0
          0.4000000059604645 0.05000000074505806 0 0.4000000059604645 0 0
          0.5 0.05000000074505806 0 0.5 0 0
          0.6000000238418579 0.05000000074505806 0
          <InformationKey name="L2_NORM_RANGE" location="vtkDataArray" length="2">
            <Value index="0">
              0
            </Value>
            <Value index="1">
              0.60207975276
            </Value>
          </InformationKey>
        </DataArray>
      </Points>
      <Cells>
        <DataArray type="Int64" Name="connectivity" format="ascii" RangeMin="0" RangeMax="12">
          3 2 1 2 0 1
          5 4 3 4 2 3
          7 6 5 6 4 5
          9 8 7 8 6 7
          11 10 9 10 8 9
          12 10 11
        </DataArray>
        <DataArray type="Int64" Name="offsets" format="ascii" RangeMin="3" RangeMax="33">
          3 6 9 12 15 18
          21 24 27 30 33
        </DataArray>
        <DataArray type="UInt8" Name="types" format="ascii" RangeMin="5" RangeMax="5">
          5 5 5 5 5 5
          5 5 5 5 5
        </DataArray>
      </Cells>
    </Piece>
  </UnstructuredGrid>
</VTKFile>
