<?xml version="1.0"?>
<VTKFile type="UnstructuredGrid" version="0.1" byte_order="LittleEndian" header_type="UInt32" compressor="vtkZLibDataCompressor">
  <UnstructuredGrid>
    <Piece NumberOfPoints="13" NumberOfCells="11">
      <PointData>
        <DataArray type="Float64" Name="Disp" NumberOfComponents="3" format="ascii" RangeMin="0.0008058651929839424" RangeMax="0.01607329711729471">
          -0.00005002307071342359 0.001403707673500356 0 0.00029905672404535006 0.0007483206432180727 0
          -0.0003145236023169503 0.0007759861773171943 0 0.0006923083313523703 -0.001180650362971716 0
          -0.000681825502265823 -0.001176255346622923 0 0.0010972352412008841 -0.0047685686892252254 0
          -0.0011199987146143198 -0.004770940693487807 0 0.0014817530068869775 -0.009983808454849374 0
          -0.001419964084709979 -0.010071614393271734 0 0.0014962708501866325 -0.016003501297019856 0
          -0.0014491591168811877 -0.01598860468076081 0 0.00004445831281276952 0.0013756678069904704 0
          0.00008085205488673955 0.0012538099357565584 0
          <InformationKey name="L2_NORM_RANGE" location="vtkDataArray" length="2">
            <Value index="0">
              0.00080586519298
            </Value>
            <Value index="1">
              0.016073297117
            </Value>
          </InformationKey>
        </DataArray>
        <DataArray type="Float64" Name="Nodal Stress" NumberOfComponents="6" format="ascii" RangeMin="6285.330375131054" RangeMax="23751.53315144993">
          -13364.353401621522 -6902.025074616652 0 4462.157325493418 0 0
          7563.341788637741 -6965.251010913705 0 -1786.7828640245764 0 0
          -16971.166845235377 -6270.567453974058 0 6080.131306196725 0 0
          12481.312170125253 -4017.0969984304543 0 -4299.556464733063 0 0
          -17440.271019340802 -2650.4253272747787 0 6357.719968180626 0 0
          15880.34621153266 108.86617353227089 0 -6749.501299751128 0 0
          -11976.10446001767 3645.7379506976545 0 4880.098295918497 0 0
          19273.82621136917 11632.746334223757 0 -7571.93257642774 0 0
          -2770.5764544178737 12763.429567641695 0 1223.289000350323 0 0
          17047.20771870348 10986.71441589566 0 -6346.750777732266 0 0
          -1292.1731818279914 5789.093243830606 0 -2078.957865601039 0 0
          3363.2594933253263 -6411.965504669619 0 56.11551822991228 0 0
          -8086.505788032438 -5328.4892834855 0 2491.3625936800786 0 0
          <InformationKey name="L2_NORM_RANGE" location="vtkDataArray" length="2">
            <Value index="0">
              6285.3303751
            </Value>
            <Value index="1">
              23751.533151
            </Value>
          </InformationKey>
        </DataArray>
        <DataArray type="Float64" Name="Nodal Strain" NumberOfComponents="6" format="ascii" RangeMin="0.00047925455271837387" RangeMax="0.001453864259796437">
          -0.0007080957760223713 -0.000015703455271849427 0 0.00047808828487429494 0 0
          0.0007889976638638996 -0.0007676372789451841 0 -0.0001914410211454904 0 0
          -0.0009882773655891675 0.00015821542633168771 0 0.0006514426399496491 0 0
          0.0010349900478100345 -0.0007326966488209343 0 -0.00046066676407854244 0 0
          -0.0011510755968359581 0.00043355072731397293 0 0.0006811842823050672 0 0
          0.0011304223660547521 -0.000559379066588147 0 -0.0007231608535447634 0 0
          -0.0009856409596690357 0.0006881278700504636 0 0.0005228676745626962 0 0
          0.0009612466460183782 0.0001425595163242266 0 -0.0008112784903315434 0 0
          -0.0006537350884456229 0.0010106226996321882 0 0.0001310666786089632 0 0
          0.0008252750364825468 0.0001759364683245659 0 -0.0006800090118998857 0 0
          -0.00029905141455309237 0.0004596557024817573 0 -0.00022274548560011133 0 0
          0.0004692315889757239 -0.0005781139465237345 0 0.000006012376953204893 0 0
          -0.0003873043675921208 -0.00009180259924780578 0 0.0002669317064657227 0 0
          <InformationKey name="L2_NORM_RANGE" location="vtkDataArray" length="2">
            <Value index="0">
              0.00047925455272
            </Value>
            <Value index="1">
              0.0014538642598
            </Value>
          </InformationKey>
        </DataArray>
        <DataArray type="Float64" Name="Sld_traction" NumberOfComponents="3" format="ascii" RangeMin="5224.0808243112915" RangeMax="21934.12039156153">
          -9684.626679862575 6732.139519284696 0 -8974.60204343487 -6664.025780850633 0
          -15053.638220948773 6497.589194308054 0 -14972.484404082355 -3611.4803101984244 0
          -18168.52192640112 3000.7535683441893 0 -19103.831872186674 1480.0475051391732 0
          -16870.081722858013 -2311.9145897406543 0 -18220.720141646485 12211.101296415218 0
          -9462.896068526978 -11138.88051310655 0 -2497.8624621120243 4839.103584661723 0
          1305.577833582144 -5058.308707403681 0 -3437.5779421340267 -6525.040671022059 0
          -4503.208074714522 5145.754858090727 0
          <InformationKey name="L2_NORM_RANGE" location="vtkDataArray" length="2">
            <Value index="0">
              5224.0808243
            </Value>
            <Value index="1">
              21934.120392
            </Value>
          </InformationKey>
        </DataArray>
        <DataArray type="Float64" Name="Velocity" NumberOfComponents="3" format="ascii" RangeMin="0.30336989842723133" RangeMax="8.735326410219457">
          -0.10546063950640158 0.9029581085338545 0 0.3273922324154882 0.0515047920719076 0
          -0.2990767875198609 0.050856370678103224 0 0.5144380063590632 -1.5990127513230012 0
          -0.4845317172197454 -1.6156016810135607 0 0.6137498278937725 -3.8598635949060762 0
          -0.5866168973911102 -3.880900367459622 0 0.6147414698489916 -6.315464987084096 0
          -0.5989309311626774 -6.323239310988013 0 0.6043404454412983 -8.714396141964247 0
          -0.5819908719809618 -8.71277047464735 0 0.12762760152061892 0.8905456635719579 0
          0.03224736791066781 1.0464643704902257 0
          <InformationKey name="L2_NORM_RANGE" location="vtkDataArray" length="2">
            <Value index="0">
              0.30336989843
            </Value>
            <Value index="1">
              8.7353264102
            </Value>
          </InformationKey>
        </DataArray>
        <DataArray type="Float64" Name="Acceleration" NumberOfComponents="3" format="ascii" RangeMin="234.24527051676336" RangeMax="2087.7789409062816">
          -146.06390928371025 183.12886491274855 0 256.6511363359195 -662.4261886260297 0
          -222.83440737258994 -686.1688474834469 0 205.1302480029318 -1609.9763126897349 0
          -180.31570499057293 -1638.3654003422478 0 22.934790529318775 -2087.652964808838 0
          -26.357880988126226 -2082.3790161605107 0 -71.99631226386305 -1903.900915789066 0
          61.59021473533835 -1885.018098651488 0 -37.4436402781389 -1685.832474806195 0
          62.997343323656196 -1662.5153527227303 0 182.51847058147405 191.81709438259168 0
          -34.27563153883633 617.0150196410227 0
          <InformationKey name="L2_NORM_RANGE" location="vtkDataArray" length="2">
            <Value index="0">
              234.24527052
            </Value>
            <Value index="1">
              2087.7789409
            </Value>
          </InformationKey>
        </DataArray>
        <DataArray type="Float64" Name="Sigma" NumberOfComponents="6" format="ascii" RangeMin="10819.553784382795" RangeMax="53121.02165210758">
          -33864.3283087577 -8560.917516197134 0 9658.096036869843 0 0
          25958.32496829671 -12200.450859784507 0 -8894.48013405296 0 0
          -45017.51498583137 -7450.928414299597 0 15439.49304334027 0 0
          39164.706734004685 -7906.356081053864 0 -15225.139734953285 0 0
          -48855.55411619156 -691.6143565274234 0 18905.76111546172 0 0
          46382.87315278482 -2473.936813842885 0 -20039.86735062804 0 0
          -37635.30692787395 5148.361810774233 0 17948.594053219582 0 0
          46879.548085482 15938.49324767743 0 -19238.382095654608 0 0
          -20543.021568897202 21648.864776997965 0 10520.35300880804 0 0
          46154.11580771421 19013.18610633766 0 -12330.92511663243 0 0
          3179.853220819745 9816.90774987763 0 -3252.6296772898836 0 0
          13205.470100608694 -10853.920438647448 0 -3044.5519894440986 0 0
          -19492.047859550603 -6894.82652771257 0 4035.8828883558085 0 0
          <InformationKey name="L2_NORM_RANGE" location="vtkDataArray" length="2">
            <Value index="0">
              10819.553784
            </Value>
            <Value index="1">
              53121.021652
            </Value>
          </InformationKey>
        </DataArray>
        <DataArray type="Float64" Name="Press" format="ascii" RangeMin="-11766.162179966072" RangeMax="4721.379400695135">
          1590.0944269730903 4721.379400695135 101.39423968268417 4604.324573839961 -1924.96102162921 1492.2524405973174
          -5337.047533595928 170.5607833537981 -4406.058969110611 -9201.110078725711 -11766.162179966072 4088.0830971150376
          1734.8159435174903
        </DataArray>
        <DataArray type="Float64" Name="Dev strain" NumberOfComponents="6" format="ascii" RangeMin="0.0005659207372728201" RangeMax="0.0014547978746061662">
          -0.0007943925073933805 -0.00010200018664285854 0 0.00047808828487429494 0 0
          0.0006687486715768837 -0.0008878862712322001 0 -0.0001914410211454904 0 0
          -0.001044601492947829 0.0001018912989730264 0 0.0006514426399496491 0 0
          0.0009451315784039653 -0.0008225551182270033 0 -0.00046066676407854244 0 0
          -0.0011374081403037737 0.00044721818384615725 0 0.0006811842823050672 0 0
          0.0011327902741192538 -0.0005570111585236453 0 -0.0007231608535447634 0 0
          -0.0008813919157868536 0.0007923769139326458 0 0.0005228676745626962 0 0
          0.0010391386279928383 0.00022045149829868704 0 -0.0008112784903315434 0 0
          -0.00047039978452011844 0.0011939580035576925 0 0.0001310666786089632 0 0
          0.0010806864634902984 0.00043134789533231746 0 -0.0006800090118998857 0 0
          0.000032551205159126064 0.0007912583221939758 0 -0.00022274548560011133 0 0
          0.0003550474883494488 -0.0006922980471500096 0 0.000006012376953204893 0 0
          -0.00046818270017316016 -0.00017268093182884527 0 0.0002669317064657227 0 0
          <InformationKey name="L2_NORM_RANGE" location="vtkDataArray" length="2">
            <Value index="0">
              0.00056592073727
            </Value>
            <Value index="1">
              0.0014547978746
            </Value>
          </InformationKey>
        </DataArray>
        <DataArray type="Float64" Name="J2 Stresses" format="ascii" RangeMin="55886472.092179306" RangeMax="1318392634.26724">
          633360725.0255798 431120762.38462216 1100640981.2261226 856143580.0077178 1283028700.0478647 1179144713.4907987
          801998985.5667751 1318392634.26724 473013997.51394343 1283864754.5110624 55886472.092179306 148413338.9373865
          217811368.9752609
        </DataArray>
      </PointData>
      <CellData>
        <DataArray type="UInt8" Name="vtkGhostType" format="ascii" RangeMin="0" RangeMax="1">
          1 1 0 0 0 0
          0 0 0 0 0
        </DataArray>
        <DataArray type="Float64" Name="Gauss Stress" NumberOfComponents="6" format="ascii" RangeMin="8612.707926496361" RangeMax="25371.818949570545">
          -10912.637533364665 -6298.890338317178 0 3549.808978593852 0 0
          5233.007894976996 -7071.910629948608 0 -760.31202887574 0 0
          -15503.55008631382 -7266.476240976775 0 5401.036315385719 0 0
          -17309.201525374938 -4422.713686662482 0 6373.371474616237 0 0
          9844.204976895944 -6043.545713640061 0 -2893.3756085553277 0 0
          -15292.581335302844 -1262.3151580746319 0 5604.829272684422 0 0
          13621.213921135346 -2300.097086205368 0 -5453.081990039871 0 0
          -6957.108710213966 11054.391372032296 0 3076.8549887910062 0 0
          17317.62666691603 4979.561311654657 0 -7109.885131021025 0 0
          1139.2054106114538 8368.542468470288 0 -1687.733928371424 0 0
          19684.67801993883 14387.97862217684 0 -7016.318067826334 0 0
          <InformationKey name="L2_NORM_RANGE" location="vtkDataArray" length="2">
            <Value index="0">
              8612.7079265
            </Value>
            <Value index="1">
              25371.81895
            </Value>
          </InformationKey>
        </DataArray>
        <DataArray type="Float64" Name="Gauss Strain" NumberOfComponents="6" format="ascii" RangeMin="0.0006247648144394523" RangeMax="0.0014076416812826543">
          -0.0005545137403004343 -0.00006018368368820333 0 0.0003803366762779127 0 0
          0.0006263545149965214 -0.000692029612674079 0 -0.00008146200309382926 0 0
          -0.0008478794261303879 0.00003466420015572379 0 0.0005786824623627556 0 0
          -0.0010784174772888355 0.00030227764828749887 0 0.0006828612294231682 0 0
          0.0009189984166939984 -0.0007832605858634312 0 -0.0003100045294880708 0 0
          -0.0010472445540189662 0.0004559982506840564 0 0.000600517422073331 0 0
          0.0010550901760170018 -0.0006507645747695028 0 -0.0005842587846471291 0 0
          -0.0008917360283021512 0.0010380675519385198 0 0.00032966303451332216 0 0
          0.0010591318579349068 -0.00026280371584309664 0 -0.0007617734068951096 0 0
          -0.0002175047016874065 0.0005570671259403257 0 -0.00018082863518265258 0 0
          0.0008921920506321725 0.00032468854372910206 0 -0.0007517483644099641 0 0
          <InformationKey name="L2_NORM_RANGE" location="vtkDataArray" length="2">
            <Value index="0">
              0.00062476481444
            </Value>
            <Value index="1">
              0.0014076416813
            </Value>
          </InformationKey>
        </DataArray>
      </CellData>
      <Points>
        <DataArray type="Float32" Name="Points" NumberOfComponents="3" format="ascii" RangeMin="0.4000000059604645" RangeMax="1.0012492197622458">
          0.5 0 0 0.6000000238418579 0.05000000074505806 0
          0.6000000238418579 0 0 0.699999988079071 0.05000000074505806 0
          0.699999988079071 0 0 0.800000011920929 0.05000000074505806 0
          0.800000011920929 0 0 0.8999999761581421 0.05000000074505806 0
          0.8999999761581421 0 0 1 0.05000000074505806 0
          1 0 0 0.5 0.05000000074505806 0
          0.4000000059604645 0 0
          <InformationKey name="L2_NORM_RANGE" location="vtkDataArray" length="2">
            <Value index="0">
              0.40000000596
            </Value>
            <Value index="1">
              1.0012492198
            </Value>
          </InformationKey>
        </DataArray>
      </Points>
      <Cells>
        <DataArray type="Int64" Name="connectivity" format="ascii" RangeMin="0" RangeMax="12">
          0 11 12 1 11 0
          2 1 0 4 3 2
          3 1 2 6 5 4
          5 3 4 8 7 6
          7 5 6 10 9 8
          9 7 8
        </DataArray>
        <DataArray type="Int64" Name="offsets" format="ascii" RangeMin="3" RangeMax="33">
          3 6 9 12 15 18
          21 24 27 30 33
        </DataArray>
        <DataArray type="UInt8" Name="types" format="ascii" RangeMin="5" RangeMax="5">
          5 5 5 5 5 5
          5 5 5 5 5
        </DataArray>
      </Cells>
    </Piece>
  </UnstructuredGrid>
</VTKFile>
