<?xml version="1.0"?>
<VTKFile type="UnstructuredGrid" version="0.1" byte_order="LittleEndian" header_type="UInt32" compressor="vtkZLibDataCompressor">
  <UnstructuredGrid>
    <Piece NumberOfPoints="13" NumberOfCells="11">
      <PointData>
        <DataArray type="Float64" Name="Disp" NumberOfComponents="3" format="ascii" RangeMin="0.030932808675419518" RangeMax="0.15758562495597225">
          -0.0048619008844180125 -0.047867518093183056 0 0.004935288192716164 -0.06751546178372891 0
          -0.005380509242767113 -0.06756013755456576 0 0.005289723457184371 -0.08896149580784446 0
          -0.0057265330537638 -0.08900088455231775 0 0.005478586999455046 -0.11146747893218294 0
          -0.00591559457990933 -0.11149705849243374 0 0.005545641134958186 -0.1344497056621799 0
          -0.005969870288754869 -0.13447387847633452 0 0.005532185082517267 -0.15747359406165276 0
          -0.005953841877635057 -0.15747311186250326 0 0.004401634924009786 -0.04782004288471557 0
          -0.004117898063562559 -0.0306574879611526 0
          <InformationKey name="L2_NORM_RANGE" location="vtkDataArray" length="2">
            <Value index="0">
              0.030932808675
            </Value>
            <Value index="1">
              0.15758562496
            </Value>
          </InformationKey>
        </DataArray>
        <DataArray type="Float64" Name="Nodal Stress" NumberOfComponents="6" format="ascii" RangeMin="2212.1455990710724" RangeMax="45145.943920645914">
          -23815.964010000644 11332.11709182365 0 6482.882805156104 0 0
          32671.75115459308 11110.03040017278 0 -11720.036789150703 0 0
          -15766.19301420982 10520.317041606215 0 4108.168840023368 0 0
          23938.21110017254 10283.108410186514 0 -8710.661879063533 0 0
          -8733.119971557691 9573.008762852067 0 1820.8613489351396 0 0
          16061.905549436178 8511.05412106957 0 -5709.342432218752 0 0
          -3539.307229558417 7587.226230706291 0 196.8817594110131 0 0
          9499.66313393662 6458.248565027186 0 -2937.324841596601 0 0
          -734.4420513676055 5008.579841302138 0 -565.6871213757786 0 0
          4800.257630423911 3221.7741553835863 0 -1000.0983913833153 0 0
          -1189.9503560320663 1791.4558817746147 0 -517.9692320242688 0 0
          41232.168031211055 11213.424892090417 0 -14571.330554260629 0 0
          -33852.087318039645 9303.185839883077 0 10095.695604536359 0 0
          <InformationKey name="L2_NORM_RANGE" location="vtkDataArray" length="2">
            <Value index="0">
              2212.1455991
            </Value>
            <Value index="1">
              45145.943921
            </Value>
          </InformationKey>
        </DataArray>
        <DataArray type="Float64" Name="Nodal Strain" NumberOfComponents="6" format="ascii" RangeMin="0.0002330888904118589" RangeMax="0.0034991491523294537">
          -0.002105858753993748 0.0016600070783445693 0 0.0006945945862667256 0 0
          0.0019369097110361916 -0.00037327465550883953 0 -0.0012557182274090038 0 0
          -0.0015018822525009233 0.001314529539193652 0 0.0004401609471453608 0 0
          0.0013426183496485203 -0.00012042836713569651 0 -0.0009332852013282354 0 0
          -0.0009656874537845517 0.0009956834820450654 0 0.0001950922873859078 0 0
          0.0008433127492072427 0.00003429295331082011 0 -0.0006117152605948663 0 0
          -0.00052378002463654 0.0006683485603918213 0 0.00002109447422260855 0 0
          0.00044789563224450205 0.00012202978557563402 0 -0.00031471337588535 0 0
          -0.00023133799800133386 0.00038398577621328147 0 -0.000060609334433119146 0 0
          0.00022781218233800841 0.00005868895286940227 0 -0.00010715339907678377 0 0
          -0.0001489770212085267 0.0001704593614136177 0 -0.000055496703431171654 0 0
          0.002544675398940418 -0.0006716185088225077 0 -0.0015612139879564956 0 0
          -0.002750262874141514 0.0018735163927787787 0 0.00108168167191461 0 0
          <InformationKey name="L2_NORM_RANGE" location="vtkDataArray" length="2">
            <Value index="0">
              0.00023308889041
            </Value>
            <Value index="1">
              0.0034991491523
            </Value>
          </InformationKey>
        </DataArray>
        <DataArray type="Float64" Name="Sld_traction" NumberOfComponents="3" format="ascii" RangeMin="1570.0278988359748" RangeMax="39504.50309269377">
          -26715.40671341053 -10796.514253015841 0 -28711.786095404146 11276.50621239409 0
          -18316.458903722632 -10409.719199038565 0 -20319.672632055088 10315.048230651431 0
          -10921.59634754156 -9534.849708862905 0 -12390.34209004086 8451.102911871209 0
          -4750.984445569795 -7648.0369101802735 0 -5654.149312992734 6183.707979018913 0
          -746.882315513691 -5168.294102233934 0 245.17148787410147 2099.21948616331 0
          638.7679740577704 -1434.2116574764818 0 -37797.62120964032 11486.757396811327 0
          -34680.70675627138 -9588.610562023356 0
          <InformationKey name="L2_NORM_RANGE" location="vtkDataArray" length="2">
            <Value index="0">
              1570.0278988
            </Value>
            <Value index="1">
              39504.503093
            </Value>
          </InformationKey>
        </DataArray>
        <DataArray type="Float64" Name="Velocity" NumberOfComponents="3" format="ascii" RangeMin="1.2162741193352713" RangeMax="15.175743655387047">
          -0.407549455653903 -2.527951924061 0 0.5261730147065344 -4.401962055569697 0
          -0.5340645928328871 -4.407196221104883 0 0.6289025115907938 -6.745450587189751 0
          -0.6349394740717131 -6.754040327522723 0 0.6922485647399812 -9.425342980274287 0
          -0.699214098445553 -9.433453839904296 0 0.7181105461210477 -12.279894154485774 0
          -0.7213507001224451 -12.288235699140195 0 0.7139216839700624 -15.15885626097576 0
          -0.7171869568547327 -15.158787496463482 0 0.3983343707177156 -2.526100591844237 0
          -0.2717440884008291 -1.1855285250823755 0
          <InformationKey name="L2_NORM_RANGE" location="vtkDataArray" length="2">
            <Value index="0">
              1.2162741193
            </Value>
            <Value index="1">
              15.175743655
            </Value>
          </InformationKey>
        </DataArray>
        <DataArray type="Float64" Name="Acceleration" NumberOfComponents="3" format="ascii" RangeMin="40.15620722903017" RangeMax="1350.466078453822">
          31.347042279575817 56.31699059087987 0 -50.93477767452259 221.57859335543617 0
          48.804800690280445 222.11970754668437 0 -65.630610995594 452.6095181550045 0
          63.25111437822579 453.7622215519805 0 -74.92426922255072 732.5504141062993 0
          72.70114216845195 733.6982751676405 0 -78.79700679287907 1038.4633737430995 0
          76.04041235729619 1039.692641343121 0 -78.18998577958155 1348.20063609918 0
          75.45775105795201 1348.1927148984978 0 -33.36953719433268 56.37266772460862 0
          14.06864155607309 -37.6110928289454 0
          <InformationKey name="L2_NORM_RANGE" location="vtkDataArray" length="2">
            <Value index="0">
              40.156207229
            </Value>
            <Value index="1">
              1350.4660785
            </Value>
          </InformationKey>
        </DataArray>
        <DataArray type="Float64" Name="Sigma" NumberOfComponents="6" format="ascii" RangeMin="2225.999863706866" RangeMax="117891.07946024933">
          -73182.63532904763 23334.541344011086 0 25754.49970550094 0 0
          85529.41986575084 11401.224163593106 0 -28302.09734693133 0 0
          -50433.62229246443 19293.992456240547 0 18362.7351927386 0 0
          60975.27273077772 12094.133845768221 0 -20361.001516834975 0 0
          -29568.75096242724 17005.173716411042 0 10693.312945880456 0 0
          39452.291869615365 10403.009746911308 0 -12171.932378059319 0 0
          -13827.840885566537 12535.383121043062 0 4393.5911089889305 0 0
          21629.25261373774 8321.56972367651 0 -5293.321511172918 0 0
          -5086.855019674668 8392.207810536482 0 238.22929158258495 0 0
          11258.750681294841 3972.58164381157 0 -579.6774552054123 0 0
          -1211.3116005981947 1655.0539786512277 0 -865.2143822371239 0 0
          110594.4646213403 13014.54582272529 0 -38701.325667864585 0 0
          -98964.19479609841 17398.33264028135 0 38911.70626572084 0 0
          <InformationKey name="L2_NORM_RANGE" location="vtkDataArray" length="2">
            <Value index="0">
              2225.9998637
            </Value>
            <Value index="1">
              117891.07946
            </Value>
          </InformationKey>
        </DataArray>
        <DataArray type="Float64" Name="Press" format="ascii" RangeMin="-11757.439882668925" RangeMax="13.580309892610977">
          -11757.439882668925 -403.29196565878846 -9038.362351662618 -1454.9514957588585 -7146.480401833532 -2067.3819609744933
          -5016.688230753596 -1596.6457462058756 -2437.4592251902072 -2105.6574655174513 -1982.9785969221948 13.580309892610977
          -9183.283072132886
        </DataArray>
        <DataArray type="Float64" Name="Dev strain" NumberOfComponents="6" format="ascii" RangeMin="0.00026294235699069596" RangeMax="0.003456209388371634">
          -0.0018393536705671365 0.0019265121617711813 0 0.0006945945862667256 0 0
          0.0020721856855852464 -0.00023799868095978577 0 -0.0012557182274090038 0 0
          -0.0012731602842946332 0.001543251507399942 0 0.0004401609471453608 0 0
          0.0014722911722919092 0.000009244455507692529 0 -0.0009332852013282354 0 0
          -0.0007752749540616823 0.0011860959817679348 0 0.0001950922873859078 0 0
          0.000961712232162558 0.00015269243626613548 0 -0.0006117152605948663 0 0
          -0.00038386298765467685 0.0008082655973736847 0 0.00002109447422260855 0 0
          0.0005331968489576414 0.00020733100228877334 0 -0.00031471337588535 0 0
          -0.00014494207954221576 0.0004703816946723997 0 -0.000060609334433119146 0 0
          0.0003031567031218401 0.00013403347365323394 0 -0.00010715339907678377 0 0
          -0.00007300314723931193 0.0002464332353828325 0 -0.000055496703431171654 0 0
          0.002652766052363576 -0.0005635278553993495 0 -0.0015612139879564956 0 0
          -0.0025188687897914805 0.002104910477128811 0 0.00108168167191461 0 0
          <InformationKey name="L2_NORM_RANGE" location="vtkDataArray" length="2">
            <Value index="0">
              0.00026294235699
            </Value>
            <Value index="1">
              0.0034562093884
            </Value>
          </InformationKey>
        </DataArray>
        <DataArray type="Float64" Name="J2 Stresses" format="ascii" RangeMin="2290388.714804001" RangeMax="6574705156.038881">
          3115923030.490028 3922886966.0589914 1542201712.1598759 2035768574.7281795 610330218.741313 869391957.2338374
          178998417.48218507 275541358.80260664 48166811.26205143 71354442.3981712 2290388.714804001 6574705156.038881
          5426837136.27843
        </DataArray>
      </PointData>
      <CellData>
        <DataArray type="UInt8" Name="vtkGhostType" format="ascii" RangeMin="0" RangeMax="1">
          1 1 0 0 0 0
          0 0 0 0 0
        </DataArray>
        <DataArray type="Float64" Name="Gauss Stress" NumberOfComponents="6" format="ascii" RangeMin="2583.34669171695" RangeMax="41156.05899592777">
          -27493.169382904987 10940.092387369508 0 8654.960101119064 0 0
          36931.365873202805 11867.71993063146 0 -13749.641103098327 0 0
          -19761.977318583853 10943.554587951468 0 5271.712517102742 0 0
          -12222.298257789656 10251.168589721601 0 2898.3488739280288 0 0
          28391.488163661288 10630.914884173868 0 -10100.1212236759 0 0
          -6058.283523980012 8571.00533026793 0 971.6572256033564 0 0
          20063.333259799656 9611.167816841229 0 -7279.87364967128 0 0
          -2112.0788312177137 6732.789151035458 0 -220.50037020046784 0 0
          12857.662553284203 7526.415551232305 0 -4357.220926747768 0 0
          -521.8370755359585 2497.9160484564745 0 -402.22084861998377 0 0
          7220.461946148125 4848.865580370342 0 -1878.2565582652483 0 0
          <InformationKey name="L2_NORM_RANGE" location="vtkDataArray" length="2">
            <Value index="0">
              2583.3466917
            </Value>
            <Value index="1">
              41156.058996
            </Value>
          </InformationKey>
        </DataArray>
        <DataArray type="Float64" Name="Gauss Strain" NumberOfComponents="6" format="ascii" RangeMin="0.00023809289244026947" RangeMax="0.0030843162827131716">
          -0.0023545153983278388 0.0017633340770587143 0 0.0009273171536913284 0 0
          0.0022141075648490775 -0.00047128307185499577 0 -0.0014731758324748204 0 0
          -0.0018024110437542562 0.0014874673748030997 0 0.0005648263411181508 0 0
          -0.0012391344680464612 0.0011687369799011737 0 0.00031053737934943164 0 0
          0.0016482879086838827 -0.00025463065697548383 0 -0.0010821558453938465 0 0
          -0.0007388418706509981 0.0008285819351612812 0 0.00010410613131464532 0 0
          0.0010898392393842175 -0.00003003562950418563 0 -0.0007799864624647799 0 0
          -0.00039131952905253155 0.0005563448976174511 0 -0.000023625039664335826 0 0
          0.0006496039126905751 0.00007839887675644314 0 -0.00046684509929440383 0 0
          -0.0001264853642688711 0.00019705961330174676 0 -0.0000430950909235697 0 0
          0.00034257351114021125 0.00008847390052116287 0 -0.00020124177409984803 0 0
          <InformationKey name="L2_NORM_RANGE" location="vtkDataArray" length="2">
            <Value index="0">
              0.00023809289244
            </Value>
            <Value index="1">
              0.0030843162827
            </Value>
          </InformationKey>
        </DataArray>
      </CellData>
      <Points>
        <DataArray type="Float32" Name="Points" NumberOfComponents="3" format="ascii" RangeMin="0.4000000059604645" RangeMax="1.0012492197622458">
          0.5 0 0 0.6000000238418579 0.05000000074505806 0
          0.6000000238418579 0 0 0.699999988079071 0.05000000074505806 0
          0.699999988079071 0 0 0.800000011920929 0.05000000074505806 0
          0.800000011920929 0 0 0.8999999761581421 0.05000000074505806 0
          0.8999999761581421 0 0 1 0.05000000074505806 0
          1 0 0 0.5 0.05000000074505806 0
          0.4000000059604645 0 0
          <InformationKey name="L2_NORM_RANGE" location="vtkDataArray" length="2">
            <Value index="0">
              0.40000000596
            </Value>
            <Value index="1">
              1.0012492198
            </Value>
          </InformationKey>
        </DataArray>
      </Points>
      <Cells>
        <DataArray type="Int64" Name="connectivity" format="ascii" RangeMin="0" RangeMax="12">
          0 11 12 1 11 0
          2 1 0 4 3 2
          3 1 2 6 5 4
          5 3 4 8 7 6
          7 5 6 10 9 8
          9 7 8
        </DataArray>
        <DataArray type="Int64" Name="offsets" format="ascii" RangeMin="3" RangeMax="33">
          3 6 9 12 15 18
          21 24 27 30 33
        </DataArray>
        <DataArray type="UInt8" Name="types" format="ascii" RangeMin="5" RangeMax="5">
          5 5 5 5 5 5
          5 5 5 5 5
        </DataArray>
      </Cells>
    </Piece>
  </UnstructuredGrid>
</VTKFile>
