<?xml version="1.0"?>
<VTKFile type="UnstructuredGrid" version="0.1" byte_order="LittleEndian" header_type="UInt32" compressor="vtkZLibDataCompressor">
  <UnstructuredGrid>
    <Piece NumberOfPoints="13" NumberOfCells="11">
      <PointData>
        <DataArray type="Float64" Name="Disp" NumberOfComponents="3" format="ascii" RangeMin="0" RangeMax="0.052297139341507544">
          0 0 0 0 0 0
          0.0004892829296126019 -0.001561249431824769 0 -0.0009178187750307477 -0.0015046450500896655 0
          0.0015292674394045253 -0.006225306350991502 0 -0.0017316255976262533 -0.00614505070922112 0
          0.0022659235844442807 -0.014746246968195756 0 -0.0027638073946589826 -0.0148443113475051 0
          0.002787316607757002 -0.025855053994307927 0 -0.0031746812683016005 -0.025897871109022 0
          0.0031020513709380743 -0.03856743195411699 0 -0.0035140437443975455 -0.038607495050371095 0
          0.0032632676310975065 -0.05219522839947045 0
          <InformationKey name="L2_NORM_RANGE" location="vtkDataArray" length="2">
            <Value index="0">
              0
            </Value>
            <Value index="1">
              0.052297139342
            </Value>
          </InformationKey>
        </DataArray>
        <DataArray type="Float64" Name="Nodal Stress" NumberOfComponents="6" format="ascii" RangeMin="12906.384455871308" RangeMax="1727339.856911618">
          -1500269.1252641594 -272058.1726324825 0 -811714.1638276599 0 0
          -96522.31330374948 94033.99205360838 0 -17550.30332932711 0 0
          120342.53454977066 29881.023069239607 0 22934.321623716245 0 0
          -45507.91514183263 -8536.235190928972 0 23872.631495883365 0 0
          -13648.768875626643 -33031.50917029671 0 -35389.62797147463 0 0
          -58601.95737769644 -8925.07116147192 0 13253.426098339824 0 0
          54680.702553695046 16496.194587440008 0 -13484.413829247074 0 0
          -23534.40549787329 17199.780512059315 0 4391.286824497194 0 0
          33087.89571788945 12606.389859757372 0 -13163.875602453607 0 0
          -16217.827501775826 10838.232478904281 0 3930.454337720845 0 0
          23866.86916061572 10951.812261316105 0 -8380.403211937537 0 0
          -8056.893939459415 10017.871404435373 0 1141.6971118710587 0 0
          14965.355830329798 7947.678643872834 0 -5064.906111029948 0 0
          <InformationKey name="L2_NORM_RANGE" location="vtkDataArray" length="2">
            <Value index="0">
              12906.384456
            </Value>
            <Value index="1">
              1727339.8569
            </Value>
          </InformationKey>
        </DataArray>
        <DataArray type="Float64" Name="Nodal Strain" NumberOfComponents="6" format="ascii" RangeMin="0.0009549803052180842" RangeMax="0.13500165639573683">
          -0.09744571706770846 0.0341483135713998 0 -0.08696937469582068 0 0
          -0.01025280780932526 0.0101639391932488 0 -0.0018803896424279044 0 0
          0.007528715929653633 -0.0021635888718318356 0 0.00245724874539817 0 0
          -0.0029456998247405827 0.001015551598570524 0 0.0025577819459875035 0 0
          0.00020478469353726438 -0.0018719374808916702 0 -0.0037917458540865667 0 0
          -0.003867101556925749 0.001455421966241164 0 0.0014200099391078387 0 0
          0.0033166146614267895 -0.0007745826206719652 0 -0.0014447586245621862 0 0
          -0.0022953068395644965 0.0020690702329282827 0 0.0004704950169104134 0 0
          0.0019131929134293408 -0.0002812541427990967 0 -0.001410415243120029 0 0
          -0.0015454959815162836 0.0013533675878422994 0 0.0004211201076129476 0 0
          0.0013136402164255479 -0.0000701158799279823 0 -0.0008979003441361646 0 0
          -0.0009332735458340787 0.0010033084552975057 0 0.00012232469055761347 0 0
          0.0007851083220280989 0.00003321433776485255 0 -0.0005426685118960657 0 0
          <InformationKey name="L2_NORM_RANGE" location="vtkDataArray" length="2">
            <Value index="0">
              0.00095498030522
            </Value>
            <Value index="1">
              0.1350016564
            </Value>
          </InformationKey>
        </DataArray>
        <DataArray type="Float64" Name="Sld_traction" NumberOfComponents="3" format="ascii" RangeMin="12015.387454854741" RangeMax="196028.5414107098">
          -28867.929722461555 76195.84698204174 0 195698.18411005408 11375.842106751054 0
          -134741.51762561355 -63210.287754632045 0 -11431.094505648634 3701.2989737672206 0
          -33317.39975165451 -15774.514509587947 0 -48176.80096653014 10272.307051476537 0
          -48787.082991675605 14306.94881363278 0 -26272.3106093105 -14196.794025022109 0
          -27840.64323180614 13203.165759141584 0 -16942.843292669226 -11495.880487134418 0
          -19640.00432344508 10835.840182775872 0 -9541.527319679835 -9891.074832560085 0
          -10788.861174688911 7730.517602603421 0
          <InformationKey name="L2_NORM_RANGE" location="vtkDataArray" length="2">
            <Value index="0">
              12015.387455
            </Value>
            <Value index="1">
              196028.54141
            </Value>
          </InformationKey>
        </DataArray>
        <DataArray type="Float64" Name="Velocity" NumberOfComponents="3" format="ascii" RangeMin="0" RangeMax="6.049101977545562">
          0 0 0 0 0 0
          0.019142617390558225 -0.06504007961786995 0 -0.049494905311096626 -0.055806452617547686 0
          0.1086958409041694 -0.34483035868699297 0 -0.12713039940709914 -0.32936776501876786 0
          0.22223410825546552 -1.0554472721693537 0 -0.2570579508919486 -1.0571941787300831 0
          0.34154985791218606 -2.2419486257146186 0 -0.3693166670414969 -2.2409590522406475 0
          0.4602583963434437 -3.9064880854931907 0 -0.4886924015070251 -3.9099675808644996 0
          0.564360843986133 -6.022717955584579 0
          <InformationKey name="L2_NORM_RANGE" location="vtkDataArray" length="2">
            <Value index="0">
              0
            </Value>
            <Value index="1">
              6.0491019775
            </Value>
          </InformationKey>
        </DataArray>
        <DataArray type="Float64" Name="Acceleration" NumberOfComponents="3" format="ascii" RangeMin="0" RangeMax="906.0273780541602">
          0 0 0 0 0 0
          -25.166764510538997 78.52286507437134 0 41.09340332298768 78.77081305255456 0
          -56.66400664169453 274.6196282489723 0 62.338319968985616 276.03834005650606 0
          -56.421204234163724 543.095241221341 0 75.12335542978485 549.0798988915558 0
          -38.71476245251142 776.0470112564999 0 52.96249230579747 779.448774198203 0
          -7.01280651895172 904.5439799328742 0 22.660670669259844 905.7439504564827 0
          28.714318044113725 892.9321927017227 0
          <InformationKey name="L2_NORM_RANGE" location="vtkDataArray" length="2">
            <Value index="0">
              0
            </Value>
            <Value index="1">
              906.02737805
            </Value>
          </InformationKey>
        </DataArray>
        <DataArray type="Float64" Name="Sigma" NumberOfComponents="6" format="ascii" RangeMin="33735.07897019818" RangeMax="4216025.12806684">
          -3656979.747244978 -807462.0185196642 0 -1936329.542557057 0 0
          361291.0974893223 321986.4847636341 0 314147.10174991324 0 0
          831726.2619194395 84839.22772121041 0 311655.32805356156 0 0
          -435347.8089637384 -109422.57553097728 0 -83971.94718433608 0 0
          -61407.89754559912 -88382.80026205676 0 -118740.87541087135 0 0
          -81721.01366728134 -6583.768297942426 0 90327.2540213231 0 0
          171569.02593519908 45587.63529193337 0 -36596.22492000316 0 0
          -86133.74021342007 39152.77545192635 0 11723.736898224492 0 0
          82863.23926278524 6664.868174406035 0 -27596.72285916969 0 0
          -49082.37138775977 17231.04483330388 0 20411.662041641983 0 0
          61114.70626288495 15308.389366020789 0 -20060.743034154897 0 0
          -26854.808569889698 18660.27417702997 0 8286.674691222932 0 0
          36943.65034391066 9342.242085912805 0 -10000.330944881194 0 0
          <InformationKey name="L2_NORM_RANGE" location="vtkDataArray" length="2">
            <Value index="0">
              33735.07897
            </Value>
            <Value index="1">
              4216025.1281
            </Value>
          </InformationKey>
        </DataArray>
        <DataArray type="Float64" Name="Press" format="ascii" RangeMin="-21251.47472440602" RangeMax="32158.372706166778">
          32158.372706166778 26155.50496934884 29393.383642871617 15964.976113246292 27494.27409143346 10064.38239328028
          -10913.22903104981 -21251.47472440602 1367.725834479628 -7136.097688590396 -2894.1771075975075 -7966.08056059772
          -2016.6440318363623
        </DataArray>
        <DataArray type="Float64" Name="Dev strain" NumberOfComponents="6" format="ascii" RangeMin="0.0010697266064878478" RangeMax="0.13551097161182044">
          -0.09851594594292772 0.03307808469618057 0 -0.08696937469582068 0 0
          -0.011197147702104514 0.009219599300469549 0 -0.0018803896424279044 0 0
          0.006575579290308335 -0.0031167255111771352 0 0.00245724874539817 0 0
          -0.0036772029780462864 0.00028404844526481863 0 0.0025577819459875035 0 0
          -0.0004961216045980805 -0.002572843779027015 0 -0.0037917458540865667 0 0
          -0.004129785741060539 0.0011927377821063746 0 0.0014200099391078387 0 0
          0.0034921847772679715 -0.0005990125048307828 0 -0.0014447586245621862 0 0
          -0.0018677128811273342 0.002496664191365445 0 0.0004704950169104134 0 0
          0.0020988363537798246 -0.00009561070244861333 0 -0.001410415243120029 0 0
          -0.0013220226363889562 0.0015768409329696264 0 0.0004211201076129476 0 0
          0.0014571471727985181 0.00007339107644498794 0 -0.0008979003441361646 0 0
          -0.0007271743944077426 0.0012094076067238418 0 0.00012232469055761347 0 0
          0.0009084662955558683 0.00015657231129262224 0 -0.0005426685118960657 0 0
          <InformationKey name="L2_NORM_RANGE" location="vtkDataArray" length="2">
            <Value index="0">
              0.0010697266065
            </Value>
            <Value index="1">
              0.13551097161
            </Value>
          </InformationKey>
        </DataArray>
        <DataArray type="Float64" Name="J2 Stresses" format="ascii" RangeMin="551860532.2032149" RangeMax="7950090915900.702">
          7950090915900.702 141775377132.2081 373765395539.45105 102513329381.16226 9316073504.901728 5400588244.662645
          16091902495.53054 4510342016.0856495 3645763222.5933576 1457153030.3722053 2085285406.0608022 551860532.2032149
          751057048.7142524
        </DataArray>
      </PointData>
      <CellData>
        <DataArray type="UInt8" Name="vtkGhostType" format="ascii" RangeMin="0" RangeMax="0">
          0 0 0 0 0 0
          0 0 0 0 0
        </DataArray>
        <DataArray type="Float64" Name="Gauss Stress" NumberOfComponents="6" format="ascii" RangeMin="15825.949916938425" RangeMax="910555.0399247722">
          276394.47172349656 122972.33389311128 0 180610.1608730462 0 0
          -792085.042172609 -104309.68157214411 0 -436842.3709178606 0 0
          -174984.36252621957 -50288.50383100547 0 -37461.85619129476 0 0
          135941.06308588435 -13371.171408090762 0 36314.16848611802 0 0
          -6128.683102559306 18685.44036124725 0 21818.255333181478 0 0
          18361.847391994204 -7577.835271467286 0 -21669.948769850478 0 0
          -26457.57297230379 12009.613960373157 0 1512.8920268989314 0 0
          45833.849021196045 20202.766999096515 0 -17489.73696031612 0 0
          -10939.609683850053 11067.784339856338 0 2879.197899570006 0 0
          28744.341725400718 10180.584470674143 0 -9081.934617227536 0 0
          19442.21544562477 10144.667976310657 0 -7258.13309593772 0 0
          <InformationKey name="L2_NORM_RANGE" location="vtkDataArray" length="2">
            <Value index="0">
              15825.949917
            </Value>
            <Value index="1">
              910555.03992
            </Value>
          </InformationKey>
        </DataArray>
        <DataArray type="Float64" Name="Gauss Strain" NumberOfComponents="6" format="ascii" RangeMin="0.0012881009841186702" RangeMax="0.07360869655567119">
          0.015350593198352927 -0.0010874929977597843 0 0.019351088664969235 0 0
          -0.05285215724189552 0.020838059965297175 0 -0.04680453974119936 0 0
          -0.010702865043622634 0.0026574055308645926 0 -0.004013770306210151 0 0
          0.010187617770709275 -0.005810121639359498 0 0.003890803766369787 0 0
          -0.0011051002345130669 0.0015535558508947792 0 0.0023376702142694434 0 0
          0.0015821975019805617 -0.0011970542119617421 0 -0.0023217802253411215 0 0
          -0.0023187414251778843 0.0018027428890375042 0 0.00016209557431060007 0 0
          0.0025523189658319843 -0.00019386839367867845 0 -0.001873900388605299 0 0
          -0.0011766787038413014 0.0011812563701272408 0 0.0003084854892396434 0 0
          0.0016895749635759748 -0.0002993990280018725 0 -0.0009730644232743787 0 0
          0.0010264201041049607 0.000030254303821304986 0 -0.0007776571174218988 0 0
          <InformationKey name="L2_NORM_RANGE" location="vtkDataArray" length="2">
            <Value index="0">
              0.0012881009841
            </Value>
            <Value index="1">
              0.073608696556
            </Value>
          </InformationKey>
        </DataArray>
      </CellData>
      <Points>
        <DataArray type="Float32" Name="Points" NumberOfComponents="3" format="ascii" RangeMin="0" RangeMax="0.6020797527609908">
          0 0.05000000074505806 0 0 0 0
          0.10000000149011612 0.05000000074505806 0 0.10000000149011612 0 0
          0.20000000298023224 0.05000000074505806 0 0.20000000298023224 0 0
          0.30000001192092896 0.05000000074505806 0 0.30000001192092896 0 0
          0.4000000059604645 0.05000000074505806 0 0.4000000059604645 0 0
          0.5 0.05000000074505806 0 0.5 0 0
          0.6000000238418579 0.05000000074505806 0
          <InformationKey name="L2_NORM_RANGE" location="vtkDataArray" length="2">
            <Value index="0">
              0
            </Value>
            <Value index="1">
              0.60207975276
            </Value>
          </InformationKey>
        </DataArray>
      </Points>
      <Cells>
        <DataArray type="Int64" Name="connectivity" format="ascii" RangeMin="0" RangeMax="12">
          3 2 1 2 0 1
          5 4 3 4 2 3
          7 6 5 6 4 5
          9 8 7 8 6 7
          11 10 9 10 8 9
          12 10 11
        </DataArray>
        <DataArray type="Int64" Name="offsets" format="ascii" RangeMin="3" RangeMax="33">
          3 6 9 12 15 18
          21 24 27 30 33
        </DataArray>
        <DataArray type="UInt8" Name="types" format="ascii" RangeMin="5" RangeMax="5">
          5 5 5 5 5 5
          5 5 5 5 5
        </DataArray>
      </Cells>
    </Piece>
  </UnstructuredGrid>
</VTKFile>
