<?xml version="1.0"?>
<VTKFile type="UnstructuredGrid" version="0.1" byte_order="LittleEndian" header_type="UInt32" compressor="vtkZLibDataCompressor">
  <UnstructuredGrid>
    <Piece NumberOfPoints="13" NumberOfCells="11">
      <PointData>
        <DataArray type="Float64" Name="Disp" NumberOfComponents="3" format="ascii" RangeMin="0.04882012724801447" RangeMax="0.21175729358228573">
          -0.006783117153638455 -0.07287655953531406 0 0.00642822168885723 -0.09936562093688832 0
          -0.0071643121442008005 -0.09942194480335334 0 0.006620857021871115 -0.12704750031255277 0
          -0.007349460258630472 -0.12708065107137617 0 0.0066871965396663674 -0.1551818016399646 0
          -0.007411843264114745 -0.15519968997473133 0 0.006696569385825111 -0.1834198151196299 0
          -0.007414110362430039 -0.18342723519628104 0 0.006690535576270101 -0.2116284167757023 0
          -0.007403377322855422 -0.21162783699104848 0 0.006025642580099909 -0.07280139240501661 0
          -0.006046360173034893 -0.04844426027064777 0
          <InformationKey name="L2_NORM_RANGE" location="vtkDataArray" length="2">
            <Value index="0">
              0.048820127248
            </Value>
            <Value index="1">
              0.21175729358
            </Value>
          </InformationKey>
        </DataArray>
        <DataArray type="Float64" Name="Nodal Stress" NumberOfComponents="6" format="ascii" RangeMin="723.9628742913291" RangeMax="55316.436750326146">
          -19178.78213604178 18673.274790020987 0 3636.180617144616 0 0
          32515.828646660797 15458.417509560277 0 -11183.669463389153 0 0
          -10215.377122371467 13000.785206549226 0 1402.8913589980368 0 0
          19076.99623683303 10435.88084573653 0 -6410.139110407587 0 0
          -4393.108378729533 8499.003965320831 0 -29.82562661722506 0 0
          9957.361603873926 5935.484395569737 0 -3002.4400752661077 0 0
          -1574.7557039834899 4372.034097541023 0 -469.85342408340125 0 0
          4174.99856807333 2702.416695466702 0 -1009.0877693138951 0 0
          -490.3700140779801 1687.9381713844632 0 -358.09697554735703 0 0
          1461.257520036932 794.1651694936969 0 -222.80094149705812 0 0
          -622.2140978113412 317.5990141842244 0 -190.00717361770916 0 0
          48638.249646373224 20050.882519922576 0 -17093.59401244135 0 0
          -34605.281536352224 19289.421221987683 0 8974.336024303499 0 0
          <InformationKey name="L2_NORM_RANGE" location="vtkDataArray" length="2">
            <Value index="0">
              723.96287429
            </Value>
            <Value index="1">
              55316.43675
            </Value>
          </InformationKey>
        </DataArray>
        <DataArray type="Float64" Name="Nodal Strain" NumberOfComponents="6" format="ascii" RangeMin="0.00007445326908466769" RangeMax="0.004212622490592203">
          -0.002036815680789448 0.002018761847002991 0 0.00038959078040835175 0 0
          0.0017704728494200475 -0.00005710691526929419 0 -0.0011982502996488377 0 0
          -0.0011939835518318626 0.0012934624119810686 0 0.0001503097884640754 0 0
          0.0009899325581403406 0.000064098766237144 0 -0.0006868006189722415 0 0
          -0.0006173293115278534 0.0007639684396203997 0 -0.0000031956028518455212 0 0
          0.0004992585290063614 0.00006834311383091252 0 -0.00032169000806422585 0 0
          -0.00026862662519671433 0.00036852942496662627 0 -0.00005034143829465014 0 0
          0.00020169930145285566 0.00004392267224500273 0 -0.00010811654671220306 0 0
          -0.00009530993569787228 0.0001380802270302467 0 -0.000038367533094359686 0 0
          0.00007601249537786311 0.000004538314962516517 0 -0.000023871529446113364 0 0
          -0.00005578668606453239 0.00004490757593499251 0 -0.00002035791145904027 0 0
          0.0027580577418865678 -0.00030487445023314537 0 -0.0018314565013330018 0 0
          -0.0031607137248104334 0.0026137187135831276 0 0.0009615360026039458 0 0
          <InformationKey name="L2_NORM_RANGE" location="vtkDataArray" length="2">
            <Value index="0">
              7.4453269085e-05
            </Value>
            <Value index="1">
              0.0042126224906
            </Value>
          </InformationKey>
        </DataArray>
        <DataArray type="Float64" Name="Sld_traction" NumberOfComponents="3" format="ascii" RangeMin="379.81450476442603" RangeMax="45706.371990127445">
          -22405.72815278064 -18319.549722341344 0 -24899.6410078639 15173.420544029555 0
          -11359.581267556723 -13424.68263861292 0 -13490.340117979264 10154.941699224333 0
          -4652.587346604421 -8826.46912255082 0 -5835.987473154016 5669.476314449234 0
          -1005.0206919747743 -4705.336929482175 0 -1666.9254818268644 2525.0585569786363 0
          211.558185487684 -1902.5966114391629 0 235.39238137610735 604.449030344585 0
          246.57507145489433 -288.8940846858238 0 -41119.254628323186 19956.93712249023 0
          -36087.74079189357 -20363.914871541136 0
          <InformationKey name="L2_NORM_RANGE" location="vtkDataArray" length="2">
            <Value index="0">
              379.81450476
            </Value>
            <Value index="1">
              45706.37199
            </Value>
          </InformationKey>
        </DataArray>
        <DataArray type="Float64" Name="Velocity" NumberOfComponents="3" format="ascii" RangeMin="0.6644305974659646" RangeMax="9.088117050830629">
          0.1611070688684162 -1.7139780521704893 0 -0.4071243613070479 -0.5686406329391431 0
          0.35292117121290234 -0.5629517437211575 0 -0.5668554682451941 1.2953390386541557 0
          0.5101073952834039 1.30813715978816 0 -0.666275201567121 3.687499033096728 0
          0.6110492212746195 3.6998910220313945 0 -0.7070346287959444 6.354730806215201 0
          0.646032304940892 6.3677566274676 0 -0.700539159225233 9.061077000886286 0
          0.6395877150096192 9.060949951810215 0 -0.2146827135058662 -1.7123276058642887 0
          -0.02394400812582509 -2.078578728711406 0
          <InformationKey name="L2_NORM_RANGE" location="vtkDataArray" length="2">
            <Value index="0">
              0.66443059747
            </Value>
            <Value index="1">
              9.0881170508
            </Value>
          </InformationKey>
        </DataArray>
        <DataArray type="Float64" Name="Acceleration" NumberOfComponents="3" format="ascii" RangeMin="153.81765158842293" RangeMax="1438.1302720401195">
          43.97852813315785 1393.0474602580362 0 21.187039858149546 1437.9741961176624 0
          -7.142269866261813 1437.555592976918 0 68.20132899242617 1282.532715608104 0
          -54.228353911170416 1279.3180150144617 0 100.20553419475073 962.0313855150598 0
          -87.56935029618217 958.2696859708522 0 114.21428549786833 547.8428836491948 0
          -100.26012064014867 543.4305447623774 0 112.10245319231035 118.15983387164306 0
          -98.50382800820444 118.13917981731356 0 -28.831793578716315 1390.9674093425056 0
          84.38592984601019 1156.9494035471216 0
          <InformationKey name="L2_NORM_RANGE" location="vtkDataArray" length="2">
            <Value index="0">
              153.81765159
            </Value>
            <Value index="1">
              1438.130272
            </Value>
          </InformationKey>
        </DataArray>
        <DataArray type="Float64" Name="Sigma" NumberOfComponents="6" format="ascii" RangeMin="606.6236125551169" RangeMax="135440.85670453735">
          -62375.21108100765 35366.80703656956 0 20213.720702543804 0 0
          81533.68877902246 17674.8008003345 0 -23579.814466590142 0 0
          -34973.98713527461 22462.584676892104 0 10963.000007303111 0 0
          46286.0370670954 13041.763180215421 0 -13044.58118939492 0 0
          -15677.135623778528 14761.687063828113 0 4091.766873584082 0 0
          23526.307404310584 7406.6650115737175 0 -5183.90148370578 0 0
          -5936.526188221915 7427.1465618096245 0 585.4565779870968 0 0
          9329.102869992708 3423.7137383672675 0 -1235.7377147060477 0 0
          -1845.930559242713 2944.750919980153 0 -403.46903368382584 0 0
          3280.4138950641263 852.7001477653077 0 125.29945156878293 0 0
          -531.0653825377991 167.07697549130842 0 -240.92955617789693 0 0
          125847.4663592185 27198.954613532092 0 -42034.006991427894 0 0
          -103952.68249570785 31398.119548164028 0 42616.48609920552 0 0
          <InformationKey name="L2_NORM_RANGE" location="vtkDataArray" length="2">
            <Value index="0">
              606.62361256
            </Value>
            <Value index="1">
              135440.8567
            </Value>
          </InformationKey>
        </DataArray>
        <DataArray type="Float64" Name="Press" format="ascii" RangeMin="-15588.950126632162" RangeMax="-532.8580686263026">
          -15588.950126632162 -3188.43286937055 -9496.566092520457 -2763.4863720944063 -5855.522479574594 -2076.4899796757218
          -3059.0087478904165 -1005.8327873848604 -1091.4451830174623 -704.0476417211121 -532.8580686263026 -4382.179881331566
          -13558.267438237202
        </DataArray>
        <DataArray type="Float64" Name="Dev strain" NumberOfComponents="6" format="ascii" RangeMin="0.00007932648308639645" RangeMax="0.004199110446207551">
          -0.0016447628242657727 0.0024108147035266664 0 0.00038959078040835175 0 0
          0.0019979945634318167 0.00017041479874247515 0 -0.0011982502996488377 0 0
          -0.0009251510886048999 0.0015622948752080314 0 0.0001503097884640754 0 0
          0.0011463314219076108 0.00022049763000441428 0 -0.0006868006189722415 0 0
          -0.00044658924479750014 0.0009347085063507533 0 -0.0000031956028518455212 0 0
          0.0006006196048767889 0.00016970418970134 0 -0.00032169000806422585 0 0
          -0.00017497881066083415 0.0004621772395025064 0 -0.00005034143829465014 0 0
          0.0002526410937371466 0.0000948644645292937 0 -0.00010811654671220306 0 0
          -0.00005495190363586797 0.00017843825909225102 0 -0.000038367533094359686 0 0
          0.00010519897657844587 0.00003372479616309927 0 -0.000023871529446113364 0 0
          -0.000030240177475325416 0.00007045408452419946 0 -0.00002035791145904027 0 0
          0.0030077908635132 -0.0000551413286065134 0 -0.0018314565013330018 0 0
          -0.002753160144437197 0.003021272293956364 0 0.0009615360026039458 0 0
          <InformationKey name="L2_NORM_RANGE" location="vtkDataArray" length="2">
            <Value index="0">
              7.9326483086e-05
            </Value>
            <Value index="1">
              0.0041991104462
            </Value>
          </InformationKey>
        </DataArray>
        <DataArray type="Float64" Name="J2 Stresses" format="ascii" RangeMin="169484.34089469066" RangeMax="8730398396.490658">
          2672887624.841215 3619072407.1927013 893920585.542483 1198782681.714355 236025632.20530802 310891121.98608637
          45288114.468199655 49758749.98548221 6080205.620420475 5748031.420605244 169484.34089469066 8730398396.490658
          6350042276.468068
        </DataArray>
      </PointData>
      <CellData>
        <DataArray type="UInt8" Name="vtkGhostType" format="ascii" RangeMin="0" RangeMax="1">
          1 1 0 0 0 0
          0 0 0 0 0
        </DataArray>
        <DataArray type="Float64" Name="Gauss Stress" NumberOfComponents="6" format="ascii" RangeMin="743.6377153238002" RangeMax="47335.62232435869">
          -24669.94155456599 20144.827917354916 0 6932.066603440478 0 0
          40615.460393299676 19026.999857700626 0 -15133.366918491409 0 0
          -14696.486175261001 15743.414475090998 0 2532.3020810855924 0 0
          -7493.5535453823995 10716.81999224873 0 670.0618971640929 0 0
          25799.084458952617 12576.887774485538 0 -8553.79854956065 0 0
          -3026.1252049435298 6201.492476690239 0 -168.89267737820046 0 0
          14479.903338760918 8171.538808090842 0 -4712.238599838872 0 0
          -1203.2135319215533 2879.774833954768 0 -351.2500568009256 0 0
          6925.850857043461 4038.7312655998694 0 -1944.7275401415768 0 0
          -474.97764669375414 545.3923832906306 0 -173.0330460976466 0 0
          2654.086864563563 1473.2797313297642 0 -504.63576560703007 0 0
          <InformationKey name="L2_NORM_RANGE" location="vtkDataArray" length="2">
            <Value index="0">
              743.63771532
            </Value>
            <Value index="1">
              47335.622324
            </Value>
          </InformationKey>
        </DataArray>
        <DataArray type="Float64" Name="Gauss Strain" NumberOfComponents="6" format="ascii" RangeMin="0.00007951656004803292" RangeMax="0.003477397184831493">
          -0.0024815968223745313 0.002319985621045565 0 0.000742721421797194 0 0
          0.002221568604603526 -0.00009148073849637225 0 -0.0016214321698383655 0 0
          -0.0016120138152004638 0.001649404111622964 0 0.0002713180801163134 0 0
          -0.0009179973958219119 0.0010331140546385661 0 0.00007179234612472425 0 0
          0.001393617183693561 -0.000023046746785054893 0 -0.0009164784160243555 0 0
          -0.0004376336745206178 0.0005510396485115718 0 -0.000018095644004807146 0 0
          0.0007424381381939641 0.0000665419384793134 0 -0.0005048827071255935 0 0
          -0.00018879292492135263 0.0002486701142796818 0 -0.00003763393465724203 0 0
          0.00035046323030310907 0.00004112898836272432 0 -0.00020836366501516895 0 0
          -0.0000534052741670764 0.00005592008618839341 0 -0.000018539254939033568 0 0
          0.00013696049992133435 0.000010445449931998789 0 -0.00005406811774361037 0 0
          <InformationKey name="L2_NORM_RANGE" location="vtkDataArray" length="2">
            <Value index="0">
              7.9516560048e-05
            </Value>
            <Value index="1">
              0.0034773971848
            </Value>
          </InformationKey>
        </DataArray>
      </CellData>
      <Points>
        <DataArray type="Float32" Name="Points" NumberOfComponents="3" format="ascii" RangeMin="0.4000000059604645" RangeMax="1.0012492197622458">
          0.5 0 0 0.6000000238418579 0.05000000074505806 0
          0.6000000238418579 0 0 0.699999988079071 0.05000000074505806 0
          0.699999988079071 0 0 0.800000011920929 0.05000000074505806 0
          0.800000011920929 0 0 0.8999999761581421 0.05000000074505806 0
          0.8999999761581421 0 0 1 0.05000000074505806 0
          1 0 0 0.5 0.05000000074505806 0
          0.4000000059604645 0 0
          <InformationKey name="L2_NORM_RANGE" location="vtkDataArray" length="2">
            <Value index="0">
              0.40000000596
            </Value>
            <Value index="1">
              1.0012492198
            </Value>
          </InformationKey>
        </DataArray>
      </Points>
      <Cells>
        <DataArray type="Int64" Name="connectivity" format="ascii" RangeMin="0" RangeMax="12">
          0 11 12 1 11 0
          2 1 0 4 3 2
          3 1 2 6 5 4
          5 3 4 8 7 6
          7 5 6 10 9 8
          9 7 8
        </DataArray>
        <DataArray type="Int64" Name="offsets" format="ascii" RangeMin="3" RangeMax="33">
          3 6 9 12 15 18
          21 24 27 30 33
        </DataArray>
        <DataArray type="UInt8" Name="types" format="ascii" RangeMin="5" RangeMax="5">
          5 5 5 5 5 5
          5 5 5 5 5
        </DataArray>
      </Cells>
    </Piece>
  </UnstructuredGrid>
</VTKFile>
