<?xml version="1.0"?>
<VTKFile type="UnstructuredGrid" version="0.1" byte_order="LittleEndian" header_type="UInt32" compressor="vtkZLibDataCompressor">
  <UnstructuredGrid>
    <Piece NumberOfPoints="13" NumberOfCells="11">
      <PointData>
        <DataArray type="Float64" Name="Disp" NumberOfComponents="3" format="ascii" RangeMin="0" RangeMax="0.10208287104342409">
          0 0 0 0 0 0
          -0.0009224188898009866 0.002946788155497844 0 0.0017421632897326573 0.0028339499581950885 0
          -0.00292567818623154 0.011824573447025657 0 0.003316341277643525 0.011662519945958993 0
          -0.004388369584246434 0.02821775462977 0 0.005340377575293686 0.028400806251728066 0
          -0.005457623298378054 0.049816548143385785 0 0.0061988875177983686 0.049894943801075335 0
          -0.006143796379417149 0.07480078165911895 0 0.006931228067807624 0.07487797854127985 0
          -0.006533043053665311 0.101873607518961 0
          <InformationKey name="L2_NORM_RANGE" location="vtkDataArray" length="2">
            <Value index="0">
              0
            </Value>
            <Value index="1">
              0.10208287104
            </Value>
          </InformationKey>
        </DataArray>
        <DataArray type="Float64" Name="Nodal Stress" NumberOfComponents="6" format="ascii" RangeMin="27067.006754147253" RangeMax="3294296.3431542777">
          2862698.8941809325 513228.5082781505 0 1547236.225036596 0 0
          184894.0050268151 -183577.70850700515 0 31889.013392874545 0 0
          -230021.41903592114 -57046.20349571109 0 -44573.690101275715 0 0
          88493.7204127913 18246.80961800421 0 -45959.449479863615 0 0
          25686.17754946886 64868.217557726086 0 67372.66102372296 0 0
          114562.8929959788 18596.113718158525 0 -26261.21036508103 0 0
          -105818.81785481771 -30005.063667391947 0 26101.533257742438 0 0
          48321.513348683606 -31496.889777150744 0 -9612.043479088105 0 0
          -65763.72829247898 -23185.228799219196 0 25965.53969722945 0 0
          34606.86248185017 -20071.932734944014 0 -8821.145255332223 0 0
          -48960.03604883542 -20698.187476055435 0 17212.747227426065 0 0
          18797.814423515523 -19179.735447419884 0 -3376.7996231801962 0 0
          -32263.804477483467 -15702.56697636577 0 11071.347742349999 0 0
          <InformationKey name="L2_NORM_RANGE" location="vtkDataArray" length="2">
            <Value index="0">
              27067.006754
            </Value>
            <Value index="1">
              3294296.3432
            </Value>
          </InformationKey>
        </DataArray>
        <DataArray type="Float64" Name="Nodal Strain" NumberOfComponents="6" format="ascii" RangeMin="0.0021091983638879945" RangeMax="0.25774718733490865">
          0.18614890286013272 -0.06558006705802254 0 0.16577530982534955 0 0
          0.01976306137716555 -0.01971605078717234 0 0.0034166800063794166 0 0
          -0.014392736949147552 0.004140321858732108 0 -0.004775752510850967 0 0
          0.005669308257413516 -0.001857146470599389 0 -0.0049242267299853875 0 0
          -0.00048199508781386976 0.0037160806273565474 0 0.00721849939539889 0 0
          0.007518916866921396 -0.0027632380557022053 0 -0.002813701110544395 0 0
          -0.006486877572937268 0.0016360246614297786 0 0.0027965928490438323 0 0
          0.004576425588375641 -0.003975546175106611 0 -0.001029861801330868 0 0
          -0.0038693652780621 0.0006926168105014495 0 0.002782022110417441 0 0
          0.0031887734892372985 -0.0026696688554192216 0 -0.0009451227059284525 0 0
          -0.0027579244507719793 0.00027013075345444786 0 0.0018442229172242212 0 0
          0.002027691581944676 -0.0020413316185126894 0 -0.00036179995962644954 0 0
          -0.001743751499235756 0.000030666804455425784 0 0.0011862158295375 0 0
          <InformationKey name="L2_NORM_RANGE" location="vtkDataArray" length="2">
            <Value index="0">
              0.0021091983639
            </Value>
            <Value index="1">
              0.25774718733
            </Value>
          </InformationKey>
        </DataArray>
        <DataArray type="Float64" Name="Sld_traction" NumberOfComponents="3" format="ascii" RangeMin="24029.359301398585" RangeMax="373124.49373901804">
          53975.97294325183 -148111.47556563545 0 -372686.650737992 -18070.64441840562 0
          256471.47215628362 121171.10216417768 0 22519.333033658095 -8383.898147932496 0
          63898.0634794484 31683.076408070636 0 93861.92609318192 -21327.597983866337 0
          94939.6397234234 -25849.34674059649 0 53217.185651545675 25748.19595910375 0
          56110.98917331068 -24420.331836138677 0 35997.27686454355 21225.821326550493 0
          41176.22881706361 -20568.96035191124 0 21920.437389135983 18847.004034186855 0
          24442.819130234144 -15381.346690532562 0
          <InformationKey name="L2_NORM_RANGE" location="vtkDataArray" length="2">
            <Value index="0">
              24029.359301
            </Value>
            <Value index="1">
              373124.49374
            </Value>
          </InformationKey>
        </DataArray>
        <DataArray type="Float64" Name="Velocity" NumberOfComponents="3" format="ascii" RangeMin="0" RangeMax="0.7679898752888078">
          0 0 0 0 0 0
          -0.013720442649677922 0.04158858843076829 0 0.018179923751797444 0.04391383136288041 0
          -0.01566141708841906 0.11819581016770364 0 0.01549577396925872 0.12281031174794954 0
          0.01087415510167844 0.14703036331396113 0 -0.005429216326682251 0.15094237018833034 0
          0.05133599153072188 0.03978780459584286 0 -0.047460256592582795 0.042468337154556224 0
          0.10172788957515522 -0.25368338243041677 0 -0.09699032276801356 -0.253629498732316 0
          0.15160606753899009 -0.7528771804427876 0
          <InformationKey name="L2_NORM_RANGE" location="vtkDataArray" length="2">
            <Value index="0">
              0
            </Value>
            <Value index="1">
              0.76798987529
            </Value>
          </InformationKey>
        </DataArray>
        <DataArray type="Float64" Name="Acceleration" NumberOfComponents="3" format="ascii" RangeMin="0" RangeMax="1529.0991638524106">
          0 0 0 0 0 0
          40.43737019814307 -126.25504891832952 0 -66.34235931878538 -126.4855642605221 0
          92.2021179510075 -443.62064596899836 0 -101.55645099785852 -445.60725581606675 0
          93.81810526865411 -883.8961412961798 0 -124.21161129291977 -893.4614885446535 0
          67.70773761571309 -1275.9482205774912 0 -90.87415544946089 -1281.3503449916243 0
          19.283137253117275 -1509.9722817801667 0 -44.68723919288732 -1511.945189075428 0
          -35.81627001227935 -1528.679641944822 0
          <InformationKey name="L2_NORM_RANGE" location="vtkDataArray" length="2">
            <Value index="0">
              0
            </Value>
            <Value index="1">
              1529.0991639
            </Value>
          </InformationKey>
        </DataArray>
        <DataArray type="Float64" Name="Sigma" NumberOfComponents="6" format="ascii" RangeMin="73809.39079480602" RangeMax="8042785.514069242">
          6978569.121284744 1532065.583970531 0 3693067.4095101715 0 0
          -687467.1157966605 -622357.2127249188 0 -601954.4132083553 0 0
          -1588532.798248185 -158517.1703026307 0 -595235.505665603 0 0
          835057.2433120884 213316.20417766197 0 160333.36179745235 0 0
          115363.25451236941 170737.882761147 0 226703.44608994352 0 0
          162640.94702803594 14233.836836743776 0 -174495.03218340303 0 0
          -332423.07911400375 -84205.6978016998 0 71810.102182519 0 0
          173594.08612943933 -73007.58404438737 0 -25524.789622931585 0 0
          -166116.98661981756 -11013.291763072135 0 55693.983520521004 0 0
          103936.61360235933 -32509.24501149938 0 -42708.92323414474 0 0
          -126519.02479249102 -28321.52375077916 0 42079.89877526104 0 0
          61234.519027862654 -36236.5935136032 0 -19623.17862775074 0 0
          -80764.76707147772 -18077.3429944854 0 23043.794280816473 0 0
          <InformationKey name="L2_NORM_RANGE" location="vtkDataArray" length="2">
            <Value index="0">
              73809.390795
            </Value>
            <Value index="1">
              8042785.5141
            </Value>
          </InformationKey>
        </DataArray>
        <DataArray type="Float64" Name="Press" format="ascii" RangeMin="-61669.46976474998" RangeMax="40376.51488746925">
          -61669.46976474998 -50317.31702311281 -56686.495248296924 -31228.53634550267 -53292.721778150844 -19606.58952975455
          19727.17786906649 40376.51488746925 -3613.8699329696456 13917.098577560178 4786.699450747511 15881.32044697517
          3430.039779186353
        </DataArray>
        <DataArray type="Float64" Name="Dev strain" NumberOfComponents="6" format="ascii" RangeMin="0.0023162806711766967" RangeMax="0.25872379757100017">
          0.18820553457264078 -0.06352343534551441 0 0.16577530982534955 0 0
          0.02158243755885885 -0.017896674605479047 0 0.0034166800063794166 0 0
          -0.012552936741499 0.005980122066380661 0 -0.004775752510850967 0 0
          0.007089705753481312 -0.0004367489745315936 0 -0.0049242267299853875 0 0
          0.0008822486615868746 0.005080324376757292 0 0.00721849939539889 0 0
          0.008041603314703329 -0.0022405516079202718 0 -0.002813701110544395 0 0
          -0.006793414258111994 0.0013294879762550526 0 0.0027965928490438323 0 0
          0.003776436855504169 -0.004775534907978084 0 -0.001029861801330868 0 0
          -0.0042009661252408355 0.0003610159633227147 0 0.002782022110417441 0 0
          0.002765838709965391 -0.0030926036346911297 0 -0.0009451227059284525 0 0
          -0.0030202256549379685 0.000007829549288458438 0 0.0018442229172242212 0 0
          0.0016254551322544442 -0.002443568068202921 0 -0.00036179995962644954 0 0
          -0.0019789435506771666 -0.00020452524698598456 0 0.0011862158295375 0 0
          <InformationKey name="L2_NORM_RANGE" location="vtkDataArray" length="2">
            <Value index="0">
              0.0023162806712
            </Value>
            <Value index="1">
              0.25872379757
            </Value>
          </InformationKey>
        </DataArray>
        <DataArray type="Float64" Name="J2 Stresses" format="ascii" RangeMin="2627645799.8860445" RangeMax="28933512689864.484">
          28933512689864.484 520557046661.5084 1362858398996.7278 377838898012.69336 34078665667.98643 20939468944.807434
          60087024228.819145 17895385754.88047 14633527869.649612 6385848360.126938 8847265641.238506 2627645799.8860445
          3557623078.6393085
        </DataArray>
      </PointData>
      <CellData>
        <DataArray type="UInt8" Name="vtkGhostType" format="ascii" RangeMin="0" RangeMax="0">
          0 0 0 0 0 0
          0 0 0 0 0
        </DataArray>
        <DataArray type="Float64" Name="Gauss Stress" NumberOfComponents="6" format="ascii" RangeMin="32792.06177355085" RangeMax="1736053.7573183065">
          -526391.6731165564 -235263.5091555999 0 -345618.8523588352 0 0
          1511298.6417345786 194172.6396356072 0 831959.1635454039 0 0
          336311.1990663619 98053.35870738154 0 70847.25856799756 0 0
          -259773.3512652259 28109.72108807598 0 -69399.56592606903 0 0
          14769.685756750921 -34160.7805941874 0 -42736.573207938534 0 0
          -35863.670337479154 15864.629452450672 0 41339.50536301981 0 0
          54031.152214680296 -21950.125762299707 0 -4179.909778851779 0 0
          -89485.3855936053 -37245.583595197735 0 33993.09869336948 0 0
          24412.408771004615 -20827.414600199627 0 -6750.734362211481 0 0
          -57869.82323820374 -18918.044143337545 0 18354.986353879107 0 0
          -40650.40438639902 -19512.46686065291 0 15166.838142775596 0 0
          <InformationKey name="L2_NORM_RANGE" location="vtkDataArray" length="2">
            <Value index="0">
              32792.061774
            </Value>
            <Value index="1">
              1736053.7573
            </Value>
          </InformationKey>
        </DataArray>
        <DataArray type="Float64" Name="Gauss Strain" NumberOfComponents="6" format="ascii" RangeMin="0.0027411122994574193" RangeMax="0.14056380037182753">
          -0.0291971370384826 0.0019951662430484456 0 -0.03703059132416091 0 0
          0.10101516585119827 -0.04010547723083444 0 0.08913848180843618 0 0
          0.020520322836619365 -0.005007302916128528 0 0.007590777703714026 0 0
          -0.01955915798637599 0.011285456908620636 0 -0.007435667777793107 0 0
          0.002275005432417474 -0.002967544533754491 0 -0.004578918557993415 0 0
          -0.003128284647407464 0.0024140331872278755 0 0.004429232717466407 0 0
          0.004643301078273583 -0.003497550133545704 0 -0.0004478474763055481 0 0
          -0.005061613842571891 0.000535507800114637 0 0.00364211771714673 0 0
          0.002487579719364602 -0.0023595442132644242 0 -0.0007232929673798014 0 0
          -0.0034579143690382135 0.0007154905339831659 0 0.001966605680772761 0 0
          -0.0022067264968623265 0.00005805252375332831 0 0.0016250183724402423 0 0
          <InformationKey name="L2_NORM_RANGE" location="vtkDataArray" length="2">
            <Value index="0">
              0.0027411122995
            </Value>
            <Value index="1">
              0.14056380037
            </Value>
          </InformationKey>
        </DataArray>
      </CellData>
      <Points>
        <DataArray type="Float32" Name="Points" NumberOfComponents="3" format="ascii" RangeMin="0" RangeMax="0.6020797527609908">
          0 0.05000000074505806 0 0 0 0
          0.10000000149011612 0.05000000074505806 0 0.10000000149011612 0 0
          0.20000000298023224 0.05000000074505806 0 0.20000000298023224 0 0
          0.30000001192092896 0.05000000074505806 0 0.30000001192092896 0 0
          0.4000000059604645 0.05000000074505806 0 0.4000000059604645 0 0
          0.5 0.05000000074505806 0 0.5 0 0
          0.6000000238418579 0.05000000074505806 0
          <InformationKey name="L2_NORM_RANGE" location="vtkDataArray" length="2">
            <Value index="0">
              0
            </Value>
            <Value index="1">
              0.60207975276
            </Value>
          </InformationKey>
        </DataArray>
      </Points>
      <Cells>
        <DataArray type="Int64" Name="connectivity" format="ascii" RangeMin="0" RangeMax="12">
          3 2 1 2 0 1
          5 4 3 4 2 3
          7 6 5 6 4 5
          9 8 7 8 6 7
          11 10 9 10 8 9
          12 10 11
        </DataArray>
        <DataArray type="Int64" Name="offsets" format="ascii" RangeMin="3" RangeMax="33">
          3 6 9 12 15 18
          21 24 27 30 33
        </DataArray>
        <DataArray type="UInt8" Name="types" format="ascii" RangeMin="5" RangeMax="5">
          5 5 5 5 5 5
          5 5 5 5 5
        </DataArray>
      </Cells>
    </Piece>
  </UnstructuredGrid>
</VTKFile>
