<?xml version="1.0"?>
<VTKFile type="UnstructuredGrid" version="0.1" byte_order="LittleEndian" header_type="UInt32" compressor="vtkZLibDataCompressor">
  <UnstructuredGrid>
    <Piece NumberOfPoints="10" NumberOfCells="10">
      <PointData>
        <DataArray type="Float64" Name="Disp" NumberOfComponents="3" format="ascii" RangeMin="0" RangeMax="0.33423145082231825">
          0.23851321498572914 -0.0037869376385577178 0 0.0923304808115437 -0.0002409018501264397 0
          0.14628574802736619 0.029632215711489017 0 0.03916654286008932 0.020548215474140992 0
          0.33167390965959226 -0.041268394321955296 0 0.3267456896596343 0.02862588476383144 0
          0.15078750775169528 -0.033038953320194485 0 0.0388659654448411 -0.01986025135082923 0
          0 0 0 0.016406520722289777 0.00032109128563992135 0
          <InformationKey name="L2_NORM_RANGE" location="vtkDataArray" length="2">
            <Value index="0">
              0
            </Value>
            <Value index="1">
              0.33423145082
            </Value>
          </InformationKey>
        </DataArray>
        <DataArray type="Float64" Name="Sld_traction" NumberOfComponents="3" format="ascii" RangeMin="0" RangeMax="38.93361727977173">
          0 0 0 0 0 0
          13.94366910561163 -11.412048154031615 0 35.27361675974122 -16.48024621098371 0
          3.25267547172756 4.885498554431519 0 4.668424221550047 -5.918930133908451 0
          13.547713819501341 9.398542819916301 0 36.00115422426065 14.263475385113578 0
          -5.873720572010957 -13.052860123144216 0 0 0 0
          <InformationKey name="L2_NORM_RANGE" location="vtkDataArray" length="2">
            <Value index="0">
              0
            </Value>
            <Value index="1">
              38.93361728
            </Value>
          </InformationKey>
        </DataArray>
        <DataArray type="Float64" Name="Fld_traction" NumberOfComponents="3" format="ascii" RangeMin="0" RangeMax="2.322073668634089">
          0 0 0 0 0 0
          1.8539192503918118 -0.0664790297046324 0 2.320498428899352 -0.08551703946825948 0
          0 0 0 0.9173706133146222 0.04719178025522304 0
          0 0 0 0 0 0
          1.2032119035184405 -1.279905200504072 0 0 0 0
          <InformationKey name="L2_NORM_RANGE" location="vtkDataArray" length="2">
            <Value index="0">
              0
            </Value>
            <Value index="1">
              2.3220736686
            </Value>
          </InformationKey>
        </DataArray>
        <DataArray type="Float64" Name="Velocity" NumberOfComponents="3" format="ascii" RangeMin="0" RangeMax="0.2012416510276585">
          0.14514243506285623 0.0013143302731960411 0 0.0568124738745763 0.0035054080982698625 0
          0.09113190071877564 0.022139524975343078 0 0.025682652204784107 0.015371724528956916 0
          0.2002592291803652 -0.019860595067214097 0 0.19904876375873937 0.01846276439367345 0
          0.09198854461528505 -0.016041595878005563 0 0.024081596591949667 -0.009136586361667351 0
          0 0 0 0.010327965437096312 0.0016338668395291245 0
          <InformationKey name="L2_NORM_RANGE" location="vtkDataArray" length="2">
            <Value index="0">
              0
            </Value>
            <Value index="1">
              0.20124165103
            </Value>
          </InformationKey>
        </DataArray>
      </PointData>
      <CellData>
        <DataArray type="UInt8" Name="vtkGhostType" format="ascii" RangeMin="0" RangeMax="1">
          1 1 1 1 1 1
          1 1 1 0
        </DataArray>
        <DataArray type="Float64" Name="Gauss Stress" NumberOfComponents="6" format="ascii" RangeMin="10.78960040446524" RangeMax="150.25670392106255">
          1.5561845777800765 6.4515390859063775 0 -8.507138759356064 0 0
          4.9035757745139055 -9.380447948782749 0 6.35945392203367 0 0
          25.93586834009106 -54.499311443111694 0 9.582557491596438 0 0
          2.7957166910145665 6.318503432631598 0 -33.90337739788946 0 0
          -3.599411597911243 3.9686971699298033 0 24.877815038918023 0 0
          -6.9421580887216 19.665342521502627 0 10.00359642011066 0 0
          -50.113575351088016 140.02484513810043 0 21.418435582546007 0 0
          -4.730229893182054 8.917072424672655 0 -64.66477730912018 0 0
          -0.31819861637588276 2.5721364152984822 0 62.4423642776929 0 0
          -21.504124957689022 65.04407487197233 0 18.657407021255178 0 0
          <InformationKey name="L2_NORM_RANGE" location="vtkDataArray" length="2">
            <Value index="0">
              10.789600404
            </Value>
            <Value index="1">
              150.25670392
            </Value>
          </InformationKey>
        </DataArray>
        <DataArray type="Float64" Name="Gauss Strain" NumberOfComponents="6" format="ascii" RangeMin="0.001640721550375512" RangeMax="0.01467184239030046">
          0.00004004457396661332 0.0005293249342187555 0 -0.0017005411599847462 0 0
          0.0005530089914314029 -0.0008759232867767697 0 0.0012723626279268136 0 0
          0.002981051773863818 -0.005079471335725394 0 0.0019205632738850485 0 0
          0.0001297643847878449 0.0004818370485554224 0 -0.006776710182412307 0 0
          -0.00037608448607351347 0.00038075102084517143 0 0.004975724935670618 0 0
          -0.0008795041058126118 0.001778970559304427 0 0.0019990083272008355 0 0
          -0.006395664206676475 0.012499474605962953 0 0.004256944098310681 0 0
          -0.000605170323841997 0.0007593022292644023 0 -0.01293051355293735 0 0
          -0.0001308827349835173 0.00015813475600234828 0 0.012487781006002927 0 0
          -0.0027965475962974384 0.0058320477811851235 0 0.00372017479962049 0 0
          <InformationKey name="L2_NORM_RANGE" location="vtkDataArray" length="2">
            <Value index="0">
              0.0016407215504
            </Value>
            <Value index="1">
              0.01467184239
            </Value>
          </InformationKey>
        </DataArray>
        <DataArray type="Float64" Name="Btraction" NumberOfComponents="3" format="ascii" RangeMin="0" RangeMax="1.3923946505619824">
          0 0 0 0 0 0
          0 0 0 0 0 0
          0 0 0 0.9237632879021445 -0.00642908314980312 0
          1.1745701108059308 -0.45514074665744375 0 0 0 0
          0 0 0 1.391472559763721 -0.05066535639096394 0
          <InformationKey name="L2_NORM_RANGE" location="vtkDataArray" length="2">
            <Value index="0">
              0
            </Value>
            <Value index="1">
              1.3923946506
            </Value>
          </InformationKey>
        </DataArray>
      </CellData>
      <Points>
        <DataArray type="Float32" Name="Points" NumberOfComponents="3" format="ascii" RangeMin="10" RangeMax="12.72006462895274">
          10.5 5 0 10.5 2.6568450927734375 0
          10 3.61250901222229 0 10 1.6373380422592163 0
          11 6.387491226196289 0 10 6.2815680503845215 0
          11 3.7184319496154785 0 11 1.6591010093688965 0
          10 0 0 10.5 0.8241099119186401 0
          <InformationKey name="L2_NORM_RANGE" location="vtkDataArray" length="2">
            <Value index="0">
              10
            </Value>
            <Value index="1">
              12.720064629
            </Value>
          </InformationKey>
        </DataArray>
      </Points>
      <Cells>
        <DataArray type="Int64" Name="connectivity" format="ascii" RangeMin="0" RangeMax="9">
          4 5 0 0 6 4
          1 7 6 2 1 6
          2 6 0 2 0 5
          8 9 3 9 7 3
          3 7 1 3 1 2
        </DataArray>
        <DataArray type="Int64" Name="offsets" format="ascii" RangeMin="3" RangeMax="30">
          3 6 9 12 15 18
          21 24 27 30
        </DataArray>
        <DataArray type="UInt8" Name="types" format="ascii" RangeMin="5" RangeMax="5">
          5 5 5 5 5 5
          5 5 5 5
        </DataArray>
      </Cells>
    </Piece>
  </UnstructuredGrid>
</VTKFile>
