<?xml version="1.0"?>
<VTKFile type="UnstructuredGrid" version="0.1" byte_order="LittleEndian" header_type="UInt32" compressor="vtkZLibDataCompressor">
  <UnstructuredGrid>
    <Piece NumberOfPoints="33" NumberOfCells="46">
      <PointData>
        <DataArray type="Float64" Name="proc" format="ascii" RangeMin="0" RangeMax="1">
          1 1 1 1 1 1
          1 1 1 1 1 1
          1 1 1 1 1 1
          1 1 1 1 1 1
          1 1 1 1 0 0
          0 0 0
        </DataArray>
        <DataArray type="Float64" Name="Displacement" NumberOfComponents="3" format="ascii" RangeMin="0" RangeMax="7.373294351432779e-11">
          2.9261136675074836e-11 -6.767815629706266e-11 0 2.969842896305803e-11 -6.491160523672679e-11 0
          2.864813444499035e-11 -6.512317174172411e-11 0 2.1194324779009535e-11 -6.040355413772458e-11 0
          3.1764467020925184e-11 -6.313200210459549e-11 0 3.075007048501604e-11 -6.229638069407902e-11 0
          2.709039819995596e-11 -5.985306682971892e-11 0 2.073333303107993e-11 -5.577626624645171e-11 0
          3.7196987905460666e-11 -5.966487339725556e-11 0 3.5514814070812084e-11 -5.807120932514303e-11 0
          3.200607443638535e-11 -5.496803764952933e-11 0 1.2974254470091724e-11 -5.383324128349685e-11 0
          2.6851356498387903e-11 -5.041077683447057e-11 0 1.924901897485773e-11 -4.6489031015233005e-11 0
          4.352849181169095e-11 -5.2604280520025187e-11 0 3.877568948831778e-11 -4.8777708878896164e-11 0
          3.3829548405870474e-11 -4.2772944949663764e-11 0 6.407286261233328e-12 -3.194590463586065e-11 0
          2.6546782577323695e-11 -3.3076469202889666e-11 0 4.8137680454024484e-11 -4.2213328942511585e-11 0
          4.110398700160189e-11 -3.682489878755134e-11 0 3.5425304354822915e-11 -2.85760515783872e-11 0
          5.052931214156339e-11 -3.0471587846585964e-11 0 0 0 0
          2.0341718338998507e-11 -9.480880532518698e-12 0 3.176228435757166e-11 -1.5338673238365017e-11 0
          4.088768910245794e-11 -1.8228624094777988e-11 0 5.098454676628634e-11 -1.86838587195009e-11 0
          2.7873399708823003e-11 -6.344130321073658e-11 0 3.0006651186863436e-11 -6.231836349315946e-11 0
          2.864148868125744e-11 -6.293492072442571e-11 0 3.047700357267395e-11 -6.547829482340727e-11 0
          3.743429554535719e-11 -6.120857767185062e-11 0
          <InformationKey name="L2_NORM_RANGE" location="vtkDataArray" length="2">
            <Value index="0">
              0
            </Value>
            <Value index="1">
              7.3732943514e-11
            </Value>
          </InformationKey>
        </DataArray>
        <DataArray type="Float64" Name="TopologicalDerivative1" format="ascii" RangeMin="-0.066620893134996" RangeMax="0.5057958565670165">
          0.055122921578820275 -0.06007846800647101 -0.021999868957013655 0.06122998503236095 0.00018682195660572887 -0.054517176652080904
          -0.036788195328613715 0.056021539239763815 0.07776590860051617 -0.000029489381564995476 -0.03875963228255996 0.17395357854546978
          -0.01996547062851231 0.04670622171515061 0.04486595561624465 -0.009759593886456877 -0.01383729103820456 0.14676674726363226
          0.019949819847927264 -0.00984723221373314 -0.03499797002638902 -0.009813831686012409 -0.057013738975895026 0.5057958565670165
          0.1939232426516851 0.08253437596376985 -0.03914679451722501 -0.066620893134996 -0.005128109317244875 0.07828781331444189
          -0.05377200098490313 -0.02264972524075594 0.03185835702416849
        </DataArray>
      </PointData>
      <CellData>
        <DataArray type="UInt8" Name="vtkGhostType" format="ascii" RangeMin="0" RangeMax="1">
          1 1 1 0 0 1
          1 1 1 0 0 0
          1 0 0 0 0 0
          0 0 0 0 0 0
          0 0 0 0 0 0
          0 0 0 0 0 0
          0 0 0 0 0 0
          0 0 0 0
        </DataArray>
        <DataArray type="Float64" Name="Stress" NumberOfComponents="6" format="ascii" RangeMin="0.000012353259453803316" RangeMax="0.11160627680453426">
          -0.044109210288259385 -0.0006107951137398898 0 -0.0004018129868954018 0 0
          -0.000011736059608636878 0.000003157412576567551 0 0.000002213293883973857 0 0
          -0.00004866542734653449 0.000010367400072951578 0 -8.708175290310204e-7 0 0
          -0.00001183559135054341 0.00000305859002566097 0 -0.000003902697169389293 0 0
          -0.0000079398476286345 0.000015599502116205203 0 -0.000005142958491735635 0 0
          -0.000007978443527101338 0.000015682799515019345 0 0.000003372199651362161 0 0
          0.000023963070243133868 0.000011522838318730885 0 -9.367148804145346e-7 0 0
          0.015435155924073216 0.01677768200080319 0 -0.00016429149882948158 0 0
          0.07412000726155837 0.017144269989485126 0 0.013189199874043704 0 0
          0.07698322706547617 0.01791722859061194 0 -0.014689542773235757 0 0
          -0.0019173433975575131 -0.07086871548942307 0 -0.027584641577672986 0 0
          0.003978061606330455 -0.011702328589112151 0 -0.01900257457187672 0 0
          -0.0850402558745657 0.004145949162003452 0 -0.0024549145329152175 0 0
          -0.045173757306819946 -0.0005730535574411267 0 -0.004398796931883378 0 0
          -0.07464571474666616 0.004441044098451519 0 -0.006750876942040624 0 0
          -0.0001646262755450105 0.00004329234622717897 0 -0.00003140661695070242 0 0
          -0.000014000016318474642 0.0000035734369931903734 0 -0.000011776824401182334 0 0
          -0.00003594941702379126 0.000010603626620923417 0 -0.000015504413582678192 0 0
          -0.032226550650403675 -0.0003377944511714602 0 -0.007285606883505361 0 0
          -0.0000182265511230861 0.0000018349608367727084 0 -0.00002036817015896468 0 0
          0.00003078332335886089 0.000012765161192851683 0 -0.000011386853404017442 0 0
          -0.03674264471063235 0.0017586568359827179 0 -0.006971974610191589 0 0
          -0.000026609134556327606 0.00000443478534360557 0 -0.000020860045835711427 0 0
          -0.000010985755398562144 0.000013620973392898703 0 -0.000010972445749096746 0 0
          -0.000028016927956646376 -2.578593241236599e-7 0 -0.000011477341348967786 0 0
          0.00000806928896504812 0.000008452155488576753 0 -0.000013648309621854148 0 0
          -0.000029334190329398124 -0.000002115366929770983 0 -0.000010334410589324153 0 0
          -0.000012115327232485648 0.00002190572106093027 0 -0.000018402996169509357 0 0
          0.007221550975579097 0.014277541660895721 0 -0.0013474475532409067 0 0
          -0.000009710236505997607 -8.76543102057914e-7 0 -0.000009155901087227454 0 0
          -0.0006587881578297751 0.0007290050911252149 0 -0.008513218095295278 0 0
          0.028283382334938538 0.016033649607476726 0 -0.012039862487900595 0 0
          0.0024259533017605825 0.02095386671947174 0 -0.016522979779062235 0 0
          0.04137990523214627 0.05150818974886165 0 -0.005929599171892562 0 0
          0.06784892600725491 0.016020104007381023 0 -0.023427604497350357 0 0
          0.08610519192736532 0.02397505653918121 0 0.013450245233373242 0 0
          0.03939256414629832 -0.0007761199986255959 0 -0.010061568886418841 0 0
          0.04498130664267558 0.007322128179325571 0 -0.0025042775839900096 0 0
          0.0010032526208900898 -0.008995492337350457 0 -0.026339435336637684 0 0
          -0.0045874431062469445 -0.0030452136751120368 0 -0.009197609983655992 0 0
          -0.00517757400511264 -0.022589682363438918 0 -0.013369034890146 0 0
          -0.000010244952996838398 -0.000011298409565526023 0 -0.00001996442366073782 0 0
          -0.00000948344136439829 3.6420915036693143e-7 0 -0.000024376145863133073 0 0
          -0.000007804022138107515 -0.000007804022138107179 0 -0.000007804022138107687 0 0
          0.030086569440409473 -0.10474459555810152 0 -0.024069255552415427 0 0
          0.014813258376081596 0.0011080566432423709 0 -0.001946682253931601 0 0
          <InformationKey name="L2_NORM_RANGE" location="vtkDataArray" length="2">
            <Value index="0">
              1.2353259454e-05
            </Value>
            <Value index="1">
              0.1116062768
            </Value>
          </InformationKey>
        </DataArray>
        <DataArray type="Float64" Name="Strain" NumberOfComponents="6" format="ascii" RangeMin="6.435840500308897e-14" RangeMax="5.986599613034867e-13">
          -1.9455336560510893e-13 5.590420089965927e-14 0 -4.627161816542957e-15 0 0
          -5.284701409002977e-14 2.7825960246494233e-14 0 2.3977350409716778e-14 0 0
          -1.9455336560510893e-13 9.38166807624287e-14 0 -8.507730434116011e-15 0 0
          -5.258207609790026e-14 2.725040501597167e-14 0 -4.183674016031492e-14 0 0
          -5.258207609790026e-14 7.492273501998147e-14 0 -5.571538366046937e-14 0 0
          -5.284701409002977e-14 7.531805238812396e-14 0 3.6532162889756744e-14 0 0
          8.544257811464412e-14 1.805798852412803e-14 0 -1.0147744537824125e-14 0 0
          8.547158678617236e-14 9.981251319050638e-14 0 -3.509938964180307e-15 0 0
          3.2692635481129423e-13 -2.4133088570063524e-14 0 1.6253210184247162e-13 0 0
          3.226724758426121e-13 -2.333136896001324e-14 0 -1.7210030844040094e-13 0 0
          8.059696353862254e-14 -2.928896352923159e-13 0 -2.9883361709145735e-13 0 0
          3.120316742943375e-14 -5.373227946254703e-14 0 -2.0586122452866446e-13 0 0
          -3.595168359298614e-13 1.2357510801822149e-13 0 -2.659490743991485e-14 0 0
          -1.8751735249434501e-13 5.4082265497378616e-14 0 -4.7656093694754373e-14 0 0
          -3.1657519531151434e-13 1.118115216552251e-13 0 -7.313451839671077e-14 0 0
          -1.8751735249434501e-13 9.784787890891954e-14 0 -8.621023395923322e-14 0 0
          -6.280019756846564e-14 3.238934120305319e-14 0 -1.2758226434614196e-13 0 0
          -1.6304377087528451e-13 8.911854886691997e-14 0 -1.6796448047901373e-13 0 0
          -1.6304377087528471e-13 4.735303244333861e-14 0 -9.613848774462972e-14 0 0
          -7.823766405882463e-14 3.042885905707724e-14 0 -2.2065517672211737e-13 0 0
          1.1230739583752239e-13 1.47090174383059e-14 0 -1.233575785435223e-13 0 0
          -2.3045943211667686e-13 7.90337177018366e-14 0 -1.1208859419728396e-13 0 0
          -1.1641487566420527e-13 5.173969046043272e-14 0 -2.2598382988687375e-13 0 0
          -6.280019756846564e-14 7.048625005194728e-14 0 -1.1886816228188143e-13 0 0
          -1.1641487566420527e-13 3.394674609529272e-14 0 -1.2433786461381768e-13 0 0
          2.3056842993646216e-14 2.5130703329426316e-14 0 -1.4785668757008664e-13 0 0
          -1.1958158437694515e-13 2.7853709037701907e-14 0 -1.1195611471767833e-13 0 0
          -7.78626814615197e-14 1.064179967944832e-13 0 -1.9936579183635136e-13 0 0
          2.7476709956667163e-14 1.132538670734234e-13 0 -3.276087671755411e-14 0 0
          -3.9363639897417635e-14 8.4855327072557e-15 0 -9.918892844496408e-14 0 0
          -1.23596758522028e-14 1.3051992792989765e-14 0 -3.1176845326896003e-13 0 0
          1.0614909040612155e-13 3.4135854673113574e-14 0 -1.415589180309956e-13 0 0
          -1.8914541313006528e-14 9.910532463256751e-14 0 -2.104975141650088e-13 0 0
          1.0803103461453239e-13 1.6289257574674073e-13 0 -6.423732436216944e-14 0 0
          2.6267872835433585e-13 -1.8060724144981044e-14 0 -2.5379904872129555e-13 0 0
          3.2880281235671235e-13 -7.735420995951575e-15 0 1.4571099002821015e-13 0 0
          1.6510583394119164e-13 -5.2474538510479547e-14 0 -1.0900032960287078e-13 0 0
          2.0938924026093395e-13 -3.02072140629571e-14 0 -3.186559315683125e-14 0 0
          1.5984105632194478e-14 -4.014039157330077e-14 0 -2.956946238991928e-13 0 0
          -3.861983138190824e-14 -1.754433252111833e-14 0 -2.513818175417443e-13 0 0
          1.0985684111275662e-14 -1.4449754282064868e-13 0 -2.387603663965705e-13 0 0
          -2.856429219658578e-14 -3.4270515276977095e-14 0 -2.162812563246597e-13 0 0
          -3.9969600456284874e-14 1.3371839832026744e-14 0 -2.6407491351727495e-13 0 0
          -2.2761731236147336e-14 -2.2761731236145518e-14 0 -8.454357316283328e-14 0 0
          2.562914504493331e-13 -4.740440266259349e-13 0 -2.607502684845005e-13 0 0
          1.311383121689406e-13 -3.021005622480084e-14 0 -4.583573617895892e-14 0 0
          <InformationKey name="L2_NORM_RANGE" location="vtkDataArray" length="2">
            <Value index="0">
              6.4358405003e-14
            </Value>
            <Value index="1">
              5.986599613e-13
            </Value>
          </InformationKey>
        </DataArray>
      </CellData>
      <Points>
        <DataArray type="Float32" Name="Points" NumberOfComponents="3" format="ascii" RangeMin="0" RangeMax="128.28654354956544">
          100 0 0 100 45.35898208618164 0
          89.30555725097656 23.870376586914062 0 75 0 0
          90 62.67949295043945 0 80 45.35898208618164 0
          70 28.038475036621094 0 57 13.358983993530273 0
          80 80 0 70 62.67949295043945 0
          60 45.35898208618164 0 50 0 0
          48.827545166015625 28.876956939697266 0 41.327545166015625 13.757295608520508 0
          60 80 0 50 62.67949295043945 0
          38.48822784423828 45.76527404785156 0 25 0 0
          24.63772964477539 27.38901710510254 0 40 80 0
          30 62.67949295043945 0 17.464101791381836 47.607696533203125 0
          20 80 0 0 0 0
          0 20 0 0 40 0
          0 60 0 0 80 0
          110 62.67949295043945 0 100 80 0
          120 45.35898208618164 0 110.71759033203125 23.771137237548828 0
          125 0 0
          <InformationKey name="L2_NORM_RANGE" location="vtkDataArray" length="2">
            <Value index="0">
              0
            </Value>
            <Value index="1">
              128.28654355
            </Value>
          </InformationKey>
        </DataArray>
      </Points>
      <Cells>
        <DataArray type="Int64" Name="connectivity" format="ascii" RangeMin="0" RangeMax="32">
          28 29 4 30 28 1
          1 28 4 4 5 1
          1 5 2 31 30 1
          31 1 2 31 2 0
          0 32 31 3 0 2
          25 24 18 18 24 17
          4 29 8 4 8 9
          9 8 14 4 9 5
          5 9 10 10 9 15
          15 9 14 10 15 16
          2 5 6 15 14 19
          16 15 20 6 5 10
          15 19 20 6 10 12
          20 19 22 12 10 16
          6 12 7 20 22 26
          12 16 18 7 12 13
          13 12 18 7 13 11
          11 13 17 7 11 3
          17 13 18 7 3 6
          25 18 21 21 18 16
          25 21 26 26 21 20
          20 21 16 27 26 22
          24 23 17 2 6 3
        </DataArray>
        <DataArray type="Int64" Name="offsets" format="ascii" RangeMin="3" RangeMax="138">
          3 6 9 12 15 18
          21 24 27 30 33 36
          39 42 45 48 51 54
          57 60 63 66 69 72
          75 78 81 84 87 90
          93 96 99 102 105 108
          111 114 117 120 123 126
          129 132 135 138
        </DataArray>
        <DataArray type="UInt8" Name="types" format="ascii" RangeMin="5" RangeMax="5">
          5 5 5 5 5 5
          5 5 5 5 5 5
          5 5 5 5 5 5
          5 5 5 5 5 5
          5 5 5 5 5 5
          5 5 5 5 5 5
          5 5 5 5 5 5
          5 5 5 5
        </DataArray>
      </Cells>
    </Piece>
  </UnstructuredGrid>
</VTKFile>
