<?xml version="1.0"?>
<VTKFile type="UnstructuredGrid" version="0.1" byte_order="LittleEndian" header_type="UInt32" compressor="vtkZLibDataCompressor">
  <UnstructuredGrid>
    <Piece NumberOfPoints="13" NumberOfCells="14">
      <PointData>
        <DataArray type="Float64" Name="Disp" NumberOfComponents="3" format="ascii" RangeMin="0" RangeMax="1.9841353199561917">
          0.5996852562258066 -0.18723683704000627 0 1.360127137803315 -0.013448062592345138 0
          0.1523129170896602 -0.08913783052255209 0 0.3742951523747731 -0.029059224694429474 0
          0 0 0 0.6061765276030072 0.07354414513904053 0
          0.0661832505127747 -0.0017313718140918983 0 0.16243121890952592 0.07498525277512454 0
          0 0 0 0.9766949212116669 -0.10805779523453919 0
          1.656825723693152 -0.2078906158303589 0 1.981505855320245 -0.10211519587820173 0
          1.347367942607956 -0.31091485347446646 0
          <InformationKey name="L2_NORM_RANGE" location="vtkDataArray" length="2">
            <Value index="0">
              0
            </Value>
            <Value index="1">
              1.98413532
            </Value>
          </InformationKey>
        </DataArray>
        <DataArray type="Float64" Name="Sld_traction" NumberOfComponents="3" format="ascii" RangeMin="0" RangeMax="168.16744169997875">
          67.61045087567116 23.86343617911469 0 22.064419723721066 -31.812953134066664 0
          144.09720126647937 39.50165429305637 0 0 0 0
          -45.149813749375326 43.362086264125644 0 55.093660317031734 -54.61103542064995 0
          0 0 0 149.8049789946368 -76.41175771000286 0
          -6.661679337542541 -43.09339148463494 0 0 0 0
          0 0 0 6.166375313341595 -11.82004855435844 0
          23.375701121735627 16.65946929962074 0
          <InformationKey name="L2_NORM_RANGE" location="vtkDataArray" length="2">
            <Value index="0">
              0
            </Value>
            <Value index="1">
              168.1674417
            </Value>
          </InformationKey>
        </DataArray>
        <DataArray type="Float64" Name="Fld_traction" NumberOfComponents="3" format="ascii" RangeMin="0" RangeMax="6.179385870299383">
          2.7906349161067263 -0.705581622132868 0 4.63193113454391 -1.224315123359662 0
          2.867736160859239 -0.47413597714295397 0 0 0 0
          1.4032747379157657 1.3771970923925867 0 5.699486850121248 -1.3771113862138191 0
          0 0 0 6.102526667964291 -0.971585302914934 0
          3.1077841017723653 -3.4168173169282245 0 0 0 0
          0 0 0 3.0023930927675084 -0.6690871144798516 0
          2.7358848449588837 -0.7966661301269894 0
          <InformationKey name="L2_NORM_RANGE" location="vtkDataArray" length="2">
            <Value index="0">
              0
            </Value>
            <Value index="1">
              6.1793858703
            </Value>
          </InformationKey>
        </DataArray>
        <DataArray type="Float64" Name="Velocity" NumberOfComponents="3" format="ascii" RangeMin="0" RangeMax="0.026817779533642967">
          -0.023444251153501627 -0.0065645376538537165 0 -0.01553066837493522 -0.010054187779926407 0
          -0.011550091091192094 -0.00047226039766903177 0 -0.018788796479525943 -0.004972088658654311 0
          0 0 0 -0.025132138916692415 -0.005877316043105429 0
          -0.00570001051219968 -0.0020524576271543633 0 -0.01394459448150294 -0.007338712079524936 0
          0 0 0 -0.019635792029388255 -0.008694525361647693 0
          -0.01787635328627002 -0.009879785355198567 0 -0.02359295219660895 -0.012750133558657506 0
          -0.015172402620785785 -0.011368726611880337 0
          <InformationKey name="L2_NORM_RANGE" location="vtkDataArray" length="2">
            <Value index="0">
              0
            </Value>
            <Value index="1">
              0.026817779534
            </Value>
          </InformationKey>
        </DataArray>
      </PointData>
      <CellData>
        <DataArray type="UInt8" Name="vtkGhostType" format="ascii" RangeMin="0" RangeMax="1">
          0 0 1 1 1 1
          1 1 0 0 0 0
          0 0
        </DataArray>
        <DataArray type="Float64" Name="Gauss Stress" NumberOfComponents="6" format="ascii" RangeMin="36.02884094803797" RangeMax="587.8115508084438">
          111.29332334513845 -258.0258716083814 0 -30.683823003185076 0 0
          -40.913407870383836 63.16580411715633 0 -147.61919697311038 0 0
          34.71455888437843 -49.41307121528242 0 109.58166137685154 0 0
          -3.0808283247448456 24.087109682013477 0 26.61572888461107 0 0
          15.636814467584987 -14.529730791370461 0 36.25400493324423 0 0
          -15.95906617665003 34.996623704187336 0 -47.83051792906765 0 0
          32.75466501237127 -74.96797595916334 0 0.0015496442790298487 0 0
          -14.135749467651532 57.22088643157741 0 60.79122086535277 0 0
          28.098912823349032 -25.244915882696905 0 401.52381146460414 0 0
          181.71787976632038 -559.0172376827494 0 0.8714416844114612 0 0
          -211.24645003740642 530.1090588849324 0 133.48276218881634 0 0
          -64.88138288174943 68.28141035584429 0 -260.1623193223186 0 0
          82.31005625610047 -83.90821557888094 0 246.02071492794784 0 0
          -62.05726156864213 226.12177150719486 0 123.56853090064644 0 0
          <InformationKey name="L2_NORM_RANGE" location="vtkDataArray" length="2">
            <Value index="0">
              36.028840948
            </Value>
            <Value index="1">
              587.81155081
            </Value>
          </InformationKey>
        </DataArray>
        <DataArray type="Float64" Name="Gauss Strain" NumberOfComponents="6" format="ascii" RangeMin="0.0057458788000774395" RangeMax="0.08065520276457157">
          0.012832822638379702 -0.024505908992024532 0 -0.006204362232810249 0 0
          -0.004822517308001761 0.005573018485952652 0 -0.02948870608652352 0 0
          0.003450624070657604 -0.004973045904864026 0 0.02194474632684745 0 0
          -0.0006213181676574253 0.0020915681224170086 0 0.005315489602003485 0 0
          0.0015214241531081303 -0.0014952087168611512 0 0.007250748934678695 0 0
          -0.0019147931661610547 0.0031743127443112354 0 -0.009553970206781975 0 0
          0.0038460066716076713 -0.006959711036658378 0 3.1089134979248955e-7 0 0
          -0.002102827437812649 0.005011727085719009 0 0.012122277065006007 0 0
          -1.1102230246251563e-16 -0.005345880091360167 0 0.08047784352878097 0 0
          0.022299984946801354 -0.053909988529307826 0 0.0001793152399299865 0 0
          -0.02751107325622071 0.04509912610387051 0 0.026147266343928693 0 0
          -0.007778330071252726 0.005549089230511062 0 -0.05207599257761812 0 0
          0.00710721800181513 -0.009533337100363193 0 0.04925958160725174 0 0
          -0.008992649734778313 0.019503252929349235 0 0.02443756432458718 0 0
          <InformationKey name="L2_NORM_RANGE" location="vtkDataArray" length="2">
            <Value index="0">
              0.0057458788001
            </Value>
            <Value index="1">
              0.080655202765
            </Value>
          </InformationKey>
        </DataArray>
        <DataArray type="Float64" Name="Btraction" NumberOfComponents="3" format="ascii" RangeMin="0" RangeMax="4.0111497273724135">
          1.8861236923219882 -0.3932391997586073 0 0 0 0
          0 0 0 2.5447747424371387 -0.6311340792798378 0
          0 0 0 0 0 0
          1.8421732536885367 -0.5007492507532857 0 3.443805994888386 -0.8671421698578269 0
          0 0 0 1.4236702995916681 0.3010203717498775 0
          3.070103589912218 -1.4628008732810527 0 0 0 0
          0 0 0 3.9340045060285123 -0.7828988963762509 0
          <InformationKey name="L2_NORM_RANGE" location="vtkDataArray" length="2">
            <Value index="0">
              0
            </Value>
            <Value index="1">
              4.0111497274
            </Value>
          </InformationKey>
        </DataArray>
      </CellData>
      <Points>
        <DataArray type="Float32" Name="Points" NumberOfComponents="3" format="ascii" RangeMin="10" RangeMax="13.021927811442218">
          11 3.7184319496154785 0 10 6.2815680503845215 0
          11 1.6591010093688965 0 10.5 2.6568450927734375 0
          11 0 0 10 3.61250901222229 0
          10.5 0.8241099119186401 0 10 1.6373380422592163 0
          10 0 0 10.5 5 0
          10.5 7.3431549072265625 0 10 8.340899467468262 0
          11 6.387491226196289 0
          <InformationKey name="L2_NORM_RANGE" location="vtkDataArray" length="2">
            <Value index="0">
              10
            </Value>
            <Value index="1">
              13.021927811
            </Value>
          </InformationKey>
        </DataArray>
      </Points>
      <Cells>
        <DataArray type="Int64" Name="connectivity" format="ascii" RangeMin="0" RangeMax="12">
          3 2 0 5 3 0
          5 0 9 10 11 1
          12 10 1 12 1 9
          9 0 12 5 9 1
          8 4 6 6 4 2
          8 6 7 6 2 7
          7 2 3 7 3 5
        </DataArray>
        <DataArray type="Int64" Name="offsets" format="ascii" RangeMin="3" RangeMax="42">
          3 6 9 12 15 18
          21 24 27 30 33 36
          39 42
        </DataArray>
        <DataArray type="UInt8" Name="types" format="ascii" RangeMin="5" RangeMax="5">
          5 5 5 5 5 5
          5 5 5 5 5 5
          5 5
        </DataArray>
      </Cells>
    </Piece>
  </UnstructuredGrid>
</VTKFile>
