<?xml version="1.0"?>
<VTKFile type="UnstructuredGrid" version="0.1" byte_order="LittleEndian" header_type="UInt32" compressor="vtkZLibDataCompressor">
  <UnstructuredGrid>
    <Piece NumberOfPoints="13" NumberOfCells="11">
      <PointData>
        <DataArray type="Float64" Name="Disp" NumberOfComponents="3" format="ascii" RangeMin="0" RangeMax="0.014225635314499092">
          0 0 0 0 0 0
          0.0001452641320164547 -0.000230251709430229 0 -0.00013133565938312718 -0.0002237264800525725 0
          0.0003393560228421847 -0.0011631603983463703 0 -0.00034310041067549897 -0.0011570071902389496 0
          0.0005630042198643552 -0.002993168539282823 0 -0.0005915347084931399 -0.0029772066586901255 0
          0.0007695647984498981 -0.005794434395031521 0 -0.0008699016125872926 -0.005766001251594407 0
          0.0009324677368339247 -0.009558207896651688 0 -0.0011667658984963354 -0.009512960063191031 0
          0.0010252882949593788 -0.01418863925869366 0
          <InformationKey name="L2_NORM_RANGE" location="vtkDataArray" length="2">
            <Value index="0">
              0
            </Value>
            <Value index="1">
              0.014225635314
            </Value>
          </InformationKey>
        </DataArray>
        <DataArray type="Float64" Name="Nodal Stress" NumberOfComponents="6" format="ascii" RangeMin="9217.707649419615" RangeMax="19224.286998464937">
          18967.06747274202 830.3694427513394 0 -3022.2588691812043 0 0
          -9067.659480157956 -540.7272987744656 0 1565.6627511793567 0 0
          15974.308475757483 783.7380096639824 0 -278.15898646085896 0 0
          -12810.139846405677 -996.9949015880767 0 1652.2710095712453 0 0
          15812.859398028268 472.26623888337417 0 -927.9692678870866 0 0
          -14028.478201993019 -1030.8991722649048 0 1575.6866246907239 0 0
          16660.19362023578 728.4003314105086 0 -1351.2508513814835 0 0
          -14559.270668470306 -914.3719847078094 0 1520.6290963156146 0 0
          16117.21988816619 891.9440889782259 0 -1992.5885609062693 0 0
          -14247.692908492816 -748.5298287464763 0 1243.9251280257693 0 0
          14405.273095796761 1072.4587517480995 0 -2486.6643389843375 0 0
          -12757.158221534788 -465.25645855296773 0 831.3735634204494 0 0
          11523.849965401758 1170.1680773375297 0 -2729.185486964204 0 0
          <InformationKey name="L2_NORM_RANGE" location="vtkDataArray" length="2">
            <Value index="0">
              9217.7076494
            </Value>
            <Value index="1">
              19224.286998
            </Value>
          </InformationKey>
        </DataArray>
        <DataArray type="Float64" Name="Nodal Strain" NumberOfComponents="6" format="ascii" RangeMin="0" RangeMax="0">
          0 0 0 0 0 0
          0 0 0 0 0 0
          0 0 0 0 0 0
          0 0 0 0 0 0
          0 0 0 0 0 0
          0 0 0 0 0 0
          0 0 0 0 0 0
          0 0 0 0 0 0
          0 0 0 0 0 0
          0 0 0 0 0 0
          0 0 0 0 0 0
          0 0 0 0 0 0
          0 0 0 0 0 0
          <InformationKey name="L2_NORM_RANGE" location="vtkDataArray" length="2">
            <Value index="0">
              0
            </Value>
            <Value index="1">
              0
            </Value>
          </InformationKey>
        </DataArray>
        <DataArray type="Float64" Name="Sld_traction" NumberOfComponents="3" format="ascii" RangeMin="2343.0209633307454" RangeMax="7464.226476199483">
          -7078.957418622715 2367.0738799884934 0 1967.117754620951 1272.8687968767101 0
          -2595.1552160531473 2270.636671831235 0 -3579.37776597626 2564.5007844772367 0
          -2653.0171583331207 2045.8303469607035 0 -3662.739190389957 2578.999929498141 0
          -3223.9779041595634 2293.0686363496907 0 -3642.1056239264217 2529.882680812301 0
          -3828.4590188479774 2454.8848113176755 0 -3304.2987230610624 2314.4281355381254 0
          -4232.74246712796 2492.9063787125956 0 -2682.8958085943605 1880.2076227360965 0
          -4291.1557086119465 2335.506844913277 0
          <InformationKey name="L2_NORM_RANGE" location="vtkDataArray" length="2">
            <Value index="0">
              2343.0209633
            </Value>
            <Value index="1">
              7464.2264762
            </Value>
          </InformationKey>
        </DataArray>
        <DataArray type="Float64" Name="Velocity" NumberOfComponents="3" format="ascii" RangeMin="0" RangeMax="8.130924912719225">
          0 0 0 0 0 0
          0.13828749135585738 -0.2741767604082673 0 -0.16852167291374226 -0.2742169324825879 0
          0.2768704752691284 -1.2176995781141235 0 -0.30873237867805525 -1.2127785717822994 0
          0.3408131211948487 -2.590530714298018 0 -0.42270067604658557 -2.5751354555553454 0
          0.35773405006746983 -4.2710785384442405 0 -0.5314051024233993 -4.243739147242104 0
          0.32368849791604215 -6.146543958168079 0 -0.6394033925488594 -6.106436598911779 0
          0.24728321915547272 -8.12716377008623 0
          <InformationKey name="L2_NORM_RANGE" location="vtkDataArray" length="2">
            <Value index="0">
              0
            </Value>
            <Value index="1">
              8.1309249127
            </Value>
          </InformationKey>
        </DataArray>
        <DataArray type="Float64" Name="Acceleration" NumberOfComponents="3" format="ascii" RangeMin="0" RangeMax="533.3992656605602">
          0 0 0 0 0 0
          27.267658608600584 -64.59310306068136 0 -38.970118605880884 -63.39236559489257 0
          36.99546651274051 -252.41751891873878 0 -58.315959138838195 -245.36002016835164 0
          4.503943110741147 -431.17720033413525 0 -65.37776589841843 -418.2152457747138 0
          -50.01307688960793 -531.0494033018576 0 -69.52618488427464 -514.168035175795 0
          -116.49169251819592 -508.9087996154276 0 -71.09004934488382 -490.9983318883442 0
          -181.78240083558148 -351.06240290311507 0
          <InformationKey name="L2_NORM_RANGE" location="vtkDataArray" length="2">
            <Value index="0">
              0
            </Value>
            <Value index="1">
              533.39926566
            </Value>
          </InformationKey>
        </DataArray>
        <DataArray type="Float64" Name="Sigma" NumberOfComponents="6" format="ascii" RangeMin="23621.30597991748" RangeMax="32571.2139949797">
          16653.448770500247 -16653.44877050026 0 -7796.680311654152 0 0
          -18587.161776476853 18587.161776476783 0 4963.948574554132 0 0
          21553.660295457717 -21553.660295457634 0 -1459.6234279706455 0 0
          -19572.086823332702 19572.08682333281 0 3401.582346962234 0 0
          21407.319188885438 -21407.31918888603 0 -3494.884431137114 0 0
          -20881.883641726163 20881.883641726232 0 4379.260422566433 0 0
          22834.51806279182 -22834.518062792704 0 -4248.94702094403 0 0
          -21737.436954606037 21737.43695460638 0 4743.273432599888 0 0
          22278.13806698574 -22278.13806698627 0 -5442.853611446397 0 0
          -20927.459476092612 20927.459476093412 0 4822.495620612216 0 0
          20041.827466039013 -20041.827466039438 0 -6104.909369481728 0 0
          -18461.087427874296 18461.087427873685 0 4376.585647389717 0 0
          16129.528689646137 -16129.52868964616 0 -6135.365082588725 0 0
          <InformationKey name="L2_NORM_RANGE" location="vtkDataArray" length="2">
            <Value index="0">
              23621.30598
            </Value>
            <Value index="1">
              32571.213995
            </Value>
          </InformationKey>
        </DataArray>
        <DataArray type="Float64" Name="Press" format="ascii" RangeMin="-24415.36358242889" RangeMax="25300.916975578162">
          18035.90809460511 -20644.59592313368 24167.653564910193 -22284.519167699233 23277.26978795404 -23493.217754404588
          25300.916975578162 -24415.36358242889 24913.57981555953 -23441.08632433904 22832.604604001244 -20552.09830141973
          18813.643782525778
        </DataArray>
        <DataArray type="Float64" Name="Dev strain" NumberOfComponents="6" format="ascii" RangeMin="0" RangeMax="0">
          0 0 0 0 0 0
          0 0 0 0 0 0
          0 0 0 0 0 0
          0 0 0 0 0 0
          0 0 0 0 0 0
          0 0 0 0 0 0
          0 0 0 0 0 0
          0 0 0 0 0 0
          0 0 0 0 0 0
          0 0 0 0 0 0
          0 0 0 0 0 0
          0 0 0 0 0 0
          0 0 0 0 0 0
          <InformationKey name="L2_NORM_RANGE" location="vtkDataArray" length="2">
            <Value index="0">
              0
            </Value>
            <Value index="1">
              0
            </Value>
          </InformationKey>
        </DataArray>
        <DataArray type="Float64" Name="J2 Stresses" format="ascii" RangeMin="269572371.92428035" RangeMax="525928602.85668325">
          292534411.92221034 351642779.26762533 465092897.26985884 385959273.23586696 461326869.1515864 440847544.8887565
          525928602.85668325 478140826.0695815 503721599.59059966 443772676.12622124 410992327.7808808 345600374.50184155
          269572371.92428035
        </DataArray>
      </PointData>
      <CellData>
        <DataArray type="UInt8" Name="vtkGhostType" format="ascii" RangeMin="0" RangeMax="0">
          0 0 0 0 0 0
          0 0 0 0 0
        </DataArray>
        <DataArray type="Float64" Name="Gauss Stress" NumberOfComponents="6" format="ascii" RangeMin="12033.137400778001" RangeMax="16494.04004502865">
          -11789.016610091523 -718.6244071902536 0 2301.9691645152407 0 0
          13726.30434195425 646.3394823001702 0 -1430.7850550235553 0 0
          -13849.03947010774 -1151.2719526589235 0 1428.652779463851 0 0
          16183.098948725155 590.5038413847151 0 -517.6418373818424 0 0
          -14130.822298265235 -940.9539425718036 0 1624.5289447407645 0 0
          16148.30753969291 575.0051330583708 0 -1121.5236765049046 0 0
          -14443.209484973775 -852.0372424982942 0 1374.3051472552365 0 0
          16391.45079462678 807.9713445120684 0 -1649.5090665968469 0 0
          -13502.43315322848 -604.6201946099574 0 1031.3906328400685 0 0
          15232.534717384631 970.8640127631456 0 -2241.7557867719706 0 0
          12934.80627097272 1127.9604524317924 0 -2621.229601560246 0 0
          <InformationKey name="L2_NORM_RANGE" location="vtkDataArray" length="2">
            <Value index="0">
              12033.137401
            </Value>
            <Value index="1">
              16494.040045
            </Value>
          </InformationKey>
        </DataArray>
        <DataArray type="Float64" Name="Gauss Strain" NumberOfComponents="6" format="ascii" RangeMin="0" RangeMax="0">
          0 0 0 0 0 0
          0 0 0 0 0 0
          0 0 0 0 0 0
          0 0 0 0 0 0
          0 0 0 0 0 0
          0 0 0 0 0 0
          0 0 0 0 0 0
          0 0 0 0 0 0
          0 0 0 0 0 0
          0 0 0 0 0 0
          0 0 0 0 0 0
          <InformationKey name="L2_NORM_RANGE" location="vtkDataArray" length="2">
            <Value index="0">
              0
            </Value>
            <Value index="1">
              0
            </Value>
          </InformationKey>
        </DataArray>
      </CellData>
      <Points>
        <DataArray type="Float32" Name="Points" NumberOfComponents="3" format="ascii" RangeMin="0" RangeMax="0.6020797527609908">
          0 0.05000000074505806 0 0 0 0
          0.10000000149011612 0.05000000074505806 0 0.10000000149011612 0 0
          0.20000000298023224 0.05000000074505806 0 0.20000000298023224 0 0
          0.30000001192092896 0.05000000074505806 0 0.30000001192092896 0 0
          0.4000000059604645 0.05000000074505806 0 0.4000000059604645 0 0
          0.5 0.05000000074505806 0 0.5 0 0
          0.6000000238418579 0.05000000074505806 0
          <InformationKey name="L2_NORM_RANGE" location="vtkDataArray" length="2">
            <Value index="0">
              0
            </Value>
            <Value index="1">
              0.60207975276
            </Value>
          </InformationKey>
        </DataArray>
      </Points>
      <Cells>
        <DataArray type="Int64" Name="connectivity" format="ascii" RangeMin="0" RangeMax="12">
          3 2 1 2 0 1
          5 4 3 4 2 3
          7 6 5 6 4 5
          9 8 7 8 6 7
          11 10 9 10 8 9
          12 10 11
        </DataArray>
        <DataArray type="Int64" Name="offsets" format="ascii" RangeMin="3" RangeMax="33">
          3 6 9 12 15 18
          21 24 27 30 33
        </DataArray>
        <DataArray type="UInt8" Name="types" format="ascii" RangeMin="5" RangeMax="5">
          5 5 5 5 5 5
          5 5 5 5 5
        </DataArray>
      </Cells>
    </Piece>
  </UnstructuredGrid>
</VTKFile>
