<?xml version="1.0"?>
<VTKFile type="UnstructuredGrid" version="0.1" byte_order="LittleEndian" header_type="UInt32" compressor="vtkZLibDataCompressor">
  <UnstructuredGrid>
    <Piece NumberOfPoints="13" NumberOfCells="11">
      <PointData>
        <DataArray type="Float64" Name="Disp" NumberOfComponents="3" format="ascii" RangeMin="0.03135279012595697" RangeMax="0.11902553126427731">
          0.0011809977480758578 0.04500841571518377 0 -0.007068266258380852 0.05896981089469206 0
          0.0002733933289654259 0.059516955621906856 0 -0.008222171569969162 0.07380471548643211 0
          -0.0007802699479167789 0.07436504337607117 0 -0.009337996483934638 0.08871913899127801 0
          -0.001893646298926769 0.08927830673457451 0 -0.010432943007303037 0.1035905697054106 0
          -0.003016455280508277 0.10414430580419747 0 -0.011524062153284028 0.11840350405996235 0
          -0.00412478858737529 0.11895403823264225 0 -0.005873480377102696 0.04450156131549153 0
          0.0018319386592679022 0.031299224422195904 0
          <InformationKey name="L2_NORM_RANGE" location="vtkDataArray" length="2">
            <Value index="0">
              0.031352790126
            </Value>
            <Value index="1">
              0.11902553126
            </Value>
          </InformationKey>
        </DataArray>
        <DataArray type="Float64" Name="Nodal Stress" NumberOfComponents="6" format="ascii" RangeMin="128.255231018712" RangeMax="24099.989050115775">
          14792.556758623321 362.7736047931989 0 3264.0961318708655 0 0
          -8013.415922253293 -565.3322335415082 0 2493.351340707317 0 0
          8361.407167647445 222.55678668815762 0 2248.4666838027933 0 0
          -3709.019801466393 -285.0297924913053 0 1550.023060037839 0 0
          4151.368265600773 135.9894781261161 0 1306.739969340237 0 0
          -1311.543932475763 -115.23403158752527 0 774.7978433972842 0 0
          1765.159787256328 90.58381644325695 0 607.4605836533636 0 0
          -312.3012911475911 -29.58309336259979 0 241.8708720689454 0 0
          582.1571516487286 45.98301668427876 0 158.5879632318226 0 0
          -119.8727875647534 7.791435846774099 0 44.935649684457566 0 0
          408.84218994392825 121.49618911795001 0 149.45963453711633 0 0
          -14605.303413431877 -1051.313751718662 0 3490.365565728015 0 0
          23736.35986528658 456.9039736493727 0 4145.591793722109 0 0
          <InformationKey name="L2_NORM_RANGE" location="vtkDataArray" length="2">
            <Value index="0">
              128.25523102
            </Value>
            <Value index="1">
              24099.98905
            </Value>
          </InformationKey>
        </DataArray>
        <DataArray type="Float64" Name="Nodal Strain" NumberOfComponents="6" format="ascii" RangeMin="0" RangeMax="0">
          0 0 0 0 0 0
          0 0 0 0 0 0
          0 0 0 0 0 0
          0 0 0 0 0 0
          0 0 0 0 0 0
          0 0 0 0 0 0
          0 0 0 0 0 0
          0 0 0 0 0 0
          0 0 0 0 0 0
          0 0 0 0 0 0
          0 0 0 0 0 0
          0 0 0 0 0 0
          0 0 0 0 0 0
          <InformationKey name="L2_NORM_RANGE" location="vtkDataArray" length="2">
            <Value index="0">
              0
            </Value>
            <Value index="1">
              0
            </Value>
          </InformationKey>
        </DataArray>
        <DataArray type="Float64" Name="Sld_traction" NumberOfComponents="3" format="ascii" RangeMin="28.677565704127396" RangeMax="10477.76991316084">
          2229.057519206126 -983.9310921353 0 6236.308212798154 -1754.609184879676 0
          838.6417875141192 -494.1930253247969 0 3369.0365466185026 -946.2328085326332 0
          133.71832569092408 -240.69965217235912 0 1456.037692241683 -438.82866018016534 0
          -87.11940084730307 -128.51073345164363 0 425.0280843017972 -149.11747216983886 0
          -40.66825386689793 -80.80343449407113 0 8.89027452160154 -27.26473534889173 0
          -6.487709023072078 -38.588545428333504 0 10056.629153644706 -2940.726512139795 0
          4404.330685652831 -1753.4981769090082 0
          <InformationKey name="L2_NORM_RANGE" location="vtkDataArray" length="2">
            <Value index="0">
              28.677565704
            </Value>
            <Value index="1">
              10477.769913
            </Value>
          </InformationKey>
        </DataArray>
        <DataArray type="Float64" Name="Velocity" NumberOfComponents="3" format="ascii" RangeMin="3.900987633551817" RangeMax="11.83424638594399">
          -0.20949286366523234 5.369989226283717 0 -1.124256398998238 6.686993980494776 0
          -0.4356440104694955 6.789271496609636 0 -1.3015490190534509 8.023419961257826 0
          -0.6571343118495003 8.119766174115487 0 -1.4713273836417082 9.2759596527058 0
          -0.8610742598550408 9.36684411223142 0 -1.6433351029342722 10.47868141174365 0
          -1.0436726002871075 10.567591426022766 0 -1.825178774833173 11.681411963142061 0
          -1.2214117343391853 11.771046720595706 0 -0.9327924883953607 5.2658446823256995 0
          -0.0045308196945677 3.9009850023804375 0
          <InformationKey name="L2_NORM_RANGE" location="vtkDataArray" length="2">
            <Value index="0">
              3.9009876336
            </Value>
            <Value index="1">
              11.834246386
            </Value>
          </InformationKey>
        </DataArray>
        <DataArray type="Float64" Name="Acceleration" NumberOfComponents="3" format="ascii" RangeMin="129.78249834481053" RangeMax="1079.446927010527">
          2.40836210308953 -1073.3085762283263 0 -25.144744193708448 -1070.186610954981 0
          18.133731406439665 -1055.7237725318264 0 -95.05256584874951 -918.2447267054886 0
          11.752779996226764 -895.9850109291147 0 -166.27519689165183 -657.6614167357184 0
          -18.700745916450444 -630.4585933033595 0 -229.2689008692305 -343.0694807286054 0
          -72.65050578213163 -314.9286117949523 0 -278.58400461965994 -36.86007684719516 0
          -129.39245950132522 -10.05426779127447 0 32.92565144247055 -1078.9446555359355 0
          -26.42749147047607 -943.0298646478077 0
          <InformationKey name="L2_NORM_RANGE" location="vtkDataArray" length="2">
            <Value index="0">
              129.78249834
            </Value>
            <Value index="1">
              1079.446927
            </Value>
          </InformationKey>
        </DataArray>
        <DataArray type="Float64" Name="Sigma" NumberOfComponents="6" format="ascii" RangeMin="355.9139502915398" RangeMax="44753.49224627349">
          19090.430753165507 -19090.430753162793 0 3615.8365868235596 0 0
          -12530.082853822985 12530.082853820328 0 2209.2068172832182 0 0
          10333.840492011279 -10333.84049201101 0 2474.4938029929467 0 0
          -5987.727036575184 5987.72703657024 0 1328.0642281660316 0 0
          4750.503247981222 -4750.503247980365 0 1442.1093590597618 0 0
          -2265.2136759252617 2265.2136759294544 0 589.8919584767185 0 0
          1758.2424853290652 -1758.2424853399687 0 717.1187440766477 0 0
          -616.4002824444227 616.4002824526362 0 111.87759532532654 0 0
          511.05978752623764 -511.0597875201169 0 141.0980432237586 0 0
          -270.8938760504661 270.89387604123965 0 -75.12748684658057 0 0
          167.26304509545054 -167.26304507918158 0 265.93399088564365 0 0
          -22419.729068285465 22419.729068286484 0 3156.39256656891 0 0
          31501.473805592836 -31501.473805596685 0 4264.899106440335 0 0
          <InformationKey name="L2_NORM_RANGE" location="vtkDataArray" length="2">
            <Value index="0">
              355.91395029
            </Value>
            <Value index="1">
              44753.492246
            </Value>
          </InformationKey>
        </DataArray>
        <DataArray type="Float64" Name="Press" format="ascii" RangeMin="-24857.156065454998" RangeMax="33623.33997124366">
          20598.2547010784 -13912.543636995262 11149.761883991447 -6691.978412546299 5189.060328100513 -2587.511790996022
          1995.7087338788926 -713.2337864280847 573.021830275488 -321.39195697100007 404.5234424022762 -24857.156065454998
          33623.33997124366
        </DataArray>
        <DataArray type="Float64" Name="Dev strain" NumberOfComponents="6" format="ascii" RangeMin="0" RangeMax="0">
          0 0 0 0 0 0
          0 0 0 0 0 0
          0 0 0 0 0 0
          0 0 0 0 0 0
          0 0 0 0 0 0
          0 0 0 0 0 0
          0 0 0 0 0 0
          0 0 0 0 0 0
          0 0 0 0 0 0
          0 0 0 0 0 0
          0 0 0 0 0 0
          0 0 0 0 0 0
          0 0 0 0 0 0
          <InformationKey name="L2_NORM_RANGE" location="vtkDataArray" length="2">
            <Value index="0">
              0
            </Value>
            <Value index="1">
              0
            </Value>
          </InformationKey>
        </DataArray>
        <DataArray type="Float64" Name="J2 Stresses" format="ascii" RangeMin="45657.14812897293" RangeMax="996890193.0216017">
          367713114.8970084 158223125.01401812 108319039.20959175 36293813.71303739 23087200.95994801 5218186.128277209
          3219981.4605118157 383078.45728657115 266159.27087362856 74794.52689911667 45657.14812897293 505134955.0039199
          996890193.0216017
        </DataArray>
      </PointData>
      <CellData>
        <DataArray type="UInt8" Name="vtkGhostType" format="ascii" RangeMin="0" RangeMax="1">
          1 1 0 0 0 0
          0 0 0 0 0
        </DataArray>
        <DataArray type="Float64" Name="Gauss Stress" NumberOfComponents="6" format="ascii" RangeMin="286.9167347432416" RangeMax="19532.598545192574">
          19178.87136577998 397.42103879802414 0 3679.0427532776007 0 0
          -11343.608723438268 -770.6879441426123 0 2993.8119902252292 0 0
          11576.553779809463 313.76151890703625 0 2766.512402366575 0 0
          6247.820167654327 183.40903204150896 0 1748.2224634062463 0 0
          -5879.576521312337 -423.5969223901858 0 2003.9216161473992 0 0
          2946.9297761228036 117.90840453083517 0 916.3733538710427 0 0
          -2530.955779987011 -195.99747030749248 0 1120.0218485675039 0 0
          1169.4662560457255 67.53159577294896 0 323.36479420857756 0 0
          -809.4694388619448 -60.55512350103058 0 472.9627659595642 0 0
          354.52742409266205 82.90811971623515 0 110.63484908760725 0 0
          -279.2794280307494 -28.45651404994592 0 59.28271723416817 0 0
          <InformationKey name="L2_NORM_RANGE" location="vtkDataArray" length="2">
            <Value index="0">
              286.91673474
            </Value>
            <Value index="1">
              19532.598545
            </Value>
          </InformationKey>
        </DataArray>
        <DataArray type="Float64" Name="Gauss Strain" NumberOfComponents="6" format="ascii" RangeMin="0" RangeMax="0">
          0 0 0 0 0 0
          0 0 0 0 0 0
          0 0 0 0 0 0
          0 0 0 0 0 0
          0 0 0 0 0 0
          0 0 0 0 0 0
          0 0 0 0 0 0
          0 0 0 0 0 0
          0 0 0 0 0 0
          0 0 0 0 0 0
          0 0 0 0 0 0
          <InformationKey name="L2_NORM_RANGE" location="vtkDataArray" length="2">
            <Value index="0">
              0
            </Value>
            <Value index="1">
              0
            </Value>
          </InformationKey>
        </DataArray>
      </CellData>
      <Points>
        <DataArray type="Float32" Name="Points" NumberOfComponents="3" format="ascii" RangeMin="0.4000000059604645" RangeMax="1.0012492197622458">
          0.5 0 0 0.6000000238418579 0.05000000074505806 0
          0.6000000238418579 0 0 0.699999988079071 0.05000000074505806 0
          0.699999988079071 0 0 0.800000011920929 0.05000000074505806 0
          0.800000011920929 0 0 0.8999999761581421 0.05000000074505806 0
          0.8999999761581421 0 0 1 0.05000000074505806 0
          1 0 0 0.5 0.05000000074505806 0
          0.4000000059604645 0 0
          <InformationKey name="L2_NORM_RANGE" location="vtkDataArray" length="2">
            <Value index="0">
              0.40000000596
            </Value>
            <Value index="1">
              1.0012492198
            </Value>
          </InformationKey>
        </DataArray>
      </Points>
      <Cells>
        <DataArray type="Int64" Name="connectivity" format="ascii" RangeMin="0" RangeMax="12">
          0 11 12 1 11 0
          2 1 0 4 3 2
          3 1 2 6 5 4
          5 3 4 8 7 6
          7 5 6 10 9 8
          9 7 8
        </DataArray>
        <DataArray type="Int64" Name="offsets" format="ascii" RangeMin="3" RangeMax="33">
          3 6 9 12 15 18
          21 24 27 30 33
        </DataArray>
        <DataArray type="UInt8" Name="types" format="ascii" RangeMin="5" RangeMax="5">
          5 5 5 5 5 5
          5 5 5 5 5
        </DataArray>
      </Cells>
    </Piece>
  </UnstructuredGrid>
</VTKFile>
