<?xml version="1.0"?>
<VTKFile type="UnstructuredGrid" version="0.1" byte_order="LittleEndian" header_type="UInt32" compressor="vtkZLibDataCompressor">
  <UnstructuredGrid>
    <Piece NumberOfPoints="13" NumberOfCells="11">
      <PointData>
        <DataArray type="Float64" Name="Disp" NumberOfComponents="3" format="ascii" RangeMin="0.03551967061200975" RangeMax="0.13260883448108937">
          -0.007062223706355506 -0.050288570156177395 0 -0.00038271069999667003 -0.06697353899094707 0
          -0.008491133316121996 -0.06631305840843571 0 -0.0016854644447391095 -0.0833493544596095 0
          -0.009884504064302637 -0.08267285966094 0 -0.003044829505417754 -0.09977737701245036 0
          -0.011244446908230088 -0.09910042760228638 0 -0.004410606561362444 -0.11615606277576826 0
          -0.012583954197029136 -0.11548334740767315 0 -0.00576273869803311 -0.1324835605844406 0
          -0.013922774952684815 -0.1318129631639069 0 0.0007754261306501555 -0.05090495854004016 0
          -0.005620656378380812 -0.035072143109052184 0
          <InformationKey name="L2_NORM_RANGE" location="vtkDataArray" length="2">
            <Value index="0">
              0.035519670612
            </Value>
            <Value index="1">
              0.13260883448
            </Value>
          </InformationKey>
        </DataArray>
        <DataArray type="Float64" Name="Nodal Stress" NumberOfComponents="6" format="ascii" RangeMin="114.25354994463092" RangeMax="33258.952417100496">
          -20267.50668210194 147.03139387160223 0 1666.6472288067982 0 0
          9984.42073964448 3403.895484259524 0 -5924.977419617173 0 0
          -10944.988548918996 313.9913208564265 0 610.8936552187455 0 0
          4475.09896119448 1965.9453017729375 0 -3253.9982827148656 0 0
          -4892.06761093239 298.4476364987358 0 76.9452287262696 0 0
          1559.9612410021668 917.5045885803827 0 -1465.4040183036827 0 0
          -1631.777053941241 153.02895956080053 0 -74.59185203257285 0 0
          389.23492984661965 286.98796282686646 0 -465.7971816341536 0 0
          -350.047584293969 15.65147230939447 0 -36.90141696757347 0 0
          48.983826026831295 63.28476697212695 0 -120.89986313442739 0 0
          103.02876187166893 -5.4819623766236205 0 49.0805051995443 0 0
          18922.452560235433 5069.567947890821 0 -9315.845994956988 0 0
          -33119.69825190161 -398.5959258052372 0 3014.0711461197743 0 0
          <InformationKey name="L2_NORM_RANGE" location="vtkDataArray" length="2">
            <Value index="0">
              114.25354994
            </Value>
            <Value index="1">
              33258.952417
            </Value>
          </InformationKey>
        </DataArray>
        <DataArray type="Float64" Name="Nodal Strain" NumberOfComponents="6" format="ascii" RangeMin="0" RangeMax="0">
          0 0 0 0 0 0
          0 0 0 0 0 0
          0 0 0 0 0 0
          0 0 0 0 0 0
          0 0 0 0 0 0
          0 0 0 0 0 0
          0 0 0 0 0 0
          0 0 0 0 0 0
          0 0 0 0 0 0
          0 0 0 0 0 0
          0 0 0 0 0 0
          0 0 0 0 0 0
          0 0 0 0 0 0
          <InformationKey name="L2_NORM_RANGE" location="vtkDataArray" length="2">
            <Value index="0">
              0
            </Value>
            <Value index="1">
              0
            </Value>
          </InformationKey>
        </DataArray>
        <DataArray type="Float64" Name="Sld_traction" NumberOfComponents="3" format="ascii" RangeMin="27.95414382033833" RangeMax="12715.015004117311">
          -2219.397390266839 2244.4569569128253 0 -7073.007867224562 4392.60617068586 0
          -1007.7837791678716 1075.8753070636874 0 -4045.7933259596693 2465.949553309221 0
          -335.7375981924361 407.682688863395 0 -1892.4295503891888 1129.9115669156379 0
          -52.90861922689592 131.96048399244813 0 -633.0536055051505 374.8478817530722 0
          -26.242908448121657 67.08793472761482 0 -117.91649703382531 66.23455177118758 0
          20.294791220630312 19.22382912010993 0 -10738.659863547784 6808.288396502915 0
          -4030.711834591865 4025.0085189740557 0
          <InformationKey name="L2_NORM_RANGE" location="vtkDataArray" length="2">
            <Value index="0">
              27.95414382
            </Value>
            <Value index="1">
              12715.015004
            </Value>
          </InformationKey>
        </DataArray>
        <DataArray type="Float64" Name="Velocity" NumberOfComponents="3" format="ascii" RangeMin="4.481733187074441" RangeMax="8.750130340397693">
          0.9561349642363641 5.651854578701208 0 0.632753448158457 6.692751278286629 0
          1.0441537348976198 6.625907880004206 0 0.8064668207152892 7.375694277141619 0
          1.0989704268048097 7.32816218723945 0 0.9252542023477774 7.861791156841967 0
          1.1426489021988155 7.826723134152118 0 0.9991724940922118 8.258262045731954 0
          1.2035373689965674 8.225257895321775 0 1.0542853129465457 8.686383796083007 0
          1.2748472680397995 8.652122246443682 0 0.40627670665608867 5.739162530954783 0
          0.8242146901986027 4.405292556072212 0
          <InformationKey name="L2_NORM_RANGE" location="vtkDataArray" length="2">
            <Value index="0">
              4.4817331871
            </Value>
            <Value index="1">
              8.7501303404
            </Value>
          </InformationKey>
        </DataArray>
        <DataArray type="Float64" Name="Acceleration" NumberOfComponents="3" format="ascii" RangeMin="38.92008387992997" RangeMax="1360.896900470446">
          108.38598428911973 1356.5739390537274 0 112.01592703739925 1314.1682064532506 0
          50.872227070005465 1327.7462953349313 0 114.95322242548127 1104.6741484481026 0
          -19.943340105321113 1127.3735706691368 0 88.3543549671067 775.4868449293135 0
          -91.68937772812933 803.4946607875027 0 37.38251001426761 393.0312818076927 0
          -150.1994209465047 421.5380145655945 0 -25.679640751695842 29.246007934154477 0
          -203.58004528110177 57.053713449975476 0 79.38218928443936 1354.0586016373927 0
          142.52346542811574 1200.3324412373622 0
          <InformationKey name="L2_NORM_RANGE" location="vtkDataArray" length="2">
            <Value index="0">
              38.92008388
            </Value>
            <Value index="1">
              1360.8969005
            </Value>
          </InformationKey>
        </DataArray>
        <DataArray type="Float64" Name="Sigma" NumberOfComponents="6" format="ascii" RangeMin="163.43935258889454" RangeMax="61081.52152586716">
          -24734.36647819801 24734.36647819499 0 10690.88261894467 0 0
          13701.210356318328 -13701.21035631553 0 -12688.659263736703 0 0
          -12796.81945996934 12796.819459971644 0 5474.439518812228 0 0
          5976.480543262405 -5976.480543267017 0 -6506.7222722130655 0 0
          -5421.935037162031 5421.935037167804 0 2199.7125415727423 0 0
          1923.4315123000672 -1923.4315123010126 0 -2660.3072530484324 0 0
          -1617.7459928765406 1617.7459928670598 0 586.08282557596 0 0
          417.1777219410303 -417.1777219335694 0 -687.7617613017838 0 0
          -261.3368566810819 261.3368566825917 0 84.4586058451963 0 0
          -54.536255218260706 54.5362552062635 0 -144.09724393451464 0 0
          266.44728020314886 -266.44728018753517 0 127.98032944374773 0 0
          26304.836863822344 -26304.83686382134 0 -20754.501099018977 0 0
          -41415.57882600315 41415.57882600084 0 17333.549345976524 0 0
          <InformationKey name="L2_NORM_RANGE" location="vtkDataArray" length="2">
            <Value index="0">
              163.43935259
            </Value>
            <Value index="1">
              61081.521526
            </Value>
          </InformationKey>
        </DataArray>
        <DataArray type="Float64" Name="Press" format="ascii" RangeMin="-48088.36169914838" RangeMax="36572.44997885525">
          -28580.331245829166 20136.076897682593 -14718.502161415354 9464.61766731878 -6130.717356699995 3408.657756504658
          -1809.2096919863955 828.1360092557067 -359.5839217042267 17.944200188451145 268.36666024774814 36572.44997885525
          -48088.36169914838
        </DataArray>
        <DataArray type="Float64" Name="Dev strain" NumberOfComponents="6" format="ascii" RangeMin="0" RangeMax="0">
          0 0 0 0 0 0
          0 0 0 0 0 0
          0 0 0 0 0 0
          0 0 0 0 0 0
          0 0 0 0 0 0
          0 0 0 0 0 0
          0 0 0 0 0 0
          0 0 0 0 0 0
          0 0 0 0 0 0
          0 0 0 0 0 0
          0 0 0 0 0 0
          0 0 0 0 0 0
          0 0 0 0 0 0
          <InformationKey name="L2_NORM_RANGE" location="vtkDataArray" length="2">
            <Value index="0">
              0
            </Value>
            <Value index="1">
              0
            </Value>
          </InformationKey>
        </DataArray>
        <DataArray type="Float64" Name="J2 Stresses" format="ascii" RangeMin="8165.207059957739" RangeMax="1790363152.725135">
          640362627.870744 227973683.7058491 171250960.30236274 46302678.36595005 30607063.36362464 5468897.452666267
          2702975.3670615423 292291.311758028 70080.26668567146 8165.207059957739 75088.89430462767 799631771.3995754
          1790363152.725135
        </DataArray>
      </PointData>
      <CellData>
        <DataArray type="UInt8" Name="vtkGhostType" format="ascii" RangeMin="0" RangeMax="1">
          1 1 0 0 0 0
          0 0 0 0 0
        </DataArray>
        <DataArray type="Float64" Name="Gauss Stress" NumberOfComponents="6" format="ascii" RangeMin="47.486016034941734" RangeMax="26757.210093818572">
          -26647.11713550037 -83.7115085826008 0 2423.310288634073 0 0
          14466.625457550446 4285.504962922264 0 -7584.092581270337 0 0
          -15664.244030470316 222.40635742972518 0 1158.8876246733998 0 0
          -7875.6252682218455 285.8907010252865 0 389.143262723969 0 0
          7254.3546143991425 2667.1069879917045 0 -4573.647339045845 0 0
          -3215.8396033067456 194.99340851737287 0 41.82937136675673 0 0
          3073.5116951746304 1421.5270162410727 0 -2322.438994562918 0 0
          -934.1875773505024 40.41584106038877 0 -5.740109960209196 0 0
          1050.1491050461752 568.2402774688156 0 -920.662062924752 0 0
          -40.89963098807365 -7.94907652223581 0 22.780563784809807 0 0
          195.93363259387286 128.39722589840562 0 -249.13346646370076 0 0
          <InformationKey name="L2_NORM_RANGE" location="vtkDataArray" length="2">
            <Value index="0">
              47.486016035
            </Value>
            <Value index="1">
              26757.210094
            </Value>
          </InformationKey>
        </DataArray>
        <DataArray type="Float64" Name="Gauss Strain" NumberOfComponents="6" format="ascii" RangeMin="0" RangeMax="0">
          0 0 0 0 0 0
          0 0 0 0 0 0
          0 0 0 0 0 0
          0 0 0 0 0 0
          0 0 0 0 0 0
          0 0 0 0 0 0
          0 0 0 0 0 0
          0 0 0 0 0 0
          0 0 0 0 0 0
          0 0 0 0 0 0
          0 0 0 0 0 0
          <InformationKey name="L2_NORM_RANGE" location="vtkDataArray" length="2">
            <Value index="0">
              0
            </Value>
            <Value index="1">
              0
            </Value>
          </InformationKey>
        </DataArray>
      </CellData>
      <Points>
        <DataArray type="Float32" Name="Points" NumberOfComponents="3" format="ascii" RangeMin="0.4000000059604645" RangeMax="1.0012492197622458">
          0.5 0 0 0.6000000238418579 0.05000000074505806 0
          0.6000000238418579 0 0 0.699999988079071 0.05000000074505806 0
          0.699999988079071 0 0 0.800000011920929 0.05000000074505806 0
          0.800000011920929 0 0 0.8999999761581421 0.05000000074505806 0
          0.8999999761581421 0 0 1 0.05000000074505806 0
          1 0 0 0.5 0.05000000074505806 0
          0.4000000059604645 0 0
          <InformationKey name="L2_NORM_RANGE" location="vtkDataArray" length="2">
            <Value index="0">
              0.40000000596
            </Value>
            <Value index="1">
              1.0012492198
            </Value>
          </InformationKey>
        </DataArray>
      </Points>
      <Cells>
        <DataArray type="Int64" Name="connectivity" format="ascii" RangeMin="0" RangeMax="12">
          0 11 12 1 11 0
          2 1 0 4 3 2
          3 1 2 6 5 4
          5 3 4 8 7 6
          7 5 6 10 9 8
          9 7 8
        </DataArray>
        <DataArray type="Int64" Name="offsets" format="ascii" RangeMin="3" RangeMax="33">
          3 6 9 12 15 18
          21 24 27 30 33
        </DataArray>
        <DataArray type="UInt8" Name="types" format="ascii" RangeMin="5" RangeMax="5">
          5 5 5 5 5 5
          5 5 5 5 5
        </DataArray>
      </Cells>
    </Piece>
  </UnstructuredGrid>
</VTKFile>
