<?xml version="1.0"?>
<VTKFile type="UnstructuredGrid" version="0.1" byte_order="LittleEndian" header_type="UInt32" compressor="vtkZLibDataCompressor">
  <UnstructuredGrid>
    <Piece NumberOfPoints="13" NumberOfCells="11">
      <PointData>
        <DataArray type="Float64" Name="Disp" NumberOfComponents="3" format="ascii" RangeMin="0.0005651664328968504" RangeMax="0.003004310515892773">
          -0.000022971689505629988 0.0017729003684005297 0 0.00019434905245924687 0.0013406203216128716 0
          -0.00012045964440850343 0.0013441497673131588 0 0.0002818251957505254 0.0005238237133014714 0
          -0.00020162234411226737 0.0005279787185370491 0 0.00033396189747403576 -0.000571654623577358 0
          -0.0002534158640420412 -0.0005671171061803945 0 0.0003450483433524961 -0.0017960139062289018 0
          -0.0002617721308166467 -0.001792187016615486 0 0.00032327453820636974 -0.0029868671294269785 0
          -0.0002626926873009755 -0.002982782124285177 0 0.00008643485438099757 0.0017694767898940081 0
          0.00007161669710383028 0.001780054419677736 0
          <InformationKey name="L2_NORM_RANGE" location="vtkDataArray" length="2">
            <Value index="0">
              0.0005651664329
            </Value>
            <Value index="1">
              0.0030043105159
            </Value>
          </InformationKey>
        </DataArray>
        <DataArray type="Float64" Name="Nodal Stress" NumberOfComponents="6" format="ascii" RangeMin="478.2816071236638" RangeMax="6707.839898499031">
          -4235.191825671798 -281.73864896962647 0 459.3581748167183 0 0
          6238.029741006433 343.8734231619663 0 -760.4991717817584 0 0
          -4013.8304523681068 -118.87479848432858 0 121.64888109052154 0 0
          4847.062450584402 424.464696632172 0 -1033.8861062557785 0 0
          -2969.551616687142 47.680746153782444 0 -162.24799323050902 0 0
          3034.908245313049 422.5502729706127 0 -1006.0723715482917 0 0
          -1711.441348702064 130.50047360682467 0 -337.0174328248077 0 0
          1429.8283115980698 277.16732936956487 0 -646.9116068957735 0 0
          -804.4284643375917 68.68510769013473 0 -217.24502422551492 0 0
          606.6947820239986 124.61850214265921 0 -398.7516932976033 0 0
          -465.0533514954274 -44.50221287582511 0 -102.46086582115072 0 0
          6700.767616370538 178.7085539079242 0 -250.78418621503454 0 0
          -3400.042075563651 -403.0531784032073 0 756.3979337391459 0 0
          <InformationKey name="L2_NORM_RANGE" location="vtkDataArray" length="2">
            <Value index="0">
              478.28160712
            </Value>
            <Value index="1">
              6707.8398985
            </Value>
          </InformationKey>
        </DataArray>
        <DataArray type="Float64" Name="Nodal Strain" NumberOfComponents="6" format="ascii" RangeMin="0" RangeMax="0">
          0 0 0 0 0 0
          0 0 0 0 0 0
          0 0 0 0 0 0
          0 0 0 0 0 0
          0 0 0 0 0 0
          0 0 0 0 0 0
          0 0 0 0 0 0
          0 0 0 0 0 0
          0 0 0 0 0 0
          0 0 0 0 0 0
          0 0 0 0 0 0
          0 0 0 0 0 0
          0 0 0 0 0 0
          <InformationKey name="L2_NORM_RANGE" location="vtkDataArray" length="2">
            <Value index="0">
              0
            </Value>
            <Value index="1">
              0
            </Value>
          </InformationKey>
        </DataArray>
        <DataArray type="Float64" Name="Sld_traction" NumberOfComponents="3" format="ascii" RangeMin="43.7727250379902" RangeMax="2077.1929679442196">
          -1402.6433017137217 824.0845658816233 0 -1689.4611721308602 869.2122897832852 0
          -1088.5788485261298 620.3230929375021 0 -1891.7957916355092 857.8107651615782 0
          -630.0687005824145 338.16873730555375 0 -1605.9632132327174 708.9155054951905 0
          -139.05275390774634 108.79141487887308 0 -979.5245749181419 434.018995744441 0
          -33.31985553269386 61.468875234313174 0 -160.6419551746204 52.01449910212939 0
          29.451049134228672 32.383439628068274 0 -1060.9224777399772 700.264989199394 0
          -1453.3225135294053 880.0561475475012 0
          <InformationKey name="L2_NORM_RANGE" location="vtkDataArray" length="2">
            <Value index="0">
              43.772725038
            </Value>
            <Value index="1">
              2077.1929679
            </Value>
          </InformationKey>
        </DataArray>
        <DataArray type="Float64" Name="Velocity" NumberOfComponents="3" format="ascii" RangeMin="3.2800208546257625" RangeMax="17.93774533629031">
          -0.5066401480162976 -5.129858471231933 0 0.5877048097906442 -7.360721710895866 0
          -0.5950758910918448 -7.353737660813275 0 0.6184898636247314 -9.855469278853697 0
          -0.6719937512469877 -9.84258679366067 0 0.6148385535220907 -12.514249930084363 0
          -0.7335349271511977 -12.497323202424077 0 0.5828616667671557 -15.236489962161942 0
          -0.7718515188042753 -15.21865764986527 0 0.5358003302596135 -17.92974137447884 0
          -0.8046521420865881 -17.91164333730746 0 0.5218606507933472 -5.131016879244329 0
          -0.41045369743432814 -3.2542379398320596 0
          <InformationKey name="L2_NORM_RANGE" location="vtkDataArray" length="2">
            <Value index="0">
              3.2800208546
            </Value>
            <Value index="1">
              17.937745336
            </Value>
          </InformationKey>
        </DataArray>
        <DataArray type="Float64" Name="Acceleration" NumberOfComponents="3" format="ascii" RangeMin="215.49008826072614" RangeMax="834.5244526882087">
          -59.72934912653068 -496.93033304222445 0 -160.81358937766754 -427.81544812339416 0
          -86.5306452281834 -397.4849772669768 0 -253.48739322756046 -232.0907308844653 0
          -133.42584408868402 -194.97840189740964 0 -347.95692602636836 41.19586878806149 0
          -199.2089380918968 82.16919813965796 0 -436.5346738629373 352.2418642695193 0
          -281.66434740894726 393.7207998379381 0 -514.5422590194621 657.0215565852486 0
          -365.06817887983885 697.4269775111679 0 -79.30071731328803 -518.5855324253334 0
          -49.282164233971116 -485.5960590313698 0
          <InformationKey name="L2_NORM_RANGE" location="vtkDataArray" length="2">
            <Value index="0">
              215.49008826
            </Value>
            <Value index="1">
              834.52445269
            </Value>
          </InformationKey>
        </DataArray>
        <DataArray type="Float64" Name="Sigma" NumberOfComponents="6" format="ascii" RangeMin="252.87255014358922" RangeMax="12116.641039516455">
          -7313.970969920557 7313.970969921029 0 1485.6698254985233 0 0
          8083.004293366227 -8083.004293367086 0 -1868.429140094066 0 0
          -6660.198355408776 6660.198355408708 0 1195.6612660933583 0 0
          6268.306693933692 -6268.3066939333185 0 -2109.195355256858 0 0
          -4812.914664810145 4812.914664810756 0 759.1740609618574 0 0
          3776.7999514911517 -3776.79995149172 0 -1789.9231792140633 0 0
          -2663.8718420060018 2663.8718420050627 0 102.75111855615543 0 0
          1693.8615319960115 -1693.8615319964388 0 -946.7990658729713 0 0
          -1198.7550135556028 1198.755013556503 0 54.006978363224896 0 0
          700.9463641467969 -700.9463641459448 0 -605.5440429422357 0 0
          -171.6468139141137 171.64681391540893 0 70.84680064720396 0 0
          8528.057494668872 -8528.05749466912 0 -1165.1012040738492 0 0
          -6418.97898022101 6418.978980220769 0 1473.5485127119211 0 0
          <InformationKey name="L2_NORM_RANGE" location="vtkDataArray" length="2">
            <Value index="0">
              252.87255014
            </Value>
            <Value index="1">
              12116.64104
            </Value>
          </InformationKey>
        </DataArray>
        <DataArray type="Float64" Name="Press" format="ascii" RangeMin="-8165.43982532648" RangeMax="9253.909445162388">
          -8165.43982532648 8998.467936509689 -7304.006929522388 7164.707690119099 -5150.645186756136 4538.265772353418
          -2738.262111101141 2122.98865437696 -1230.0699924412736 902.0485353195406 -345.54483581147167 9253.909445162388
          -7332.022757781878
        </DataArray>
        <DataArray type="Float64" Name="Dev strain" NumberOfComponents="6" format="ascii" RangeMin="0" RangeMax="0">
          0 0 0 0 0 0
          0 0 0 0 0 0
          0 0 0 0 0 0
          0 0 0 0 0 0
          0 0 0 0 0 0
          0 0 0 0 0 0
          0 0 0 0 0 0
          0 0 0 0 0 0
          0 0 0 0 0 0
          0 0 0 0 0 0
          0 0 0 0 0 0
          0 0 0 0 0 0
          0 0 0 0 0 0
          <InformationKey name="L2_NORM_RANGE" location="vtkDataArray" length="2">
            <Value index="0">
              0
            </Value>
            <Value index="1">
              0
            </Value>
          </InformationKey>
        </DataArray>
        <DataArray type="Float64" Name="J2 Stresses" format="ascii" RangeMin="30717.44601757486" RangeMax="73067129.83631359">
          54045975.056443304 66207715.26947197 44715643.59919831 40403845.07087088 23308233.884456825 15065174.120457657
          7098852.638721081 3093274.0073610814 1437742.7709537535 582996.7023957237 30717.44601757486 73067129.83631359
          41746127.453346476
        </DataArray>
      </PointData>
      <CellData>
        <DataArray type="UInt8" Name="vtkGhostType" format="ascii" RangeMin="0" RangeMax="1">
          1 1 0 0 0 0
          0 0 0 0 0
        </DataArray>
        <DataArray type="Float64" Name="Gauss Stress" NumberOfComponents="6" format="ascii" RangeMin="475.48658896103166" RangeMax="6487.2549071838175">
          -3816.1485311395563 -346.22022749109703 0 598.0390447121986 0 0
          6461.342791486714 263.28224607680653 0 -515.9535062231307 0 0
          -4120.714616767429 -193.2712621255093 0 270.9673171659388 0 0
          -3498.250250814886 -28.379366624426467 0 -51.45334273388062 0 0
          5516.760442999183 389.3520217382347 0 -927.3210764191886 0 0
          -2350.2093602762843 116.44834327341322 0 -309.33266656535 0 0
          3928.1734187770267 440.04543170069974 0 -1046.6481578363546 0 0
          -1338.0362575770162 107.80729146655747 0 -263.3469896511969 0 0
          2243.2606523701324 372.0675580487135 0 -877.990375510293 0 0
          -447.67391875204135 -1.3702765357459015 0 -160.23008797726897 0 0
          997.0066932808111 199.63810488978208 0 -499.44537681732737 0 0
          <InformationKey name="L2_NORM_RANGE" location="vtkDataArray" length="2">
            <Value index="0">
              475.48658896
            </Value>
            <Value index="1">
              6487.2549072
            </Value>
          </InformationKey>
        </DataArray>
        <DataArray type="Float64" Name="Gauss Strain" NumberOfComponents="6" format="ascii" RangeMin="0" RangeMax="0">
          0 0 0 0 0 0
          0 0 0 0 0 0
          0 0 0 0 0 0
          0 0 0 0 0 0
          0 0 0 0 0 0
          0 0 0 0 0 0
          0 0 0 0 0 0
          0 0 0 0 0 0
          0 0 0 0 0 0
          0 0 0 0 0 0
          0 0 0 0 0 0
          <InformationKey name="L2_NORM_RANGE" location="vtkDataArray" length="2">
            <Value index="0">
              0
            </Value>
            <Value index="1">
              0
            </Value>
          </InformationKey>
        </DataArray>
      </CellData>
      <Points>
        <DataArray type="Float32" Name="Points" NumberOfComponents="3" format="ascii" RangeMin="0.4000000059604645" RangeMax="1.0012492197622458">
          0.5 0 0 0.6000000238418579 0.05000000074505806 0
          0.6000000238418579 0 0 0.699999988079071 0.05000000074505806 0
          0.699999988079071 0 0 0.800000011920929 0.05000000074505806 0
          0.800000011920929 0 0 0.8999999761581421 0.05000000074505806 0
          0.8999999761581421 0 0 1 0.05000000074505806 0
          1 0 0 0.5 0.05000000074505806 0
          0.4000000059604645 0 0
          <InformationKey name="L2_NORM_RANGE" location="vtkDataArray" length="2">
            <Value index="0">
              0.40000000596
            </Value>
            <Value index="1">
              1.0012492198
            </Value>
          </InformationKey>
        </DataArray>
      </Points>
      <Cells>
        <DataArray type="Int64" Name="connectivity" format="ascii" RangeMin="0" RangeMax="12">
          0 11 12 1 11 0
          2 1 0 4 3 2
          3 1 2 6 5 4
          5 3 4 8 7 6
          7 5 6 10 9 8
          9 7 8
        </DataArray>
        <DataArray type="Int64" Name="offsets" format="ascii" RangeMin="3" RangeMax="33">
          3 6 9 12 15 18
          21 24 27 30 33
        </DataArray>
        <DataArray type="UInt8" Name="types" format="ascii" RangeMin="5" RangeMax="5">
          5 5 5 5 5 5
          5 5 5 5 5
        </DataArray>
      </Cells>
    </Piece>
  </UnstructuredGrid>
</VTKFile>
