<?xml version="1.0"?>
<VTKFile type="UnstructuredGrid" version="0.1" byte_order="LittleEndian" header_type="UInt32" compressor="vtkZLibDataCompressor">
  <UnstructuredGrid>
    <Piece NumberOfPoints="13" NumberOfCells="11">
      <PointData>
        <DataArray type="Float64" Name="Disp" NumberOfComponents="3" format="ascii" RangeMin="0.03971023921684063" RangeMax="0.17012868174320048">
          -0.009316956748598976 -0.05791064361546699 0 -0.0011706444495940206 -0.07978039517495678 0
          -0.011875220901620367 -0.0786231675005626 0 -0.00338777895427508 -0.10180112435705353 0
          -0.014535053924736021 -0.10054320093455174 0 -0.0058665275296072746 -0.1244070040601208 0
          -0.017211587317378485 -0.1231036084977938 0 -0.008484212328214388 -0.14716867470216358 0
          -0.019823551962455187 -0.14586732335234623 0 -0.01112026139340807 -0.16976486131771049 0
          -0.022397734379023995 -0.1684738617080154 0 0.0006315892609610732 -0.05890768707037894 0
          -0.006955432152278183 -0.03909635612475621 0
          <InformationKey name="L2_NORM_RANGE" location="vtkDataArray" length="2">
            <Value index="0">
              0.039710239217
            </Value>
            <Value index="1">
              0.17012868174
            </Value>
          </InformationKey>
        </DataArray>
        <DataArray type="Float64" Name="Nodal Stress" NumberOfComponents="6" format="ascii" RangeMin="678.9034685855644" RangeMax="55617.35058125297">
          -40596.673515828974 -1813.959809028916 0 6867.861963335393 0 0
          25498.930247413988 7326.548981059785 0 -12611.85459156489 0 0
          -27597.6815301597 -773.0377409522407 0 4448.861632243625 0 0
          14677.02834988521 5584.261908582124 0 -8811.061227715874 0 0
          -16366.625582922687 100.63160749582177 0 2243.421128451179 0 0
          6654.797501761694 3721.8102954032256 0 -5332.758603807822 0 0
          -7950.406092889576 498.2166921305655 0 644.7000658826087 0 0
          2053.3788264321843 1870.7737025003007 0 -2499.182028034808 0 0
          -3255.786912732123 238.38915500693625 0 50.631722236579165 0 0
          232.1730453452941 872.3533234121904 0 -1223.1195568755309 0 0
          554.0533690521481 67.17662976912388 0 386.55152866382076 0 0
          38668.93813855373 8618.131755653694 0 -16195.170761741703 0 0
          -54838.14239930287 -2980.3308998702732 0 8785.525118002839 0 0
          <InformationKey name="L2_NORM_RANGE" location="vtkDataArray" length="2">
            <Value index="0">
              678.90346859
            </Value>
            <Value index="1">
              55617.350581
            </Value>
          </InformationKey>
        </DataArray>
        <DataArray type="Float64" Name="Nodal Strain" NumberOfComponents="6" format="ascii" RangeMin="0" RangeMax="0">
          0 0 0 0 0 0
          0 0 0 0 0 0
          0 0 0 0 0 0
          0 0 0 0 0 0
          0 0 0 0 0 0
          0 0 0 0 0 0
          0 0 0 0 0 0
          0 0 0 0 0 0
          0 0 0 0 0 0
          0 0 0 0 0 0
          0 0 0 0 0 0
          0 0 0 0 0 0
          0 0 0 0 0 0
          <InformationKey name="L2_NORM_RANGE" location="vtkDataArray" length="2">
            <Value index="0">
              0
            </Value>
            <Value index="1">
              0
            </Value>
          </InformationKey>
        </DataArray>
        <DataArray type="Float64" Name="Sld_traction" NumberOfComponents="3" format="ascii" RangeMin="134.84871352764796" RangeMax="18527.760646368384">
          -5209.642703365887 5903.763780473034 0 -12002.881624050917 8952.444051549464 0
          -3177.528570409048 3668.391138130772 0 -9038.585564019724 6522.182001647208 0
          -1644.4397217682804 1813.5394789554202 0 -5969.073203579879 4157.640227503604 0
          -439.8339509257603 626.2728517686735 0 -3091.962651233826 2126.0696112525766 0
          -250.1913789880037 310.7698261932726 0 -742.9404573966917 368.99162843765544 0
          130.86410596275942 32.53861261070207 0 -14763.118600709573 11195.009770004666 0
          -7634.107875146378 8398.171953762392 0
          <InformationKey name="L2_NORM_RANGE" location="vtkDataArray" length="2">
            <Value index="0">
              134.84871353
            </Value>
            <Value index="1">
              18527.760646
            </Value>
          </InformationKey>
        </DataArray>
        <DataArray type="Float64" Name="Velocity" NumberOfComponents="3" format="ascii" RangeMin="0.4382128017920346" RangeMax="9.519608887653845">
          -0.2620543639072732 1.107692269651647 0 0.12476069858363104 -0.4200776448983561 0
          -0.707931268376516 -0.2393650355614696 0 -0.1985726656454454 -2.363463805461926 0
          -1.246520749959867 -2.1255166630437756 0 -0.6580917112076343 -4.629985653005498 0
          -1.824044673681935 -4.360433103750232 0 -1.2030841159744101 -7.016042023629325 0
          -2.3798704064030156 -6.744166189760989 0 -1.7637545926010012 -9.330193521697538 0
          -2.9109344309342653 -9.063631397662832 0 0.2705222170997803 1.001560748597612 0
          0.054050110022068054 1.7818616986312854 0
          <InformationKey name="L2_NORM_RANGE" location="vtkDataArray" length="2">
            <Value index="0">
              0.43821280179
            </Value>
            <Value index="1">
              9.5196088877
            </Value>
          </InformationKey>
        </DataArray>
        <DataArray type="Float64" Name="Acceleration" NumberOfComponents="3" format="ascii" RangeMin="124.30834224848277" RangeMax="1679.2197414610296">
          108.37273026866296 380.09828804287827 0 -6.830765910551008 695.0501046416612 0
          136.27646926146008 682.909151517204 0 4.108338581120279 966.5669377900922 0
          133.8697584099864 967.5943244774389 0 -6.851290864310158 1207.9783293785877 0
          110.13939258061328 1218.3691843330307 0 -33.59663808422829 1434.4080957118276 0
          80.80887584364245 1446.3762449906353 0 -58.93627725575516 1667.4796734233096 0
          57.827620402171306 1678.2237355105754 0 -33.535061029154804 402.3086293076267 0
          57.13021542261413 110.40245666800911 0
          <InformationKey name="L2_NORM_RANGE" location="vtkDataArray" length="2">
            <Value index="0">
              124.30834225
            </Value>
            <Value index="1">
              1679.2197415
            </Value>
          </InformationKey>
        </DataArray>
        <DataArray type="Float64" Name="Sigma" NumberOfComponents="6" format="ascii" RangeMin="2328.412766753816" RangeMax="105307.95133765662">
          -50470.19258807683 50470.19258807236 0 28375.107945077383 0 0
          34034.60872153475 -34034.608721531884 0 -30945.244871826788 0 0
          -33102.538756863236 33102.53875686875 0 19554.221758419662 0 0
          19297.62074676804 -19297.6207467731 0 -20777.07462908285 0 0
          -18758.95412468767 18758.954124686494 0 11299.060803873579 0 0
          8328.774499125733 -8328.774499125993 0 -11728.46658945727 0 0
          -8470.126377428296 8470.126377428884 0 4637.558168643977 0 0
          2757.647929807977 -2757.647929826848 0 -4692.731775871301 0 0
          -3295.6106430741097 3295.6106431049625 0 1460.5841605419698 0 0
          -246.1979489379576 246.19794891105633 0 -2302.23351384539 0 0
          2257.7810352940505 -2257.7810352860406 0 1193.9277339793516 0 0
          52304.162576156115 -52304.162576155475 0 -40491.86375178345 0 0
          -70014.6076610658 70014.60766106831 0 35856.29711874828 0 0
          <InformationKey name="L2_NORM_RANGE" location="vtkDataArray" length="2">
            <Value index="0">
              2328.4127668
            </Value>
            <Value index="1">
              105307.95134
            </Value>
          </InformationKey>
        </DataArray>
        <DataArray type="Float64" Name="Press" format="ascii" RangeMin="-85173.07250660991" RangeMax="72185.22054189445">
          -62224.07048441764 50038.1907847124 -41131.22244005834 30757.140112038138 -23115.626068594527 15300.272320056398
          -9981.959902023727 5854.749976983981 -4028.8134818895574 1138.9668685368558 2066.15330549263 72185.22054189445
          -85173.07250660991
        </DataArray>
        <DataArray type="Float64" Name="Dev strain" NumberOfComponents="6" format="ascii" RangeMin="0" RangeMax="0">
          0 0 0 0 0 0
          0 0 0 0 0 0
          0 0 0 0 0 0
          0 0 0 0 0 0
          0 0 0 0 0 0
          0 0 0 0 0 0
          0 0 0 0 0 0
          0 0 0 0 0 0
          0 0 0 0 0 0
          0 0 0 0 0 0
          0 0 0 0 0 0
          0 0 0 0 0 0
          0 0 0 0 0 0
          <InformationKey name="L2_NORM_RANGE" location="vtkDataArray" length="2">
            <Value index="0">
              0
            </Value>
            <Value index="1">
              0
            </Value>
          </InformationKey>
        </DataArray>
        <DataArray type="Float64" Name="J2 Stresses" format="ascii" RangeMin="1385683.218122857" RangeMax="5223463796.70014">
          2748527027.601039 1397756635.8722024 1191369969.294178 480319874.02180934 383815553.6145225 103757716.79229313
          77119777.29150069 13110054.984894313 11394376.033351548 1385683.218122857 5453941.061806656 3145623180.316185
          5223463796.70014
        </DataArray>
      </PointData>
      <CellData>
        <DataArray type="UInt8" Name="vtkGhostType" format="ascii" RangeMin="0" RangeMax="1">
          1 1 0 0 0 0
          0 0 0 0 0
        </DataArray>
        <DataArray type="Float64" Name="Gauss Stress" NumberOfComponents="6" format="ascii" RangeMin="728.658960095879" RangeMax="48504.78909423406">
          -47797.52004070655 -2343.7615920493054 0 7913.180437347408 0 0
          31955.973183934424 8043.587377524733 0 -14354.000226177624 0 0
          -34285.07492105631 -1259.659838784789 0 5661.361610556755 0 0
          -22017.86017713254 -308.61208727752955 0 3358.735977736797 0 0
          19964.599722710584 6478.139248418657 0 -10722.69924749666 0 0
          -12232.539884517362 367.6641174758422 0 1402.717461020095 0 0
          10603.07582823537 4691.448414095805 0 -7068.826804888849 0 0
          -5721.370832541244 284.02189459256437 0 468.4701844382157 0 0
          4596.452815507356 2852.2554478308975 0 -3927.880065561532 0 0
          -702.5736215260285 153.44474962330213 0 117.42612689197739 0 0
          726.9142338090628 1249.688008606816 0 -1844.7937097249073 0 0
          <InformationKey name="L2_NORM_RANGE" location="vtkDataArray" length="2">
            <Value index="0">
              728.6589601
            </Value>
            <Value index="1">
              48504.789094
            </Value>
          </InformationKey>
        </DataArray>
        <DataArray type="Float64" Name="Gauss Strain" NumberOfComponents="6" format="ascii" RangeMin="0" RangeMax="0">
          0 0 0 0 0 0
          0 0 0 0 0 0
          0 0 0 0 0 0
          0 0 0 0 0 0
          0 0 0 0 0 0
          0 0 0 0 0 0
          0 0 0 0 0 0
          0 0 0 0 0 0
          0 0 0 0 0 0
          0 0 0 0 0 0
          0 0 0 0 0 0
          <InformationKey name="L2_NORM_RANGE" location="vtkDataArray" length="2">
            <Value index="0">
              0
            </Value>
            <Value index="1">
              0
            </Value>
          </InformationKey>
        </DataArray>
      </CellData>
      <Points>
        <DataArray type="Float32" Name="Points" NumberOfComponents="3" format="ascii" RangeMin="0.4000000059604645" RangeMax="1.0012492197622458">
          0.5 0 0 0.6000000238418579 0.05000000074505806 0
          0.6000000238418579 0 0 0.699999988079071 0.05000000074505806 0
          0.699999988079071 0 0 0.800000011920929 0.05000000074505806 0
          0.800000011920929 0 0 0.8999999761581421 0.05000000074505806 0
          0.8999999761581421 0 0 1 0.05000000074505806 0
          1 0 0 0.5 0.05000000074505806 0
          0.4000000059604645 0 0
          <InformationKey name="L2_NORM_RANGE" location="vtkDataArray" length="2">
            <Value index="0">
              0.40000000596
            </Value>
            <Value index="1">
              1.0012492198
            </Value>
          </InformationKey>
        </DataArray>
      </Points>
      <Cells>
        <DataArray type="Int64" Name="connectivity" format="ascii" RangeMin="0" RangeMax="12">
          0 11 12 1 11 0
          2 1 0 4 3 2
          3 1 2 6 5 4
          5 3 4 8 7 6
          7 5 6 10 9 8
          9 7 8
        </DataArray>
        <DataArray type="Int64" Name="offsets" format="ascii" RangeMin="3" RangeMax="33">
          3 6 9 12 15 18
          21 24 27 30 33
        </DataArray>
        <DataArray type="UInt8" Name="types" format="ascii" RangeMin="5" RangeMax="5">
          5 5 5 5 5 5
          5 5 5 5 5
        </DataArray>
      </Cells>
    </Piece>
  </UnstructuredGrid>
</VTKFile>
