<?xml version="1.0"?>
<VTKFile type="UnstructuredGrid" version="0.1" byte_order="LittleEndian" header_type="UInt32" compressor="vtkZLibDataCompressor">
  <UnstructuredGrid>
    <Piece NumberOfPoints="13" NumberOfCells="11">
      <PointData>
        <DataArray type="Float64" Name="Disp" NumberOfComponents="3" format="ascii" RangeMin="0.04117062408882112" RangeMax="0.16385676239746835">
          0.0005889472295902134 0.05973847048858714 0 -0.011330754537174055 0.07869073077807223 0
          -0.0011462511589231087 0.07974520949511567 0 -0.013630687482704426 0.09938681381238436 0
          -0.0031834401986713784 0.10049496237075896 0 -0.01590444165603418 0.12040877705519848 0
          -0.0053762477050022265 0.12153257186067719 0 -0.018139124808779526 0.14147697058691644 0
          -0.007632219130404128 0.142594463678233 0 -0.02033644264777277 0.16245102685208412 0
          -0.009867521562763378 0.1635593794363038 0 -0.009050168129189311 0.05879326451330215 0
          0.0018549905267306302 0.04112881347679213 0
          <InformationKey name="L2_NORM_RANGE" location="vtkDataArray" length="2">
            <Value index="0">
              0.041170624089
            </Value>
            <Value index="1">
              0.1638567624
            </Value>
          </InformationKey>
        </DataArray>
        <DataArray type="Float64" Name="Nodal Stress" NumberOfComponents="6" format="ascii" RangeMin="729.2236312011595" RangeMax="32816.96252453829">
          20987.10086135374 978.6287810072058 0 5227.479374041628 0 0
          -13798.88220356114 -589.3505731400414 0 2674.074585719122 0 0
          12655.691201635018 711.3485269096044 0 3835.613418421562 0 0
          -7553.5383159600715 -274.36744066387627 0 1918.433623991773 0 0
          6831.345271427949 458.36967508166595 0 2467.8660298877207 0 0
          -3531.153009336456 -124.63821655413042 0 1186.6538761255404 0 0
          3259.97750238419 301.60963310299377 0 1415.829627512483 0 0
          -1359.8786874234574 -68.16970963052808 0 474.87152988458166 0 0
          1255.964993783983 106.33049830539426 0 490.3321627576752 0 0
          -716.7653149690552 -6.880375583048929 0 134.041963546316 0 0
          1298.0294320459964 530.2461457614457 0 678.6122080097155 0 0
          -22530.672867413698 -1195.1929581304591 0 3411.8350341354517 0 0
          32172.099920447738 1077.8426123838678 0 6383.358939352152 0 0
          <InformationKey name="L2_NORM_RANGE" location="vtkDataArray" length="2">
            <Value index="0">
              729.2236312
            </Value>
            <Value index="1">
              32816.962525
            </Value>
          </InformationKey>
        </DataArray>
        <DataArray type="Float64" Name="Nodal Strain" NumberOfComponents="6" format="ascii" RangeMin="0" RangeMax="0">
          0 0 0 0 0 0
          0 0 0 0 0 0
          0 0 0 0 0 0
          0 0 0 0 0 0
          0 0 0 0 0 0
          0 0 0 0 0 0
          0 0 0 0 0 0
          0 0 0 0 0 0
          0 0 0 0 0 0
          0 0 0 0 0 0
          0 0 0 0 0 0
          0 0 0 0 0 0
          0 0 0 0 0 0
          <InformationKey name="L2_NORM_RANGE" location="vtkDataArray" length="2">
            <Value index="0">
              0
            </Value>
            <Value index="1">
              0
            </Value>
          </InformationKey>
        </DataArray>
        <DataArray type="Float64" Name="Sld_traction" NumberOfComponents="3" format="ascii" RangeMin="76.1385832452699" RangeMax="15153.531121906854">
          4234.679985500975 -1310.7630484228594 0 9780.442417945334 -2177.346636036709 0
          2029.7969033327015 -715.0019600397573 0 5866.609287639147 -1266.5857504351468 0
          651.8434764759421 -383.43083046953524 0 2979.536947270088 -710.8163010547548 0
          -56.79920076633685 -226.67198462848881 0 1135.7823984796125 -323.75988171662425 0
          -86.46612620230384 -167.54493788782224 0 31.585178950956156 -69.27813745499348 0
          -11.451723467931373 -93.92511258939989 0 14731.142740944499 -3552.877567341406 0
          7287.419110913028 -2222.099019673821 0
          <InformationKey name="L2_NORM_RANGE" location="vtkDataArray" length="2">
            <Value index="0">
              76.138583245
            </Value>
            <Value index="1">
              15153.531122
            </Value>
          </InformationKey>
        </DataArray>
        <DataArray type="Float64" Name="Velocity" NumberOfComponents="3" format="ascii" RangeMin="2.066140906867783" RangeMax="8.157480858948666">
          0.19445095056810696 -2.991943010686704 0 0.883688453665127 -3.875939276098066 0
          0.3830713100485219 -3.98056287353603 0 1.102942130702293 -4.889117864868112 0
          0.5926138130903289 -4.9979901480324855 0 1.3222456966199108 -5.913074370493774 0
          0.8105380817302357 -6.022624198911743 0 1.539497115156152 -6.935791650027056 0
          1.029702708601385 -7.044459386326196 0 1.7547536261671954 -7.953734554519855 0
          1.2466478345996688 -8.061660073496142 0 0.6709059184338351 -2.8973274635776214 0
          0.04229887616420547 -2.065707881600801 0
          <InformationKey name="L2_NORM_RANGE" location="vtkDataArray" length="2">
            <Value index="0">
              2.0661409069
            </Value>
            <Value index="1">
              8.1574808589
            </Value>
          </InformationKey>
        </DataArray>
        <DataArray type="Float64" Name="Acceleration" NumberOfComponents="3" format="ascii" RangeMin="412.5450744885025" RangeMax="1157.584591455456">
          98.82116822170639 -1111.5248010217329 0 115.60603706265101 -1151.797434694905 0
          128.6582295804119 -1143.0841065294226 0 55.94682839052257 -1070.4947965380707 0
          125.4078804908886 -1048.8440384869318 0 -14.833609726822033 -891.8684060563974 0
          90.64693944482951 -862.123650991387 0 -83.4458095995542 -664.1880371244042 0
          30.61911378597506 -632.8154571818013 0 -139.97027642484318 -441.0527456435375 0
          -31.782983709857945 -411.31895219066064 0 151.22514039814632 -1105.665441966652 0
          45.68101563763071 -948.4346028931395 0
          <InformationKey name="L2_NORM_RANGE" location="vtkDataArray" length="2">
            <Value index="0">
              412.54507449
            </Value>
            <Value index="1">
              1157.5845915
            </Value>
          </InformationKey>
        </DataArray>
        <DataArray type="Float64" Name="Sigma" NumberOfComponents="6" format="ascii" RangeMin="1514.4606483653495" RangeMax="62378.36592938467">
          27971.5529584827 -27971.552958481137 0 7522.494757681552 0 0
          -20581.903752360566 20581.903752356626 0 791.6283041899406 0 0
          16477.500971936206 -16477.50097194114 0 5353.46966318891 0 0
          -11314.465535848112 11314.465535851867 0 740.4532872761472 0 0
          8537.138973821075 -8537.138973818364 0 3306.295954259393 0 0
          -5277.06546405209 5277.065464049469 0 462.9721442494456 0 0
          3701.6505642292846 -3701.6505642317297 0 2012.0216272358023 0 0
          -1946.0896255866182 1946.0896255942591 0 84.52476555825973 0 0
          1448.0234538759612 -1448.0234538818959 0 515.6060961536359 0 0
          -1095.085085457424 1095.0850854481257 0 -326.45829237260057 0 0
          591.3141020809776 -591.3141020619696 0 1262.650514128913 0 0
          -33501.98117251366 33501.981172510896 0 830.0807412106609 0 0
          43650.06258358652 -43650.06258358462 0 8966.861709558369 0 0
          <InformationKey name="L2_NORM_RANGE" location="vtkDataArray" length="2">
            <Value index="0">
              1514.4606484
            </Value>
            <Value index="1">
              62378.365929
            </Value>
          </InformationKey>
        </DataArray>
        <DataArray type="Float64" Name="Press" format="ascii" RangeMin="-36832.577042340556" RangeMax="47204.72443860028">
          30807.859653162886 -22572.691071829217 18267.71689023669 -12379.920911305042 9599.68221228229 -5895.853350185942
          4403.002527935505 -2192.0906332652517 1526.0463684417125 -1376.887183561614 1753.695985361697 -36832.577042340556
          47204.72443860028
        </DataArray>
        <DataArray type="Float64" Name="Dev strain" NumberOfComponents="6" format="ascii" RangeMin="0" RangeMax="0">
          0 0 0 0 0 0
          0 0 0 0 0 0
          0 0 0 0 0 0
          0 0 0 0 0 0
          0 0 0 0 0 0
          0 0 0 0 0 0
          0 0 0 0 0 0
          0 0 0 0 0 0
          0 0 0 0 0 0
          0 0 0 0 0 0
          0 0 0 0 0 0
          0 0 0 0 0 0
          0 0 0 0 0 0
          <InformationKey name="L2_NORM_RANGE" location="vtkDataArray" length="2">
            <Value index="0">
              0
            </Value>
            <Value index="1">
              0
            </Value>
          </InformationKey>
        </DataArray>
        <DataArray type="Float64" Name="J2 Stresses" format="ascii" RangeMin="748223.9475160952" RangeMax="1925429115.7805233">
          796554756.7539952 423771430.91435146 278672947.6389109 128154198.12959668 75615640.0925996 27901005.7134652
          14714274.656784184 3789050.9398289034 2163234.33458116 1225855.0985458198 748223.9475160952 1122555000.9925995
          1925429115.7805233
        </DataArray>
      </PointData>
      <CellData>
        <DataArray type="UInt8" Name="vtkGhostType" format="ascii" RangeMin="0" RangeMax="1">
          1 1 0 0 0 0
          0 0 0 0 0
        </DataArray>
        <DataArray type="Float64" Name="Gauss Stress" NumberOfComponents="6" format="ascii" RangeMin="1112.1880041818538" RangeMax="27075.536139835127">
          26433.213806326057 1020.1242266225814 0 5773.145736150193 0 0
          -18236.58014246614 -828.3588315401684 0 3048.067934360717 0 0
          16790.01188320957 878.5784311682382 0 4555.864241686801 0 0
          9729.217533707702 595.7679271021016 0 3133.4063015748166 0 0
          -10701.25446972335 -422.00892554340385 0 2295.183751551666 0 0
          5022.8518213433745 381.70243867707643 0 1927.0965752482134 0 0
          -5576.8280250959415 -207.23334104190667 0 1503.2404619283284 0 0
          2313.5142185435316 177.79129019753316 0 870.7174963158993 0 0
          -2402.148660308371 -54.478976701230124 0 853.1728456811691 0 0
          949.0358802471036 319.5342332486854 0 483.93277263664964 0 0
          -1212.027568517745 -149.92673040822135 0 91.22418977976494 0 0
          <InformationKey name="L2_NORM_RANGE" location="vtkDataArray" length="2">
            <Value index="0">
              1112.1880042
            </Value>
            <Value index="1">
              27075.53614
            </Value>
          </InformationKey>
        </DataArray>
        <DataArray type="Float64" Name="Gauss Strain" NumberOfComponents="6" format="ascii" RangeMin="0" RangeMax="0">
          0 0 0 0 0 0
          0 0 0 0 0 0
          0 0 0 0 0 0
          0 0 0 0 0 0
          0 0 0 0 0 0
          0 0 0 0 0 0
          0 0 0 0 0 0
          0 0 0 0 0 0
          0 0 0 0 0 0
          0 0 0 0 0 0
          0 0 0 0 0 0
          <InformationKey name="L2_NORM_RANGE" location="vtkDataArray" length="2">
            <Value index="0">
              0
            </Value>
            <Value index="1">
              0
            </Value>
          </InformationKey>
        </DataArray>
      </CellData>
      <Points>
        <DataArray type="Float32" Name="Points" NumberOfComponents="3" format="ascii" RangeMin="0.4000000059604645" RangeMax="1.0012492197622458">
          0.5 0 0 0.6000000238418579 0.05000000074505806 0
          0.6000000238418579 0 0 0.699999988079071 0.05000000074505806 0
          0.699999988079071 0 0 0.800000011920929 0.05000000074505806 0
          0.800000011920929 0 0 0.8999999761581421 0.05000000074505806 0
          0.8999999761581421 0 0 1 0.05000000074505806 0
          1 0 0 0.5 0.05000000074505806 0
          0.4000000059604645 0 0
          <InformationKey name="L2_NORM_RANGE" location="vtkDataArray" length="2">
            <Value index="0">
              0.40000000596
            </Value>
            <Value index="1">
              1.0012492198
            </Value>
          </InformationKey>
        </DataArray>
      </Points>
      <Cells>
        <DataArray type="Int64" Name="connectivity" format="ascii" RangeMin="0" RangeMax="12">
          0 11 12 1 11 0
          2 1 0 4 3 2
          3 1 2 6 5 4
          5 3 4 8 7 6
          7 5 6 10 9 8
          9 7 8
        </DataArray>
        <DataArray type="Int64" Name="offsets" format="ascii" RangeMin="3" RangeMax="33">
          3 6 9 12 15 18
          21 24 27 30 33
        </DataArray>
        <DataArray type="UInt8" Name="types" format="ascii" RangeMin="5" RangeMax="5">
          5 5 5 5 5 5
          5 5 5 5 5
        </DataArray>
      </Cells>
    </Piece>
  </UnstructuredGrid>
</VTKFile>
