<?xml version="1.0"?>
<VTKFile type="UnstructuredGrid" version="0.1" byte_order="LittleEndian" header_type="UInt32" compressor="vtkZLibDataCompressor">
  <UnstructuredGrid>
    <Piece NumberOfPoints="13" NumberOfCells="11">
      <PointData>
        <DataArray type="Float64" Name="Disp" NumberOfComponents="3" format="ascii" RangeMin="0.04112776049975099" RangeMax="0.17537008764943293">
          -0.009753164706057216 -0.059840242419201974 0 -0.0014430381212410066 -0.08235616537989256 0
          -0.012449168980820347 -0.08113288373477542 0 -0.003795456915961368 -0.105002065208474 0
          -0.015262257951658587 -0.10367082373822893 0 -0.006422922234752598 -0.12826468262599852 0
          -0.018100555708456856 -0.12688337405453184 0 -0.009199214044281895 -0.1516983548794205 0
          -0.02087318727748929 -0.15031838897811933 0 -0.011994947191642553 -0.17495939210010847 0
          -0.02360384789961344 -0.17359031430225108 0 0.00047904152323174215 -0.06089472626990724 0
          -0.007273229493222137 -0.04047953577381788 0
          <InformationKey name="L2_NORM_RANGE" location="vtkDataArray" length="2">
            <Value index="0">
              0.0411277605
            </Value>
            <Value index="1">
              0.17537008765
            </Value>
          </InformationKey>
        </DataArray>
        <DataArray type="Float64" Name="Nodal Stress" NumberOfComponents="6" format="ascii" RangeMin="737.0586512554951" RangeMax="57539.48370708487">
          -42098.58313356199 -2029.5192138008179 0 7431.080502586346 0 0
          25958.58832071814 7639.35975304803 0 -13001.235952869725 0 0
          -28875.69534662355 -936.5503266729868 0 4907.189699600283 0 0
          14929.54600677836 5857.247062848795 0 -9108.107629419485 0 0
          -17364.78836356274 22.411648597986087 0 2559.28381267559 0 0
          6685.646477229906 3941.433496765704 0 -5534.656655067381 0 0
          -8596.382734411975 490.58670539515794 0 806.777939063205 0 0
          1974.3009040240315 2001.7753629486815 0 -2603.1180988825936 0 0
          -3581.248719845641 245.25409704788274 0 108.37664599391404 0 0
          154.8882429030148 948.7743497986916 0 -1284.5760576572918 0 0
          599.3488013004069 71.90386818983521 0 422.9258841802825 0 0
          39323.29620904102 8984.478020090934 0 -16708.878288981738 0 0
          -56675.741188790555 -3210.1497683765333 0 9399.334255345322 0 0
          <InformationKey name="L2_NORM_RANGE" location="vtkDataArray" length="2">
            <Value index="0">
              737.05865126
            </Value>
            <Value index="1">
              57539.483707
            </Value>
          </InformationKey>
        </DataArray>
        <DataArray type="Float64" Name="Nodal Strain" NumberOfComponents="6" format="ascii" RangeMin="0" RangeMax="0">
          0 0 0 0 0 0
          0 0 0 0 0 0
          0 0 0 0 0 0
          0 0 0 0 0 0
          0 0 0 0 0 0
          0 0 0 0 0 0
          0 0 0 0 0 0
          0 0 0 0 0 0
          0 0 0 0 0 0
          0 0 0 0 0 0
          0 0 0 0 0 0
          0 0 0 0 0 0
          0 0 0 0 0 0
          <InformationKey name="L2_NORM_RANGE" location="vtkDataArray" length="2">
            <Value index="0">
              0
            </Value>
            <Value index="1">
              0
            </Value>
          </InformationKey>
        </DataArray>
        <DataArray type="Float64" Name="Sld_traction" NumberOfComponents="3" format="ascii" RangeMin="142.083645737673" RangeMax="18933.971080314277">
          -5343.760227531702 6163.476464258996 0 -12207.413474591549 9261.100423481274 0
          -3287.831134960612 3865.560992071134 0 -9262.281745554239 6795.671508724721 0
          -1722.4481650528473 1927.5507679605257 0 -6192.563177058448 4378.253643556436 0
          -466.65569340120373 669.8405299521854 0 -3250.213589259851 2267.116331664416 0
          -269.86840695922933 332.8902884194635 0 -794.4100212212782 399.6399442671329 0
          138.93503401619967 29.74590239051426 0 -15000.591240577838 11553.247305553397 0
          -7775.850436137305 8702.76717597678 0
          <InformationKey name="L2_NORM_RANGE" location="vtkDataArray" length="2">
            <Value index="0">
              142.08364574
            </Value>
            <Value index="1">
              18933.97108
            </Value>
          </InformationKey>
        </DataArray>
        <DataArray type="Float64" Name="Velocity" NumberOfComponents="3" format="ascii" RangeMin="0.3039470494952699" RangeMax="7.521690005935432">
          0.11220100414152245 -1.3769344372387913 0 -0.16230119705897983 -0.2569866345359273 0
          0.4836472780193466 -0.40163404271086023 0 0.09086674834006958 1.317636249337454 0
          0.9627973710528135 1.1110553078917036 0 0.4877565034705609 3.251417412780924 0
          1.4951642260333653 3.007074714549063 0 0.9840648682331778 5.332936891895542 0
          2.0087594584160655 5.084145893120834 0 1.5009474991420833 7.339546777674272 0
          2.4934061453804333 7.096389669371888 0 -0.24794613481971584 -1.3045370677670398 0
          -0.12520367374002772 -1.7495906830662449 0
          <InformationKey name="L2_NORM_RANGE" location="vtkDataArray" length="2">
            <Value index="0">
              0.3039470495
            </Value>
            <Value index="1">
              7.5216900059
            </Value>
          </InformationKey>
        </DataArray>
        <DataArray type="Float64" Name="Acceleration" NumberOfComponents="3" format="ascii" RangeMin="235.56303785201052" RangeMax="1769.8242350718358">
          102.54981320070146 416.62546808468323 0 28.462032689025136 666.7875235206011 0
          149.19279863528573 647.0542160655605 0 55.257723893548246 922.2500528569653 0
          187.96061122354877 907.0242193003505 0 76.03254425950126 1195.5279395998805 0
          216.03780775528867 1184.3453297344677 0 93.86762299566908 1479.2074066101632 0
          235.7826876018662 1468.622476722754 0 116.82025033778336 1762.4128929831204 0
          257.1645302183133 1751.0408982788504 0 -1.5097804692279624 437.51674622945575 0
          57.219442643760885 228.50794337529078 0
          <InformationKey name="L2_NORM_RANGE" location="vtkDataArray" length="2">
            <Value index="0">
              235.56303785
            </Value>
            <Value index="1">
              1769.8242351
            </Value>
          </InformationKey>
        </DataArray>
        <DataArray type="Float64" Name="Sigma" NumberOfComponents="6" format="ascii" RangeMin="2501.32769232834" RangeMax="108248.22267610922">
          -51851.686332316276 51851.686332321224 0 29952.631689667254 0 0
          34778.4010915713 -34778.40109157901 0 -32237.350923246227 0 0
          -34258.27114744306 34258.271147444546 0 20823.011746882694 0 0
          19795.434013846083 -19795.43401384359 0 -21766.67030299162 0 0
          -19627.999975571307 19627.99997558033 0 12187.213188769685 0 0
          8514.742795043447 -8514.74279504294 0 -12366.837148266302 0 0
          -8993.628955172731 8993.628955161415 0 5092.657903916373 0 0
          2793.3313056005686 -2793.3313055859403 0 -4978.811198960415 0 0
          -3560.392980298567 3560.3929802850016 0 1636.8858363977479 0 0
          -330.18293367277414 330.18293368537303 0 -2457.356035462257 0 0
          2472.732890095783 -2472.7328900962184 0 1256.0868678928193 0 0
          53279.39257737209 -53279.39257737063 0 -42094.63912639521 0 0
          -71751.79810833257 71751.79810833455 0 37696.63975712434 0 0
          <InformationKey name="L2_NORM_RANGE" location="vtkDataArray" length="2">
            <Value index="0">
              2501.3276923
            </Value>
            <Value index="1">
              108248.22268
            </Value>
          </InformationKey>
        </DataArray>
        <DataArray type="Float64" Name="Press" format="ascii" RangeMin="-87788.79861357399" RangeMax="74123.61346667749">
          -64381.889218282406 51601.35247981768 -42915.74546428985 31928.90303733417 -24392.375176203685 15966.486104899373
          -10680.989883700922 6135.112557433167 -4374.692583704688 1191.8349475724042 2262.6814875568434 74123.61346667749
          -87788.79861357399
        </DataArray>
        <DataArray type="Float64" Name="Dev strain" NumberOfComponents="6" format="ascii" RangeMin="0" RangeMax="0">
          0 0 0 0 0 0
          0 0 0 0 0 0
          0 0 0 0 0 0
          0 0 0 0 0 0
          0 0 0 0 0 0
          0 0 0 0 0 0
          0 0 0 0 0 0
          0 0 0 0 0 0
          0 0 0 0 0 0
          0 0 0 0 0 0
          0 0 0 0 0 0
          0 0 0 0 0 0
          0 0 0 0 0 0
          <InformationKey name="L2_NORM_RANGE" location="vtkDataArray" length="2">
            <Value index="0">
              0
            </Value>
            <Value index="1">
              0
            </Value>
          </InformationKey>
        </DataArray>
        <DataArray type="Float64" Name="J2 Stresses" format="ascii" RangeMin="1618670.4409486149" RangeMax="5503579694.023662">
          2912887411.7893863 1469348881.123607 1282028596.564484 510306191.8162695 422390424.36833483 110735510.1286748
          87369152.9148001 13999840.021530727 13346246.984460905 1618670.4409486149 6508846.50068572 3281683334.209015
          5503579694.023662
        </DataArray>
      </PointData>
      <CellData>
        <DataArray type="UInt8" Name="vtkGhostType" format="ascii" RangeMin="0" RangeMax="1">
          1 1 0 0 0 0
          0 0 0 0 0
        </DataArray>
        <DataArray type="Float64" Name="Gauss Stress" NumberOfComponents="6" format="ascii" RangeMin="809.9223455011733" RangeMax="50251.24283675561">
          -49457.055409485234 -2574.3275006312488 0 8518.210773465464 0 0
          32516.394688279957 8378.989797194785 0 -14793.11945332473 0 0
          -35675.946196980876 -1454.9086048559434 0 6179.430837767909 0 0
          -23156.68490410922 -429.4601646593619 0 3747.8515442202543 0 0
          20310.024670278777 6766.3153649613105 0 -11060.336493118386 0 0
          -13071.255030235276 333.33572689785615 0 1637.6779814732517 0 0
          10728.396933116026 4940.279044241219 0 -7315.4314208294145 0 0
          -6227.086846614391 280.04023996267745 0 583.5775137845685 0 0
          4578.351308034301 3035.387877721384 0 -4084.3301477701157 0 0
          -779.3397241503317 165.8889584329052 0 145.20555627610344 0 0
          618.3367709767035 1349.8331765617725 0 -1933.093799341641 0 0
          <InformationKey name="L2_NORM_RANGE" location="vtkDataArray" length="2">
            <Value index="0">
              809.9223455
            </Value>
            <Value index="1">
              50251.242837
            </Value>
          </InformationKey>
        </DataArray>
        <DataArray type="Float64" Name="Gauss Strain" NumberOfComponents="6" format="ascii" RangeMin="0" RangeMax="0">
          0 0 0 0 0 0
          0 0 0 0 0 0
          0 0 0 0 0 0
          0 0 0 0 0 0
          0 0 0 0 0 0
          0 0 0 0 0 0
          0 0 0 0 0 0
          0 0 0 0 0 0
          0 0 0 0 0 0
          0 0 0 0 0 0
          0 0 0 0 0 0
          <InformationKey name="L2_NORM_RANGE" location="vtkDataArray" length="2">
            <Value index="0">
              0
            </Value>
            <Value index="1">
              0
            </Value>
          </InformationKey>
        </DataArray>
      </CellData>
      <Points>
        <DataArray type="Float32" Name="Points" NumberOfComponents="3" format="ascii" RangeMin="0.4000000059604645" RangeMax="1.0012492197622458">
          0.5 0 0 0.6000000238418579 0.05000000074505806 0
          0.6000000238418579 0 0 0.699999988079071 0.05000000074505806 0
          0.699999988079071 0 0 0.800000011920929 0.05000000074505806 0
          0.800000011920929 0 0 0.8999999761581421 0.05000000074505806 0
          0.8999999761581421 0 0 1 0.05000000074505806 0
          1 0 0 0.5 0.05000000074505806 0
          0.4000000059604645 0 0
          <InformationKey name="L2_NORM_RANGE" location="vtkDataArray" length="2">
            <Value index="0">
              0.40000000596
            </Value>
            <Value index="1">
              1.0012492198
            </Value>
          </InformationKey>
        </DataArray>
      </Points>
      <Cells>
        <DataArray type="Int64" Name="connectivity" format="ascii" RangeMin="0" RangeMax="12">
          0 11 12 1 11 0
          2 1 0 4 3 2
          3 1 2 6 5 4
          5 3 4 8 7 6
          7 5 6 10 9 8
          9 7 8
        </DataArray>
        <DataArray type="Int64" Name="offsets" format="ascii" RangeMin="3" RangeMax="33">
          3 6 9 12 15 18
          21 24 27 30 33
        </DataArray>
        <DataArray type="UInt8" Name="types" format="ascii" RangeMin="5" RangeMax="5">
          5 5 5 5 5 5
          5 5 5 5 5
        </DataArray>
      </Cells>
    </Piece>
  </UnstructuredGrid>
</VTKFile>
