<?xml version="1.0"?>
<VTKFile type="UnstructuredGrid" version="0.1" byte_order="LittleEndian" header_type="UInt32" compressor="vtkZLibDataCompressor">
  <UnstructuredGrid>
    <Piece NumberOfPoints="13" NumberOfCells="11">
      <PointData>
        <DataArray type="Float64" Name="Disp" NumberOfComponents="3" format="ascii" RangeMin="0" RangeMax="0.06416435754514888">
          0 0 0 0 0 0
          0.001014442596391967 -0.001954346072464169 0 -0.0011512139488457525 -0.001916002632346345 0
          0.0018533593884553477 -0.008697717556745166 0 -0.0024302146451468383 -0.00853174331486787 0
          0.002121306843398178 -0.01904508666036371 0 -0.0037394725697212565 -0.01870450339208278 0
          0.0018754858415663451 -0.03220569258300919 0 -0.005209929510613221 -0.03170728385537925 0
          0.0011644863196880024 -0.04745178040334981 0 -0.006809902867986094 -0.046814505888788854 0
          0.00007132333647272023 -0.06416431790460628 0
          <InformationKey name="L2_NORM_RANGE" location="vtkDataArray" length="2">
            <Value index="0">
              0
            </Value>
            <Value index="1">
              0.064164357545
            </Value>
          </InformationKey>
        </DataArray>
        <DataArray type="Float64" Name="Nodal Stress" NumberOfComponents="6" format="ascii" RangeMin="22245.151613725073" RangeMax="117603.58789672206">
          113435.26016197276 -1077.2689738198342 0 -31014.27300011447 0 0
          -59910.372872300024 -8325.011060525276 0 -173.8458947303701 0 0
          81470.84411265988 5447.0637225061955 0 -12074.09596419394 0 0
          -74688.75112384044 -2249.26364005558 0 5555.155386736246 0 0
          63545.19211013836 5923.874700132161 0 -15937.940708242646 0 0
          -65650.92277135649 -3276.214562984297 0 5661.172577303975 0 0
          53535.268200738916 6412.375064199186 0 -14801.922234336382 0 0
          -53614.8943686224 -2275.222393482101 0 6248.768920466258 0 0
          40884.944290501786 6287.032872642401 0 -13619.758339730834 0 0
          -42331.401582438804 -1769.521132152905 0 5351.409181451548 0 0
          29892.27938842869 5750.803587885383 0 -11407.229981139957 0 0
          -31280.40938905684 -978.3245032366527 0 4076.2717722235716 0 0
          19799.266447578426 4822.988595578272 0 -8920.459599276957 0 0
          <InformationKey name="L2_NORM_RANGE" location="vtkDataArray" length="2">
            <Value index="0">
              22245.151614
            </Value>
            <Value index="1">
              117603.5879
            </Value>
          </InformationKey>
        </DataArray>
        <DataArray type="Float64" Name="Nodal Strain" NumberOfComponents="6" format="ascii" RangeMin="0" RangeMax="0">
          0 0 0 0 0 0
          0 0 0 0 0 0
          0 0 0 0 0 0
          0 0 0 0 0 0
          0 0 0 0 0 0
          0 0 0 0 0 0
          0 0 0 0 0 0
          0 0 0 0 0 0
          0 0 0 0 0 0
          0 0 0 0 0 0
          0 0 0 0 0 0
          0 0 0 0 0 0
          0 0 0 0 0 0
          <InformationKey name="L2_NORM_RANGE" location="vtkDataArray" length="2">
            <Value index="0">
              0
            </Value>
            <Value index="1">
              0
            </Value>
          </InformationKey>
        </DataArray>
        <DataArray type="Float64" Name="Sld_traction" NumberOfComponents="3" format="ascii" RangeMin="6045.649310315082" RangeMax="53906.971526402085">
          -51746.28665477788 15109.050155118355 0 18631.524588094144 14879.075394685471 0
          -21229.407129212013 14162.427749768078 0 -14337.935101244508 11407.58577312812 0
          -19049.036598261056 11701.866606385645 0 -11165.708254770992 9717.8582347473 0
          -16539.846577101824 11123.930232627054 0 -8549.868416298015 7982.626490144603 0
          -14316.092450978098 9818.93114217768 0 -6203.3742287502955 6160.497502310426 0
          -11925.735919066443 8286.789831079022 0 -4240.159853473935 4309.399030062212 0
          -9553.362336123222 6508.267111111083 0
          <InformationKey name="L2_NORM_RANGE" location="vtkDataArray" length="2">
            <Value index="0">
              6045.6493103
            </Value>
            <Value index="1">
              53906.971526
            </Value>
          </InformationKey>
        </DataArray>
        <DataArray type="Float64" Name="Velocity" NumberOfComponents="3" format="ascii" RangeMin="0" RangeMax="5.874099824046703">
          0 0 0 0 0 0
          -0.12247445663648426 0.254364903059473 0 0.14747613802322823 0.24582706378217578 0
          -0.17611621027764324 1.0691357085938051 0 0.30941542694949997 1.0300879742894713 0
          -0.11475147766685811 2.1823593913460684 0 0.47157848601499985 2.112969796960604 0
          0.03190680841035276 3.421194322588356 0 0.651516899413028 3.332367479550971 0
          0.229643069736643 4.667416567430216 0 0.83719805731445 4.5685450917143875 0
          0.4488975429485922 5.856922377733909 0
          <InformationKey name="L2_NORM_RANGE" location="vtkDataArray" length="2">
            <Value index="0">
              0
            </Value>
            <Value index="1">
              5.874099824
            </Value>
          </InformationKey>
        </DataArray>
        <DataArray type="Float64" Name="Acceleration" NumberOfComponents="3" format="ascii" RangeMin="0" RangeMax="552.4148680801497">
          0 0 0 0 0 0
          -6.707523434713494 11.179578899252647 0 7.280220779550291 12.04286428766136 0
          -20.05332235470769 56.808644519305744 0 10.948027918219395 59.46960757044508 0
          -32.81119466439759 134.82186099855244 0 14.489458177637061 136.83534633479212 0
          -42.027723659403364 247.07566833592864 0 21.009667583711234 246.15457077183964 0
          -42.50433655869739 388.5601331100552 0 32.978730562130295 383.74327228570473 0
          -33.32209813144914 551.4089446609723 0
          <InformationKey name="L2_NORM_RANGE" location="vtkDataArray" length="2">
            <Value index="0">
              0
            </Value>
            <Value index="1">
              552.41486808
            </Value>
          </InformationKey>
        </DataArray>
        <DataArray type="Float64" Name="Sigma" NumberOfComponents="6" format="ascii" RangeMin="44169.60524981434" RangeMax="170457.06011246485">
          112489.18418798271 -112489.18418798235 0 -61220.71727469989 0 0
          -110489.39878815463 110489.39878815491 0 20188.227231594217 0 0
          114536.08868377439 -114536.08868377538 0 -21803.8846826523 0 0
          -108329.91861708823 108329.91861708729 0 23600.82896205624 0 0
          91022.55123246417 -91022.55123246365 0 -39383.06240225896 0 0
          -88186.73611142422 88186.7361114253 0 28033.105825778406 0 0
          75526.7984217806 -75526.7984217808 0 -35714.35298726841 0 0
          -71936.69092079972 71936.69092079873 0 27050.63920957399 0 0
          57235.653489136566 -57235.65348913843 0 -33474.39436682837 0 0
          -54983.83470831839 54983.83470831942 0 23559.349492675574 0 0
          41541.7394210347 -41541.73942103345 0 -27657.06532414608 0 0
          -39794.03166261059 39794.03166260612 0 18426.904870536528 0 0
          27411.546527126095 -27411.546527129 0 -21169.984929297185 0 0
          <InformationKey name="L2_NORM_RANGE" location="vtkDataArray" length="2">
            <Value index="0">
              44169.60525
            </Value>
            <Value index="1">
              170457.06011
            </Value>
          </InformationKey>
        </DataArray>
        <DataArray type="Float64" Name="Press" format="ascii" RangeMin="-134747.66286166132" RangeMax="134376.36998586424">
          112543.63762605147 -134747.66286166132 134376.36998586424 -117734.11420463845 104270.67855508544 -101178.69545521565
          91684.29253374824 -82997.70724725034 71839.92160481433 -64688.801142156735 54542.7407905197 -47101.364086605856
          37718.18420924311
        </DataArray>
        <DataArray type="Float64" Name="Dev strain" NumberOfComponents="6" format="ascii" RangeMin="0" RangeMax="0">
          0 0 0 0 0 0
          0 0 0 0 0 0
          0 0 0 0 0 0
          0 0 0 0 0 0
          0 0 0 0 0 0
          0 0 0 0 0 0
          0 0 0 0 0 0
          0 0 0 0 0 0
          0 0 0 0 0 0
          0 0 0 0 0 0
          0 0 0 0 0 0
          0 0 0 0 0 0
          0 0 0 0 0 0
          <InformationKey name="L2_NORM_RANGE" location="vtkDataArray" length="2">
            <Value index="0">
              0
            </Value>
            <Value index="1">
              0
            </Value>
          </InformationKey>
        </DataArray>
        <DataArray type="Float64" Name="J2 Stresses" format="ascii" RangeMin="863434948.4855458" RangeMax="13590810615.185043">
          13590810615.185043 12309798374.25652 13237367957.791145 11874621049.508919 8672861233.911573 7973364181.545891
          6023176032.169098 5357821771.046234 3556053799.885105 3161982816.3612423 1916944429.711117 1668452661.7416267
          863434948.4855458
        </DataArray>
      </PointData>
      <CellData>
        <DataArray type="UInt8" Name="vtkGhostType" format="ascii" RangeMin="0" RangeMax="0">
          0 0 0 0 0 0
          0 0 0 0 0
        </DataArray>
        <DataArray type="Float64" Name="Gauss Stress" NumberOfComponents="6" format="ascii" RangeMin="27291.563499079708" RangeMax="79074.4373212666">
          -74129.54526730134 -4607.392786322901 0 7328.3905036660535 0 0
          76236.072944619 -1454.5097777828096 0 -20945.458241919325 0 0
          -73378.74486693899 -3049.342536239906 0 4083.62412852523 0 0
          72713.88521182055 7894.737679053156 0 -12528.706040951678 0 0
          -59029.57959305371 -2631.8271860914965 0 6456.464016028 0 0
          57712.96305881289 5471.220696932962 0 -15688.103187916326 0 0
          -48510.48630819144 -2053.904881537672 0 5711.864778473735 0 0
          47117.422627143234 6566.915300397254 0 -14046.036048174263 0 0
          -36827.8504627124 -1337.0991627836015 0 4776.396346355344 0 0
          35162.47315167674 5966.7676837749505 0 -12524.036732766292 0 0
          24772.938399569066 5333.43554253354 0 -10133.381794302246 0 0
          <InformationKey name="L2_NORM_RANGE" location="vtkDataArray" length="2">
            <Value index="0">
              27291.563499
            </Value>
            <Value index="1">
              79074.437321
            </Value>
          </InformationKey>
        </DataArray>
        <DataArray type="Float64" Name="Gauss Strain" NumberOfComponents="6" format="ascii" RangeMin="0" RangeMax="0">
          0 0 0 0 0 0
          0 0 0 0 0 0
          0 0 0 0 0 0
          0 0 0 0 0 0
          0 0 0 0 0 0
          0 0 0 0 0 0
          0 0 0 0 0 0
          0 0 0 0 0 0
          0 0 0 0 0 0
          0 0 0 0 0 0
          0 0 0 0 0 0
          <InformationKey name="L2_NORM_RANGE" location="vtkDataArray" length="2">
            <Value index="0">
              0
            </Value>
            <Value index="1">
              0
            </Value>
          </InformationKey>
        </DataArray>
      </CellData>
      <Points>
        <DataArray type="Float32" Name="Points" NumberOfComponents="3" format="ascii" RangeMin="0" RangeMax="0.6020797527609908">
          0 0.05000000074505806 0 0 0 0
          0.10000000149011612 0.05000000074505806 0 0.10000000149011612 0 0
          0.20000000298023224 0.05000000074505806 0 0.20000000298023224 0 0
          0.30000001192092896 0.05000000074505806 0 0.30000001192092896 0 0
          0.4000000059604645 0.05000000074505806 0 0.4000000059604645 0 0
          0.5 0.05000000074505806 0 0.5 0 0
          0.6000000238418579 0.05000000074505806 0
          <InformationKey name="L2_NORM_RANGE" location="vtkDataArray" length="2">
            <Value index="0">
              0
            </Value>
            <Value index="1">
              0.60207975276
            </Value>
          </InformationKey>
        </DataArray>
      </Points>
      <Cells>
        <DataArray type="Int64" Name="connectivity" format="ascii" RangeMin="0" RangeMax="12">
          3 2 1 2 0 1
          5 4 3 4 2 3
          7 6 5 6 4 5
          9 8 7 8 6 7
          11 10 9 10 8 9
          12 10 11
        </DataArray>
        <DataArray type="Int64" Name="offsets" format="ascii" RangeMin="3" RangeMax="33">
          3 6 9 12 15 18
          21 24 27 30 33
        </DataArray>
        <DataArray type="UInt8" Name="types" format="ascii" RangeMin="5" RangeMax="5">
          5 5 5 5 5 5
          5 5 5 5 5
        </DataArray>
      </Cells>
    </Piece>
  </UnstructuredGrid>
</VTKFile>
