<?xml version="1.0"?>
<VTKFile type="UnstructuredGrid" version="0.1" byte_order="LittleEndian" header_type="UInt32" compressor="vtkZLibDataCompressor">
  <UnstructuredGrid>
    <Piece NumberOfPoints="13" NumberOfCells="11">
      <PointData>
        <DataArray type="Float64" Name="Disp" NumberOfComponents="3" format="ascii" RangeMin="0.04027858953331075" RangeMax="0.16155893295358995">
          -0.008984665707310947 -0.05782028345469921 0 -0.0011801940497387041 -0.07839283935059718 0
          -0.011198118214733061 -0.0773815238052134 0 -0.00314132306740654 -0.09884207984249563 0
          -0.013448559122409524 -0.09776932016607988 0 -0.005269274353250009 -0.11964431107132531 0
          -0.015688658576647713 -0.11854761093059432 0 -0.007474963182606903 -0.14051392599157358 0
          -0.01787968181294869 -0.13942041764634455 0 -0.009685212424453422 -0.1612683647755994 0
          -0.020048847294010526 -0.16018104057494756 0 0.00048819784109452194 -0.05872287326908259 0
          -0.006876302328400306 -0.03968729319418707 0
          <InformationKey name="L2_NORM_RANGE" location="vtkDataArray" length="2">
            <Value index="0">
              0.040278589533
            </Value>
            <Value index="1">
              0.16155893295
            </Value>
          </InformationKey>
        </DataArray>
        <DataArray type="Float64" Name="Nodal Stress" NumberOfComponents="6" format="ascii" RangeMin="330.4758742026346" RangeMax="47729.689678040384">
          -32723.96982038935 -928.0739533182893 0 4805.283064548286 0 0
          18571.72258003495 5756.020038319618 0 -9782.70351816593 0 0
          -20866.66214495227 -257.73439199232814 0 2828.6118879334863 0 0
          10006.161290974263 4010.0069655322054 0 -6344.798126578387 0 0
          -11664.348792842971 218.13662710936393 0 1286.5039902549731 0 0
          4253.525874437118 2453.2375984936075 0 -3588.2202332555516 0 0
          -5383.670022914855 355.65549245398523 0 309.3340655049585 0 0
          1230.3594196092117 1139.1716479453742 0 -1578.0347175949792 0 0
          -2064.3322226575656 139.3205402554655 0 3.525006315999195 0 0
          146.1433936160107 495.71769907270055 0 -730.0379966996138 0 0
          234.56896855823933 36.169032116643116 0 229.9641353238903 0 0
          30197.464686990912 7436.862529024774 0 -13587.892602720276 0 0
          -47222.303512963575 -1874.6200247713575 0 6683.047766873201 0 0
          <InformationKey name="L2_NORM_RANGE" location="vtkDataArray" length="2">
            <Value index="0">
              330.4758742
            </Value>
            <Value index="1">
              47729.689678
            </Value>
          </InformationKey>
        </DataArray>
        <DataArray type="Float64" Name="Nodal Strain" NumberOfComponents="6" format="ascii" RangeMin="0" RangeMax="0">
          0 0 0 0 0 0
          0 0 0 0 0 0
          0 0 0 0 0 0
          0 0 0 0 0 0
          0 0 0 0 0 0
          0 0 0 0 0 0
          0 0 0 0 0 0
          0 0 0 0 0 0
          0 0 0 0 0 0
          0 0 0 0 0 0
          0 0 0 0 0 0
          0 0 0 0 0 0
          0 0 0 0 0 0
          <InformationKey name="L2_NORM_RANGE" location="vtkDataArray" length="2">
            <Value index="0">
              0
            </Value>
            <Value index="1">
              0
            </Value>
          </InformationKey>
        </DataArray>
        <DataArray type="Float64" Name="Sld_traction" NumberOfComponents="3" format="ascii" RangeMin="85.75797595263347" RangeMax="16641.314332743626">
          -3978.9631912630484 4373.543180816559 0 -10141.857662168297 7174.493230621823 0
          -2282.938030140008 2555.718884801912 0 -7000.291023666962 4825.114638211625 0
          -1099.0178541097669 1199.3283184692111 0 -4243.232331736633 2839.192935198915 0
          -274.1411937179591 408.7578846829839 0 -2029.0904958220356 1344.2051135073311 0
          -146.36810613901812 203.13264353572896 0 -464.6359585529061 234.09422878011398 0
          80.66877419796697 29.10290894206074 0 -13521.408588599204 9700.765562641644 0
          -6157.970694457418 6654.661803272885 0
          <InformationKey name="L2_NORM_RANGE" location="vtkDataArray" length="2">
            <Value index="0">
              85.757975953
            </Value>
            <Value index="1">
              16641.314333
            </Value>
          </InformationKey>
        </DataArray>
        <DataArray type="Float64" Name="Velocity" NumberOfComponents="3" format="ascii" RangeMin="1.8574959048486466" RangeMax="6.801418074210694">
          0.5782288483185578 2.5783710215647133 0 0.3400158428108623 3.4632332071283827 0
          0.7450452620083361 3.38014046386683 0 0.5092686198683205 4.2802328715347855 0
          0.9170943508155096 4.194164421913655 0 0.6832037482468052 5.097336032228469 0
          1.0907478304205274 5.010488340491435 0 0.8577052950320265 5.911439556355333 0
          1.2639814244459142 5.825016268439185 0 1.03046020130029 6.7229041041603494 0
          1.4362008769536914 6.6368835250656275 0 0.18296879613356437 2.6550772265540488 0
          0.42275948306201583 1.8087469297860963 0
          <InformationKey name="L2_NORM_RANGE" location="vtkDataArray" length="2">
            <Value index="0">
              1.8574959048
            </Value>
            <Value index="1">
              6.8014180742
            </Value>
          </InformationKey>
        </DataArray>
        <DataArray type="Float64" Name="Acceleration" NumberOfComponents="3" format="ascii" RangeMin="789.2250150951215" RangeMax="1070.9579458607614">
          143.2627356414214 947.7086458729318 0 109.1678501162205 1043.9396197266178 0
          135.81689617539087 1042.0624421214598 0 120.96405245371488 1059.7845615878905 0
          116.76380713455183 1064.5736870436667 0 115.8703116660472 1025.5195853903133 0
          92.63508137297322 1034.4780879836035 0 98.1302784448726 969.4346444392577 0
          71.97438521110962 978.9627343330067 0 76.41440214019349 922.5185123884585 0
          54.541929386399715 931.4887286347221 0 79.28197799018807 957.0468179412783 0
          136.0179461076641 777.4157464243617 0
          <InformationKey name="L2_NORM_RANGE" location="vtkDataArray" length="2">
            <Value index="0">
              789.2250151
            </Value>
            <Value index="1">
              1070.9579459
            </Value>
          </InformationKey>
        </DataArray>
        <DataArray type="Float64" Name="Sigma" NumberOfComponents="6" format="ascii" RangeMin="1341.3092951736173" RangeMax="88710.49261821009">
          -40064.82671765485 40064.82671765185 0 21244.649076801332 0 0
          25214.64843739076 -25214.64843738694 0 -23224.23503573941 0 0
          -24650.55084392331 24650.550843921927 0 13481.98316085156 0 0
          13470.02211550295 -13470.022115501226 0 -14442.030513173462 0 0
          -13175.294065263364 13175.294065264156 0 7222.4294516532755 0 0
          5532.5354432300865 -5532.535443229639 0 -7622.432742550331 0 0
          -5629.035927526108 5629.035927521489 0 2772.6313210157064 0 0
          1734.354329779445 -1734.3543297856227 0 -2862.2961820781957 0 0
          -2024.1231076716685 2024.123107683764 0 824.9646896917602 0 0
          -84.22253090393005 84.22253089476354 0 -1336.0103876456062 0 0
          1252.5727557267016 -1252.5727557335533 0 715.4511196247034 0 0
          41363.71798638379 -41363.71798638272 0 -32917.2534561696 0 0
          -59229.14462554483 59229.144625546716 0 29212.469159895943 0 0
          <InformationKey name="L2_NORM_RANGE" location="vtkDataArray" length="2">
            <Value index="0">
              1341.3092952
            </Value>
            <Value index="1">
              88710.492618
            </Value>
          </InformationKey>
        </DataArray>
        <DataArray type="Float64" Name="Press" format="ascii" RangeMin="-71233.47469499642" RangeMax="57770.92305704564">
          -48532.75921802071 37257.17885309007 -29974.612575765317 21398.132253928725 -15835.67338695993 9987.50160593647
          -6501.573038494502 3576.0794414671914 -2454.4954692179963 686.5177847608296 1154.7268429061592 57770.92305704564
          -71233.47469499642
        </DataArray>
        <DataArray type="Float64" Name="Dev strain" NumberOfComponents="6" format="ascii" RangeMin="0" RangeMax="0">
          0 0 0 0 0 0
          0 0 0 0 0 0
          0 0 0 0 0 0
          0 0 0 0 0 0
          0 0 0 0 0 0
          0 0 0 0 0 0
          0 0 0 0 0 0
          0 0 0 0 0 0
          0 0 0 0 0 0
          0 0 0 0 0 0
          0 0 0 0 0 0
          0 0 0 0 0 0
          0 0 0 0 0 0
          <InformationKey name="L2_NORM_RANGE" location="vtkDataArray" length="2">
            <Value index="0">
              0
            </Value>
            <Value index="1">
              0
            </Value>
          </InformationKey>
        </DataArray>
        <DataArray type="Float64" Name="J2 Stresses" format="ascii" RangeMin="453324.3736853322" RangeMax="3721433661.678285">
          1718024118.5146983 770619769.0699325 653090624.3961854 233584557.12797368 186629245.5022016 45134318.659270495
          33607916.58392304 5056169.799720276 4267216.0398444515 453324.3736853322 1696906.0845404258 1981843559.431473
          3721433661.678285
        </DataArray>
      </PointData>
      <CellData>
        <DataArray type="UInt8" Name="vtkGhostType" format="ascii" RangeMin="0" RangeMax="1">
          1 1 0 0 0 0
          0 0 0 0 0
        </DataArray>
        <DataArray type="Float64" Name="Gauss Stress" NumberOfComponents="6" format="ascii" RangeMin="500.95788465383396" RangeMax="40423.195350010545">
          -39975.18807092913 -1355.0191663852129 0 5846.621593509227 0 0
          24336.294132744904 6660.600995332397 0 -11632.279805035896 0 0
          -26916.97402162779 -583.1546055030394 0 3834.1324006378272 0 0
          -16255.992167493416 -18.776971703890922 0 2087.4606997771257 0 0
          14238.272746741295 4882.192940762412 0 -8061.427462687106 0 0
          -8540.513123025783 307.34991001268054 0 790.8760100395505 0 0
          7125.741322124984 3240.8989931461856 0 -4947.344601356839 0 0
          -3766.2645905545464 179.6052130581076 0 245.0999428764237 0 0
          2899.9539514641947 1808.051387805129 0 -2570.699201204273 0 0
          -489.6745747999677 80.84068043132217 0 68.13514055695256 0 0
          478.0368160712908 727.3643552676432 0 -1124.4472933440138 0 0
          <InformationKey name="L2_NORM_RANGE" location="vtkDataArray" length="2">
            <Value index="0">
              500.95788465
            </Value>
            <Value index="1">
              40423.19535
            </Value>
          </InformationKey>
        </DataArray>
        <DataArray type="Float64" Name="Gauss Strain" NumberOfComponents="6" format="ascii" RangeMin="0" RangeMax="0">
          0 0 0 0 0 0
          0 0 0 0 0 0
          0 0 0 0 0 0
          0 0 0 0 0 0
          0 0 0 0 0 0
          0 0 0 0 0 0
          0 0 0 0 0 0
          0 0 0 0 0 0
          0 0 0 0 0 0
          0 0 0 0 0 0
          0 0 0 0 0 0
          <InformationKey name="L2_NORM_RANGE" location="vtkDataArray" length="2">
            <Value index="0">
              0
            </Value>
            <Value index="1">
              0
            </Value>
          </InformationKey>
        </DataArray>
      </CellData>
      <Points>
        <DataArray type="Float32" Name="Points" NumberOfComponents="3" format="ascii" RangeMin="0.4000000059604645" RangeMax="1.0012492197622458">
          0.5 0 0 0.6000000238418579 0.05000000074505806 0
          0.6000000238418579 0 0 0.699999988079071 0.05000000074505806 0
          0.699999988079071 0 0 0.800000011920929 0.05000000074505806 0
          0.800000011920929 0 0 0.8999999761581421 0.05000000074505806 0
          0.8999999761581421 0 0 1 0.05000000074505806 0
          1 0 0 0.5 0.05000000074505806 0
          0.4000000059604645 0 0
          <InformationKey name="L2_NORM_RANGE" location="vtkDataArray" length="2">
            <Value index="0">
              0.40000000596
            </Value>
            <Value index="1">
              1.0012492198
            </Value>
          </InformationKey>
        </DataArray>
      </Points>
      <Cells>
        <DataArray type="Int64" Name="connectivity" format="ascii" RangeMin="0" RangeMax="12">
          0 11 12 1 11 0
          2 1 0 4 3 2
          3 1 2 6 5 4
          5 3 4 8 7 6
          7 5 6 10 9 8
          9 7 8
        </DataArray>
        <DataArray type="Int64" Name="offsets" format="ascii" RangeMin="3" RangeMax="33">
          3 6 9 12 15 18
          21 24 27 30 33
        </DataArray>
        <DataArray type="UInt8" Name="types" format="ascii" RangeMin="5" RangeMax="5">
          5 5 5 5 5 5
          5 5 5 5 5
        </DataArray>
      </Cells>
    </Piece>
  </UnstructuredGrid>
</VTKFile>
