<?xml version="1.0"?>
<VTKFile type="UnstructuredGrid" version="0.1" byte_order="LittleEndian" header_type="UInt32" compressor="vtkZLibDataCompressor">
  <UnstructuredGrid>
    <Piece NumberOfPoints="13" NumberOfCells="11">
      <PointData>
        <DataArray type="Float64" Name="Disp" NumberOfComponents="3" format="ascii" RangeMin="0.013367214265343092" RangeMax="0.06882413262560301">
          0.0014614649546022885 0.020576652202270795 0 -0.0031055463479283817 0.028874904798651242 0
          0.0013755384553421953 0.029080207109613194 0 -0.003734470812634956 0.038261084328332126 0
          0.0011231669258430926 0.03850175388502269 0 -0.004333491523765288 0.04823104757690452 0
          0.0007276409344564004 0.048491478051265316 0 -0.004877172532185478 0.0584395062898033 0
          0.00021132526491996276 0.0587015430885299 0 -0.005356425758479019 0.06856904349878563 0
          -0.00031506375639327156 0.06882341147092318 0 -0.0024794777788816817 0.020417781131805014 0
          0.0013839946351328076 0.013295374235632311 0
          <InformationKey name="L2_NORM_RANGE" location="vtkDataArray" length="2">
            <Value index="0">
              0.013367214265
            </Value>
            <Value index="1">
              0.068824132626
            </Value>
          </InformationKey>
        </DataArray>
        <DataArray type="Float64" Name="Nodal Stress" NumberOfComponents="6" format="ascii" RangeMin="1213.0830376420922" RangeMax="22175.212995081343">
          18169.06521016288 377.06688754712786 0 1118.5739274874484 0 0
          -12625.22072198383 -942.1189809412735 0 2263.2810683888474 0 0
          13692.134953014698 194.62647575342507 0 1479.831622520685 0 0
          -8309.165721299894 -716.5624308704439 0 2212.2056513673256 0 0
          9066.978936053976 17.303708386713527 0 1530.4013072253922 0 0
          -4520.303106809175 -534.0762687516444 0 1887.7920812506086 0 0
          5148.999339009702 -29.731717158987905 0 1369.2638971805432 0 0
          -1910.9718498404563 -309.0147158729694 0 1104.1660992795603 0 0
          2282.493573838604 -25.48890820288287 0 657.1107835869105 0 0
          -1053.4485755830333 -123.33570177167528 0 588.7315682766912 0 0
          1796.6056360503705 382.6254027339964 0 684.3049691969203 0 0
          -16888.87642335902 -1163.041775007776 0 2149.544228806073 0 0
          22160.11207484193 587.4262235242866 0 569.5916428330988 0 0
          <InformationKey name="L2_NORM_RANGE" location="vtkDataArray" length="2">
            <Value index="0">
              1213.0830376
            </Value>
            <Value index="1">
              22175.212995
            </Value>
          </InformationKey>
        </DataArray>
        <DataArray type="Float64" Name="Nodal Strain" NumberOfComponents="6" format="ascii" RangeMin="0" RangeMax="0">
          0 0 0 0 0 0
          0 0 0 0 0 0
          0 0 0 0 0 0
          0 0 0 0 0 0
          0 0 0 0 0 0
          0 0 0 0 0 0
          0 0 0 0 0 0
          0 0 0 0 0 0
          0 0 0 0 0 0
          0 0 0 0 0 0
          0 0 0 0 0 0
          0 0 0 0 0 0
          0 0 0 0 0 0
          <InformationKey name="L2_NORM_RANGE" location="vtkDataArray" length="2">
            <Value index="0">
              0
            </Value>
            <Value index="1">
              0
            </Value>
          </InformationKey>
        </DataArray>
        <DataArray type="Float64" Name="Sld_traction" NumberOfComponents="3" format="ascii" RangeMin="100.73233752549544" RangeMax="8258.844839392024">
          3977.7069740255347 -1803.1450869170353 0 6843.062123925602 -2445.1425656149895 0
          2693.2138884730985 -1146.7040694130226 0 5569.121022573877 -1815.1400544459395 0
          1382.9580435407304 -580.9805775061561 0 3847.1954239368724 -1262.393369841186 0
          235.23385602299334 -229.68871676723904 0 2015.4058789993708 -698.5948822434517 0
          -4.441709356847246 -164.97519119129723 0 254.23214349857298 -113.58705494068334 0
          -41.33599648724049 -91.8604333636478 0 7670.882218200417 -3060.405867797426 0
          5070.9654808873665 -2473.4075730843597 0
          <InformationKey name="L2_NORM_RANGE" location="vtkDataArray" length="2">
            <Value index="0">
              100.73233753
            </Value>
            <Value index="1">
              8258.8448394
            </Value>
          </InformationKey>
        </DataArray>
        <DataArray type="Float64" Name="Velocity" NumberOfComponents="3" format="ascii" RangeMin="2.9601562957448726" RangeMax="17.037679148432908">
          -0.22232021536681834 -4.698962364678978 0 1.000161677449353 -6.702543117161728 0
          -0.11993647969723797 -6.805446598283783 0 1.2915777621021491 -9.067675819562766 0
          0.053555552011671614 -9.19228199081519 0 1.5916341916007304 -11.622097684619042 0
          0.2867635781747659 -11.75966574787607 0 1.8817414986396317 -14.260333321590807 0
          0.565333872821641 -14.399969963237517 0 2.1478744225545663 -16.880182306869557 0
          0.8453115060482237 -17.016696483826934 0 0.7363704190886979 -4.6228929253437645 0
          -0.2557516192898025 -2.94908738501738 0
          <InformationKey name="L2_NORM_RANGE" location="vtkDataArray" length="2">
            <Value index="0">
              2.9601562957
            </Value>
            <Value index="1">
              17.037679148
            </Value>
          </InformationKey>
        </DataArray>
        <DataArray type="Float64" Name="Acceleration" NumberOfComponents="3" format="ascii" RangeMin="127.5381822230865" RangeMax="1259.0511931752644">
          -91.64765425368137 335.3008085570618 0 -38.97399915418555 154.19681014148227 0
          -149.71918125513912 169.4748013676508 0 -44.85711301182255 -119.3893937375251 0
          -202.63305281198703 -104.64489213405614 0 -58.49801578102233 -470.5717371435312 0
          -245.36859978060977 -456.55508506319893 0 -81.84351440454884 -858.1747228759486 0
          -274.2510793166489 -844.3760155640048 0 -114.32903826003349 -1236.8793686656136 0
          -300.8218902696035 -1222.5858241328824 0 -38.11687591476766 320.49248810754943 0
          -36.69852596854139 382.5800665926363 0
          <InformationKey name="L2_NORM_RANGE" location="vtkDataArray" length="2">
            <Value index="0">
              127.53818222
            </Value>
            <Value index="1">
              1259.0511932
            </Value>
          </InformationKey>
        </DataArray>
        <DataArray type="Float64" Name="Sigma" NumberOfComponents="6" format="ascii" RangeMin="1617.5729384595884" RangeMax="43076.94055964664">
          24735.469976102402 -24735.469976101765 0 72.428027639363 0 0
          -19573.51686606855 19573.51686606682 0 3198.350169474928 0 0
          18305.913542713057 -18305.913542712085 0 743.708774424845 0 0
          -13152.59599521847 13152.595995219404 0 2937.5584861539146 0 0
          11766.741574364141 -11766.741574363361 0 958.8836625054547 0 0
          -7277.9557695807825 7277.955769579813 0 2322.135906687334 0 0
          6212.876504292115 -6212.876504287274 0 1351.0350669513873 0 0
          -3076.9593137886163 3076.9593137855636 0 1164.83812574679 0 0
          2729.488768284978 -2729.488768291925 0 391.85356656810694 0 0
          -1757.3901516137646 1757.3901516205035 0 453.8794790038195 0 0
          927.9309249814822 -927.9309249799489 0 945.7434156078774 0 0
          -25727.14001261301 25727.14001261295 0 3408.609204869353 0 0
          30452.49860991536 -30452.498609915885 0 -955.7535275915573 0 0
          <InformationKey name="L2_NORM_RANGE" location="vtkDataArray" length="2">
            <Value index="0">
              1617.5729385
            </Value>
            <Value index="1">
              43076.94056
            </Value>
          </InformationKey>
        </DataArray>
        <DataArray type="Float64" Name="Press" format="ascii" RangeMin="-28547.97962636191" RangeMax="32865.32218036166">
          26547.539523983807 -21744.80827873878 19513.06429957242 -14660.447527900033 12396.790819535208 -8338.601346379384
          6566.473036930427 -3583.3868074202464 2754.6276472805903 -2123.937209016772 1863.8858196517435 -28547.97962636191
          32865.32218036166
        </DataArray>
        <DataArray type="Float64" Name="Dev strain" NumberOfComponents="6" format="ascii" RangeMin="0" RangeMax="0">
          0 0 0 0 0 0
          0 0 0 0 0 0
          0 0 0 0 0 0
          0 0 0 0 0 0
          0 0 0 0 0 0
          0 0 0 0 0 0
          0 0 0 0 0 0
          0 0 0 0 0 0
          0 0 0 0 0 0
          0 0 0 0 0 0
          0 0 0 0 0 0
          0 0 0 0 0 0
          0 0 0 0 0 0
          <InformationKey name="L2_NORM_RANGE" location="vtkDataArray" length="2">
            <Value index="0">
              0
            </Value>
            <Value index="1">
              0
            </Value>
          </InformationKey>
        </DataArray>
        <DataArray type="Float64" Name="J2 Stresses" format="ascii" RangeMin="1084663.4535769802" RangeMax="927583037.788289">
          611844786.3934445 385679923.45788133 335244746.31855667 175148093.87834296 138686071.74741527 54316718.97624879
          39056158.39558801 9806890.583499443 7488496.240620847 3139921.790366088 1084663.4535769802 664790387.406472
          927583037.788289
        </DataArray>
      </PointData>
      <CellData>
        <DataArray type="UInt8" Name="vtkGhostType" format="ascii" RangeMin="0" RangeMax="1">
          1 1 0 0 0 0
          0 0 0 0 0
        </DataArray>
        <DataArray type="Float64" Name="Gauss Stress" NumberOfComponents="6" format="ascii" RangeMin="1594.2756572737494" RangeMax="20131.621863319266">
          20108.570217129443 468.01783485962244 0 841.7612349723861 0 0
          -14770.145094565345 -1060.0204928462913 0 2226.4624673278818 0 0
          15927.887399188121 282.64296402347287 0 1338.1623238463785 0 0
          11389.822237688775 109.7828231171842 0 1546.7169743614047 0 0
          -10437.463608546783 -823.9973961640849 0 2293.205810017896 0 0
          7108.774939720576 -25.666599661523065 0 1544.018212048059 0 0
          -6422.0227483931085 -646.1492881027841 0 2072.8593517822346 0 0
          3867.7066118597495 -42.56402733428803 0 969.2422530887613 0 0
          -3165.851231982164 -404.4921792636999 0 1612.6696997951703 0 0
          1464.868599856086 198.18223875473046 0 597.1588203932679 0 0
          -1685.852355424611 -282.61189068076214 0 670.1903904395721 0 0
          <InformationKey name="L2_NORM_RANGE" location="vtkDataArray" length="2">
            <Value index="0">
              1594.2756573
            </Value>
            <Value index="1">
              20131.621863
            </Value>
          </InformationKey>
        </DataArray>
        <DataArray type="Float64" Name="Gauss Strain" NumberOfComponents="6" format="ascii" RangeMin="0" RangeMax="0">
          0 0 0 0 0 0
          0 0 0 0 0 0
          0 0 0 0 0 0
          0 0 0 0 0 0
          0 0 0 0 0 0
          0 0 0 0 0 0
          0 0 0 0 0 0
          0 0 0 0 0 0
          0 0 0 0 0 0
          0 0 0 0 0 0
          0 0 0 0 0 0
          <InformationKey name="L2_NORM_RANGE" location="vtkDataArray" length="2">
            <Value index="0">
              0
            </Value>
            <Value index="1">
              0
            </Value>
          </InformationKey>
        </DataArray>
      </CellData>
      <Points>
        <DataArray type="Float32" Name="Points" NumberOfComponents="3" format="ascii" RangeMin="0.4000000059604645" RangeMax="1.0012492197622458">
          0.5 0 0 0.6000000238418579 0.05000000074505806 0
          0.6000000238418579 0 0 0.699999988079071 0.05000000074505806 0
          0.699999988079071 0 0 0.800000011920929 0.05000000074505806 0
          0.800000011920929 0 0 0.8999999761581421 0.05000000074505806 0
          0.8999999761581421 0 0 1 0.05000000074505806 0
          1 0 0 0.5 0.05000000074505806 0
          0.4000000059604645 0 0
          <InformationKey name="L2_NORM_RANGE" location="vtkDataArray" length="2">
            <Value index="0">
              0.40000000596
            </Value>
            <Value index="1">
              1.0012492198
            </Value>
          </InformationKey>
        </DataArray>
      </Points>
      <Cells>
        <DataArray type="Int64" Name="connectivity" format="ascii" RangeMin="0" RangeMax="12">
          0 11 12 1 11 0
          2 1 0 4 3 2
          3 1 2 6 5 4
          5 3 4 8 7 6
          7 5 6 10 9 8
          9 7 8
        </DataArray>
        <DataArray type="Int64" Name="offsets" format="ascii" RangeMin="3" RangeMax="33">
          3 6 9 12 15 18
          21 24 27 30 33
        </DataArray>
        <DataArray type="UInt8" Name="types" format="ascii" RangeMin="5" RangeMax="5">
          5 5 5 5 5 5
          5 5 5 5 5
        </DataArray>
      </Cells>
    </Piece>
  </UnstructuredGrid>
</VTKFile>
