<?xml version="1.0"?>
<VTKFile type="UnstructuredGrid" version="0.1" byte_order="LittleEndian" header_type="UInt32" compressor="vtkZLibDataCompressor">
  <UnstructuredGrid>
    <Piece NumberOfPoints="13" NumberOfCells="11">
      <PointData>
        <DataArray type="Float64" Name="Disp" NumberOfComponents="3" format="ascii" RangeMin="0.031779746956785364" RangeMax="0.13671005594111818">
          0.0013423702577488295 0.04688392094763254 0 -0.008353196269696292 0.06288280212217381 0
          0.00027194509055388394 0.06363756466478417 0 -0.01013733682157149 0.08058881308921634 0
          -0.001114233052274261 0.08141418893910217 0 -0.01191532406023348 0.09887134358346873 0
          -0.0027097696952979805 0.0997294190709124 0 -0.013648188805734656 0.11734621710786135 0
          -0.004433565810618001 0.11820439351633039 0 -0.015314555093111115 0.1357247473698261 0
          -0.006150851791379802 0.13657161644230525 0 -0.006621093029401373 0.046240637729590375 0
          0.0020069825456207305 0.031716310278764814 0
          <InformationKey name="L2_NORM_RANGE" location="vtkDataArray" length="2">
            <Value index="0">
              0.031779746957
            </Value>
            <Value index="1">
              0.13671005594
            </Value>
          </InformationKey>
        </DataArray>
        <DataArray type="Float64" Name="Nodal Stress" NumberOfComponents="6" format="ascii" RangeMin="1289.6667492158483" RangeMax="32066.8244428525">
          22697.323100450947 734.3054063814884 0 4014.267650176697 0 0
          -15804.340950682712 -847.4900507186085 0 2581.3694114309615 0 0
          15078.347713468193 553.9967186435066 0 3424.5806455972897 0 0
          -9679.051535158504 -481.6157041724139 0 2183.3061117721463 0 0
          8944.766785454665 348.3111667624764 0 2596.72256634146 0 0
          -5115.879026123278 -282.3873861135161 0 1659.0951019234815 0 0
          4657.3156624177345 255.18318595491456 0 1821.2163067254992 0 0
          -2217.1995665427653 -162.74888753450125 0 845.040102160136 0 0
          1938.2243421474443 83.8193274395577 0 749.8756306743619 0 0
          -1238.1554784430361 -47.02677411428603 0 357.77062169897954 0 0
          1981.8546262380278 707.7664045976423 0 1003.4071236877509 0 0
          -23356.09889373144 -1406.1659992289995 0 2930.6928729839033 0 0
          31771.708333630362 840.2762230052141 0 4258.37002625389 0 0
          <InformationKey name="L2_NORM_RANGE" location="vtkDataArray" length="2">
            <Value index="0">
              1289.6667492
            </Value>
            <Value index="1">
              32066.824443
            </Value>
          </InformationKey>
        </DataArray>
        <DataArray type="Float64" Name="Nodal Strain" NumberOfComponents="6" format="ascii" RangeMin="0" RangeMax="0">
          0 0 0 0 0 0
          0 0 0 0 0 0
          0 0 0 0 0 0
          0 0 0 0 0 0
          0 0 0 0 0 0
          0 0 0 0 0 0
          0 0 0 0 0 0
          0 0 0 0 0 0
          0 0 0 0 0 0
          0 0 0 0 0 0
          0 0 0 0 0 0
          0 0 0 0 0 0
          0 0 0 0 0 0
          <InformationKey name="L2_NORM_RANGE" location="vtkDataArray" length="2">
            <Value index="0">
              0
            </Value>
            <Value index="1">
              0
            </Value>
          </InformationKey>
        </DataArray>
        <DataArray type="Float64" Name="Sld_traction" NumberOfComponents="3" format="ascii" RangeMin="123.15382368167649" RangeMax="13943.426904886126">
          5071.828275344448 -1694.2423200248231 0 10046.8821755566 -2569.665175388142 0
          2982.67175109496 -966.4885585380109 0 6956.562327884841 -1649.0134543140553 0
          1311.217053732715 -484.471079255635 0 4163.670265793515 -1045.450345878539 0
          123.5555412066509 -243.1234912969199 0 1915.0508238150412 -543.4983596024045 0
          -69.16740455285029 -196.58924478284948 0 147.7114039155309 -105.49541811018351 0
          -26.06434892779715 -120.36408933891992 0 13409.751370095883 -3820.6965391292056 0
          7467.269437299039 -2663.56550201977 0
          <InformationKey name="L2_NORM_RANGE" location="vtkDataArray" length="2">
            <Value index="0">
              123.15382368
            </Value>
            <Value index="1">
              13943.426905
            </Value>
          </InformationKey>
        </DataArray>
        <DataArray type="Float64" Name="Velocity" NumberOfComponents="3" format="ascii" RangeMin="3.986109143051254" RangeMax="10.228778441397624">
          0.25924630126466747 -5.340878931843967 0 1.0711571898823662 -6.454600081099052 0
          0.505599526221934 -6.554438920391725 0 1.219615736139743 -7.506964545685655 0
          0.7345833154412356 -7.59599318884802 0 1.3587283537634516 -8.414499050416197 0
          0.9307102286145144 -8.494288621112375 0 1.5032761899893927 -9.242086897447052 0
          1.0908200778066814 -9.319003443805542 0 1.6652324720179053 -10.07427344871418 0
          1.2444543097573275 -10.152794781444527 0 0.903412026728664 -5.235225168764899 0
          0.028709408111418422 -3.9860057539098825 0
          <InformationKey name="L2_NORM_RANGE" location="vtkDataArray" length="2">
            <Value index="0">
              3.9861091431
            </Value>
            <Value index="1">
              10.228778441
            </Value>
          </InformationKey>
        </DataArray>
        <DataArray type="Float64" Name="Acceleration" NumberOfComponents="3" format="ascii" RangeMin="321.2824708539986" RangeMax="999.2137565474138">
          -51.20330753897417 -438.80328473568807 0 13.500058203375374 -554.803087635024 0
          -44.919069474970684 -559.2758619404194 0 23.39159248629221 -668.2997384732298 0
          -32.624567823636426 -674.9123913576186 0 36.72469595832263 -777.3962422100885 0
          -17.16541165797571 -785.0568890706345 0 52.07575570786139 -883.8256190452958 0
          -1.347167193542191 -891.6740107473743 0 68.11670784566377 -991.3321006631886 0
          14.148323742685534 -999.1135852388688 0 8.601541208812705 -437.4047839637715 0
          -49.812946806017635 -317.397379334725 0
          <InformationKey name="L2_NORM_RANGE" location="vtkDataArray" length="2">
            <Value index="0">
              321.28247085
            </Value>
            <Value index="1">
              999.21375655
            </Value>
          </InformationKey>
        </DataArray>
        <DataArray type="Float64" Name="Sigma" NumberOfComponents="6" format="ascii" RangeMin="2247.069048736336" RangeMax="61858.20906221451">
          30835.373115029328 -30835.373115027134 0 5403.858753830028 0 0
          -23749.934514285906 23749.934514280438 0 1372.9649759983038 0 0
          20198.589097824606 -20198.589097827804 0 4494.069701127136 0 0
          -14609.542311823036 14609.54231182665 0 1385.8988049957297 0 0
          11704.262815452266 -11704.2628154529 0 3198.3204056744084 0 0
          -7661.33462794021 7661.334627938039 0 1121.334302409801 0 0
          5653.6647460690965 -5653.66474606747 0 2457.4238887254783 0 0
          -3158.65378851015 3158.6537885037033 0 482.5720289343061 0 0
          2419.3947800302576 -2419.3947800322535 0 702.0037757856868 0 0
          -1859.437775008246 1859.4377750235958 0 -194.2623541963735 0 0
          994.1097191205993 -994.1097191448364 0 1752.9435365808447 0 0
          -34909.389198893645 34909.38919889224 0 1543.527579362192 0 0
          43573.19573267659 -43573.195732676344 0 5402.893268274746 0 0
          <InformationKey name="L2_NORM_RANGE" location="vtkDataArray" length="2">
            <Value index="0">
              2247.0690487
            </Value>
            <Value index="1">
              61858.209062
            </Value>
          </InformationKey>
        </DataArray>
        <DataArray type="Float64" Name="Press" format="ascii" RangeMin="-38465.12996676465" RangeMax="46859.34613047257">
          33421.95994823132 -26068.49061315067 21925.925858166098 -15959.710158905695 12727.218929528644 -8529.097708563542
          6400.156896838145 -3531.4487902225364 2460.1206453118934 -2282.1691406806194 2600.6452785288125 -38465.12996676465
          46859.34613047257
        </DataArray>
        <DataArray type="Float64" Name="Dev strain" NumberOfComponents="6" format="ascii" RangeMin="0" RangeMax="0">
          0 0 0 0 0 0
          0 0 0 0 0 0
          0 0 0 0 0 0
          0 0 0 0 0 0
          0 0 0 0 0 0
          0 0 0 0 0 0
          0 0 0 0 0 0
          0 0 0 0 0 0
          0 0 0 0 0 0
          0 0 0 0 0 0
          0 0 0 0 0 0
          0 0 0 0 0 0
          0 0 0 0 0 0
          <InformationKey name="L2_NORM_RANGE" location="vtkDataArray" length="2">
            <Value index="0">
              0
            </Value>
            <Value index="1">
              0
            </Value>
          </InformationKey>
        </DataArray>
        <DataArray type="Float64" Name="J2 Stresses" format="ascii" RangeMin="1756456.8942842712" RangeMax="1905921200.275227">
          958120657.5008423 564530647.6390686 413032167.1624708 213918905.4354226 139547081.40752435 59010395.93569934
          33473658.10315501 10035312.696426602 5976673.426946828 3466943.3047206383 1756456.8942842712 1219261073.5868459
          1905921200.275227
        </DataArray>
      </PointData>
      <CellData>
        <DataArray type="UInt8" Name="vtkGhostType" format="ascii" RangeMin="0" RangeMax="1">
          1 1 0 0 0 0
          0 0 0 0 0
        </DataArray>
        <DataArray type="Float64" Name="Gauss Stress" NumberOfComponents="6" format="ascii" RangeMin="1679.3564710930864" RangeMax="27426.842005075054">
          27105.118586917175 772.332154376002 0 4116.759867155655 0 0
          -19645.203743278078 -1095.9033445128198 0 2773.450436396841 0 0
          18854.474297271605 665.1224982240831 0 3756.9644769851566 0 0
          11995.581410080966 466.70834244499804 0 3026.0963039324242 0 0
          -12754.387547391536 -647.1290618703266 0 2417.64449404039 0 0
          6764.957017128135 300.5617280736394 0 2259.026198936562 0 0
          -7442.7343540838565 -398.3249378762661 0 1901.8511710266462 0 0
          3414.4114965055687 138.14100477716062 0 1213.9998978151566 0 0
          -3608.904424109732 -164.68864385788672 0 1353.776740023195 0 0
          1444.2211691008995 408.176686335531 0 753.561652723386 0 0
          -1984.0646896931346 -251.6001673654057 0 330.10448350787306 0 0
          <InformationKey name="L2_NORM_RANGE" location="vtkDataArray" length="2">
            <Value index="0">
              1679.3564711
            </Value>
            <Value index="1">
              27426.842005
            </Value>
          </InformationKey>
        </DataArray>
        <DataArray type="Float64" Name="Gauss Strain" NumberOfComponents="6" format="ascii" RangeMin="0" RangeMax="0">
          0 0 0 0 0 0
          0 0 0 0 0 0
          0 0 0 0 0 0
          0 0 0 0 0 0
          0 0 0 0 0 0
          0 0 0 0 0 0
          0 0 0 0 0 0
          0 0 0 0 0 0
          0 0 0 0 0 0
          0 0 0 0 0 0
          0 0 0 0 0 0
          <InformationKey name="L2_NORM_RANGE" location="vtkDataArray" length="2">
            <Value index="0">
              0
            </Value>
            <Value index="1">
              0
            </Value>
          </InformationKey>
        </DataArray>
      </CellData>
      <Points>
        <DataArray type="Float32" Name="Points" NumberOfComponents="3" format="ascii" RangeMin="0.4000000059604645" RangeMax="1.0012492197622458">
          0.5 0 0 0.6000000238418579 0.05000000074505806 0
          0.6000000238418579 0 0 0.699999988079071 0.05000000074505806 0
          0.699999988079071 0 0 0.800000011920929 0.05000000074505806 0
          0.800000011920929 0 0 0.8999999761581421 0.05000000074505806 0
          0.8999999761581421 0 0 1 0.05000000074505806 0
          1 0 0 0.5 0.05000000074505806 0
          0.4000000059604645 0 0
          <InformationKey name="L2_NORM_RANGE" location="vtkDataArray" length="2">
            <Value index="0">
              0.40000000596
            </Value>
            <Value index="1">
              1.0012492198
            </Value>
          </InformationKey>
        </DataArray>
      </Points>
      <Cells>
        <DataArray type="Int64" Name="connectivity" format="ascii" RangeMin="0" RangeMax="12">
          0 11 12 1 11 0
          2 1 0 4 3 2
          3 1 2 6 5 4
          5 3 4 8 7 6
          7 5 6 10 9 8
          9 7 8
        </DataArray>
        <DataArray type="Int64" Name="offsets" format="ascii" RangeMin="3" RangeMax="33">
          3 6 9 12 15 18
          21 24 27 30 33
        </DataArray>
        <DataArray type="UInt8" Name="types" format="ascii" RangeMin="5" RangeMax="5">
          5 5 5 5 5 5
          5 5 5 5 5
        </DataArray>
      </Cells>
    </Piece>
  </UnstructuredGrid>
</VTKFile>
