<?xml version="1.0"?>
<VTKFile type="UnstructuredGrid" version="0.1" byte_order="LittleEndian" header_type="UInt32" compressor="vtkZLibDataCompressor">
  <UnstructuredGrid>
    <Piece NumberOfPoints="13" NumberOfCells="11">
      <PointData>
        <DataArray type="Float64" Name="Disp" NumberOfComponents="3" format="ascii" RangeMin="0" RangeMax="0.04406514073564424">
          0 0 0 0 0 0
          0.0005911109427353856 -0.0010733721480127385 0 -0.0006311891534027103 -0.0010563384731605 0
          0.0011962326825994394 -0.0049733496119437285 0 -0.00139846664357413 -0.00491334050665488 0
          0.0016112587049654072 -0.011477551132785977 0 -0.0022280162270474266 -0.011331403177426617 0
          0.0017787490073935732 -0.020379856201736938 0 -0.0031812537051937578 -0.020136666266060355 0
          0.0016534631904721964 -0.03136633993817254 0 -0.00425297986770115 -0.031018507408049692 0
          0.0012232711129127713 -0.04404815814351886 0
          <InformationKey name="L2_NORM_RANGE" location="vtkDataArray" length="2">
            <Value index="0">
              0
            </Value>
            <Value index="1">
              0.044065140736
            </Value>
          </InformationKey>
        </DataArray>
        <DataArray type="Float64" Name="Nodal Stress" NumberOfComponents="6" format="ascii" RangeMin="24300.49207069691" RangeMax="70692.78840386005">
          68844.6393348095 792.0647493040402 0 -16039.283045256121 0 0
          -36148.22093804296 -3680.153314618049 0 1982.3402120816988 0 0
          52330.230858014926 3091.559652020217 0 -4868.599829640865 0 0
          -47065.37402843628 -2296.9027471098493 0 4273.122063259106 0 0
          45464.97773434093 2699.7778923532837 0 -7454.66795944772 0 0
          -45144.63117344815 -2781.449907705645 0 4224.31214346878 0 0
          42895.79655435442 3258.9780494621155 0 -7886.859664403891 0 0
          -41419.924889251175 -2303.0070770988154 0 4660.505635878193 0 0
          37305.807635529156 3596.2335715548443 0 -8652.320152138158 0 0
          -36824.691808583724 -1913.4132555672868 0 4299.973438188544 0 0
          30625.980527524192 3870.8823654300045 0 -8651.662098409442 0 0
          -30623.433152108548 -1219.7811272564306 0 3518.3997463370874 0 0
          22630.223095382604 3840.107533911145 0 -7977.499085503805 0 0
          <InformationKey name="L2_NORM_RANGE" location="vtkDataArray" length="2">
            <Value index="0">
              24300.492071
            </Value>
            <Value index="1">
              70692.788404
            </Value>
          </InformationKey>
        </DataArray>
        <DataArray type="Float64" Name="Nodal Strain" NumberOfComponents="6" format="ascii" RangeMin="0" RangeMax="0">
          0 0 0 0 0 0
          0 0 0 0 0 0
          0 0 0 0 0 0
          0 0 0 0 0 0
          0 0 0 0 0 0
          0 0 0 0 0 0
          0 0 0 0 0 0
          0 0 0 0 0 0
          0 0 0 0 0 0
          0 0 0 0 0 0
          0 0 0 0 0 0
          0 0 0 0 0 0
          0 0 0 0 0 0
          <InformationKey name="L2_NORM_RANGE" location="vtkDataArray" length="2">
            <Value index="0">
              0
            </Value>
            <Value index="1">
              0
            </Value>
          </InformationKey>
        </DataArray>
        <DataArray type="Float64" Name="Sld_traction" NumberOfComponents="3" format="ascii" RangeMin="6698.4253985968835" RangeMax="30873.951739161468">
          -29508.432051897296 9080.381810839886 0 10036.294953419781 7269.552359688392 0
          -11867.510753915614 8443.838994483398 0 -10511.016281916643 7883.097808278026 0
          -11128.518513126022 7258.468970272177 0 -9367.271804196942 7405.805466929999 0
          -10620.163606078886 7357.337471709261 0 -8118.30871550351 6748.604763678284 0
          -10378.07074300407 7138.218424104397 0 -6622.611794468716 5792.497017306189 0
          -9925.88348196402 6719.629863965591 0 -4975.96209386777 4484.272969050713 0
          -9117.502869869864 5931.877926942847 0
          <InformationKey name="L2_NORM_RANGE" location="vtkDataArray" length="2">
            <Value index="0">
              6698.4253986
            </Value>
            <Value index="1">
              30873.951739
            </Value>
          </InformationKey>
        </DataArray>
        <DataArray type="Float64" Name="Velocity" NumberOfComponents="3" format="ascii" RangeMin="0" RangeMax="8.151347390194598">
          0 0 0 0 0 0
          -0.19218441291374322 0.40784679756037223 0 0.24468264358374026 0.4008277896871132 0
          -0.3165676352427583 1.7117098640825965 0 0.4398243066200158 1.6758886076648398 0
          -0.26178987759380945 3.3820559888546846 0 0.5928816314182799 3.3164079274234926 0
          -0.10386691862600828 5.130385975664371 0 0.7391678136698538 5.0458318334565 0
          0.11833518239779328 6.7532922570516085 0 0.8708713372702008 6.661920319920643 0
          0.35705517562129874 8.143523554162186 0
          <InformationKey name="L2_NORM_RANGE" location="vtkDataArray" length="2">
            <Value index="0">
              0
            </Value>
            <Value index="1">
              8.1513473902
            </Value>
          </InformationKey>
        </DataArray>
        <DataArray type="Float64" Name="Acceleration" NumberOfComponents="3" format="ascii" RangeMin="0" RangeMax="626.8861397689884">
          0 0 0 0 0 0
          32.98388215574096 -86.06598427522749 0 -52.39194324002483 -81.56482342797608 0
          15.632813218136107 -321.88330701812083 0 -99.84593249627778 -302.01869660180273 0
          -53.33906566170526 -531.3440295957807 0 -127.79766372291306 -507.63254159774806 0
          -136.36881879064526 -611.8739882493028 0 -134.75066691432312 -596.685932221335 0
          -200.0727625922707 -514.0367399699899 0 -107.92002578440042 -514.8514842481891 0
          -226.1019958091428 -230.53695293952478 0
          <InformationKey name="L2_NORM_RANGE" location="vtkDataArray" length="2">
            <Value index="0">
              0
            </Value>
            <Value index="1">
              626.88613977
            </Value>
          </InformationKey>
        </DataArray>
        <DataArray type="Float64" Name="Sigma" NumberOfComponents="6" format="ascii" RangeMin="49027.89501635205" RangeMax="103949.81061374153">
          65699.44229563074 -65699.44229562928 0 -34250.39882482962 0 0
          -68467.36487534913 68467.36487535009 0 14182.51862172278 0 0
          73173.62945510069 -73173.62945510031 0 -9838.853153088026 0 0
          -68877.58156530738 68877.5815653072 0 13349.64137961576 0 0
          64254.05569999742 -64254.05569999723 0 -19864.726936841213 0 0
          -62927.562255228775 62927.56225522844 0 16671.32406578532 0 0
          60323.860737418225 -60323.860737416464 0 -20205.12073963699 0 0
          -57976.36342563872 57976.36342563764 0 17759.03533425385 0 0
          52463.11757341366 -52463.117573414085 0 -22097.47656902811 0 0
          -50361.45959945689 50361.45959945582 0 17600.78901760736 0 0
          43065.66081347811 -43065.66081347674 0 -21481.143092683684 0 0
          -41030.97271840942 41030.97271840883 0 15650.079975044264 0 0
          31925.026795619353 -31925.026795621136 0 -19113.341359696813 0 0
          <InformationKey name="L2_NORM_RANGE" location="vtkDataArray" length="2">
            <Value index="0">
              49027.895016
            </Value>
            <Value index="1">
              103949.81061
            </Value>
          </InformationKey>
        </DataArray>
        <DataArray type="Float64" Name="Press" format="ascii" RangeMin="-79918.72771066957" RangeMax="84080.64162116674">
          67555.74712886389 -79918.72771066957 84080.64162116674 -76240.41240858148 71561.2107832227 -71460.1204417042
          69601.2855888054 -66103.16951583188 61783.46116170524 -58033.94302637378 52495.76500842159 -47442.72923466599
          40547.299311549265
        </DataArray>
        <DataArray type="Float64" Name="Dev strain" NumberOfComponents="6" format="ascii" RangeMin="0" RangeMax="0">
          0 0 0 0 0 0
          0 0 0 0 0 0
          0 0 0 0 0 0
          0 0 0 0 0 0
          0 0 0 0 0 0
          0 0 0 0 0 0
          0 0 0 0 0 0
          0 0 0 0 0 0
          0 0 0 0 0 0
          0 0 0 0 0 0
          0 0 0 0 0 0
          0 0 0 0 0 0
          0 0 0 0 0 0
          <InformationKey name="L2_NORM_RANGE" location="vtkDataArray" length="2">
            <Value index="0">
              0
            </Value>
            <Value index="1">
              0
            </Value>
          </InformationKey>
        </DataArray>
        <DataArray type="Float64" Name="J2 Stresses" format="ascii" RangeMin="1110537290.3841448" RangeMax="5378580805.474359">
          4609689172.87179 4738066011.588135 5378580805.474359 4788674473.526645 4227235517.9671755 4029361352.91228
          3741029900.293149 3440104550.062495 2874453323.2015343 2613723556.4982567 1970011018.443573 1744771973.0251548
          1110537290.3841448
        </DataArray>
      </PointData>
      <CellData>
        <DataArray type="UInt8" Name="vtkGhostType" format="ascii" RangeMin="0" RangeMax="0">
          0 0 0 0 0 0
          0 0 0 0 0
        </DataArray>
        <DataArray type="Float64" Name="Gauss Stress" NumberOfComponents="6" format="ascii" RangeMin="28062.487625192512" RangeMax="49749.21781908691">
          -45416.60516121339 -2635.727170842445 0 5897.768949416839 0 0
          47374.45597158114 437.3180546605199 0 -9968.911118731625 0 0
          -47896.80339586724 -2862.7446488415244 0 3385.412836186624 0 0
          49317.18119519959 3617.1121353392077 0 -5451.312903437828 0 0
          -42847.356437393326 -2460.6464750936866 0 4741.746220134061 0 0
          43784.243370836935 2684.0072493795556 0 -7799.507870230962 0 0
          -39409.452277394135 -2159.6486429403476 0 4420.782594277702 0 0
          40030.730706623996 3490.3207831619548 0 -8181.187324803752 0 0
          -33769.22625233547 -1551.3785827434267 0 3923.241966655979 0 0
          33804.20064372932 3692.6547854393507 0 -8659.276881368147 0 0
          26520.016658664317 3880.206731538609 0 -8314.801492445413 0 0
          <InformationKey name="L2_NORM_RANGE" location="vtkDataArray" length="2">
            <Value index="0">
              28062.487625
            </Value>
            <Value index="1">
              49749.217819
            </Value>
          </InformationKey>
        </DataArray>
        <DataArray type="Float64" Name="Gauss Strain" NumberOfComponents="6" format="ascii" RangeMin="0" RangeMax="0">
          0 0 0 0 0 0
          0 0 0 0 0 0
          0 0 0 0 0 0
          0 0 0 0 0 0
          0 0 0 0 0 0
          0 0 0 0 0 0
          0 0 0 0 0 0
          0 0 0 0 0 0
          0 0 0 0 0 0
          0 0 0 0 0 0
          0 0 0 0 0 0
          <InformationKey name="L2_NORM_RANGE" location="vtkDataArray" length="2">
            <Value index="0">
              0
            </Value>
            <Value index="1">
              0
            </Value>
          </InformationKey>
        </DataArray>
      </CellData>
      <Points>
        <DataArray type="Float32" Name="Points" NumberOfComponents="3" format="ascii" RangeMin="0" RangeMax="0.6020797527609908">
          0 0.05000000074505806 0 0 0 0
          0.10000000149011612 0.05000000074505806 0 0.10000000149011612 0 0
          0.20000000298023224 0.05000000074505806 0 0.20000000298023224 0 0
          0.30000001192092896 0.05000000074505806 0 0.30000001192092896 0 0
          0.4000000059604645 0.05000000074505806 0 0.4000000059604645 0 0
          0.5 0.05000000074505806 0 0.5 0 0
          0.6000000238418579 0.05000000074505806 0
          <InformationKey name="L2_NORM_RANGE" location="vtkDataArray" length="2">
            <Value index="0">
              0
            </Value>
            <Value index="1">
              0.60207975276
            </Value>
          </InformationKey>
        </DataArray>
      </Points>
      <Cells>
        <DataArray type="Int64" Name="connectivity" format="ascii" RangeMin="0" RangeMax="12">
          3 2 1 2 0 1
          5 4 3 4 2 3
          7 6 5 6 4 5
          9 8 7 8 6 7
          11 10 9 10 8 9
          12 10 11
        </DataArray>
        <DataArray type="Int64" Name="offsets" format="ascii" RangeMin="3" RangeMax="33">
          3 6 9 12 15 18
          21 24 27 30 33
        </DataArray>
        <DataArray type="UInt8" Name="types" format="ascii" RangeMin="5" RangeMax="5">
          5 5 5 5 5 5
          5 5 5 5 5
        </DataArray>
      </Cells>
    </Piece>
  </UnstructuredGrid>
</VTKFile>
