<?xml version="1.0"?>
<VTKFile type="UnstructuredGrid" version="0.1" byte_order="LittleEndian" header_type="UInt32" compressor="vtkZLibDataCompressor">
  <UnstructuredGrid>
    <Piece NumberOfPoints="13" NumberOfCells="11">
      <PointData>
        <DataArray type="Float64" Name="Disp" NumberOfComponents="3" format="ascii" RangeMin="0.041077615518695404" RangeMax="0.1602401976959685">
          -0.008992152230788438 -0.05854565340696211 0 -0.0012573681567562057 -0.07884716931438096 0
          -0.011117198315800353 -0.07786592126854931 0 -0.0031632828602957772 -0.09891778247299128 0
          -0.013263509438601167 -0.09788642762556972 0 -0.005207800046139243 -0.11927045643327468 0
          -0.015395237103394134 -0.11822116268502408 0 -0.0073136587994861915 -0.13966627198821427 0
          -0.017485034370891855 -0.13862089313085554 0 -0.009421823794355858 -0.1599629650701411 0
          -0.01955901952294801 -0.15892328471325926 0 0.0003950634426462406 -0.0594339447964253 0
          -0.0069466830281210475 -0.04048597401086678 0
          <InformationKey name="L2_NORM_RANGE" location="vtkDataArray" length="2">
            <Value index="0">
              0.041077615519
            </Value>
            <Value index="1">
              0.1602401977
            </Value>
          </InformationKey>
        </DataArray>
        <DataArray type="Float64" Name="Nodal Stress" NumberOfComponents="6" format="ascii" RangeMin="331.7270220887369" RangeMax="44303.53492928068">
          -29290.064132664887 -654.8940353952244 0 4057.6979041325117 0 0
          17050.403142649284 5299.105317203111 0 -9027.921675492526 0 0
          -17927.03780137785 -104.47029344491006 0 2235.3734367134175 0 0
          9202.471871200883 3564.8263813308795 0 -5712.559534751696 0 0
          -9539.157502795484 259.1381034498456 0 912.2341594438516 0 0
          4053.255293494517 2110.7363567470666 0 -3170.225890989044 0 0
          -4119.563162330565 330.116507319899 0 139.23637073045856 0 0
          1311.3248610450523 952.1880997973495 0 -1375.5262487484367 0 0
          -1482.5900609609573 122.55586107119106 0 -51.485768302248545 0 0
          227.16073314243675 393.7616969878537 0 -616.4549656092825 0 0
          277.41507106256626 26.88974316647588 0 179.8906257803714 0 0
          28117.519938751575 7113.620132694284 0 -12911.642696683452 0 0
          -43880.54648362184 -1514.6048436172487 0 5916.656124567976 0 0
          <InformationKey name="L2_NORM_RANGE" location="vtkDataArray" length="2">
            <Value index="0">
              331.72702209
            </Value>
            <Value index="1">
              44303.534929
            </Value>
          </InformationKey>
        </DataArray>
        <DataArray type="Float64" Name="Nodal Strain" NumberOfComponents="6" format="ascii" RangeMin="0" RangeMax="0">
          0 0 0 0 0 0
          0 0 0 0 0 0
          0 0 0 0 0 0
          0 0 0 0 0 0
          0 0 0 0 0 0
          0 0 0 0 0 0
          0 0 0 0 0 0
          0 0 0 0 0 0
          0 0 0 0 0 0
          0 0 0 0 0 0
          0 0 0 0 0 0
          0 0 0 0 0 0
          0 0 0 0 0 0
          <InformationKey name="L2_NORM_RANGE" location="vtkDataArray" length="2">
            <Value index="0">
              0
            </Value>
            <Value index="1">
              0
            </Value>
          </InformationKey>
        </DataArray>
        <DataArray type="Float64" Name="Sld_traction" NumberOfComponents="3" format="ascii" RangeMin="73.32703352096661" RangeMax="15976.501332178874">
          -3561.0977392422847 3896.2132908646454 0 -9450.36180233992 6588.443707320225 0
          -1989.053463125129 2217.6193705088194 0 -6291.2339063801055 4284.9548866491505 0
          -929.6462213078476 1014.6018748936377 0 -3683.0744227906557 2438.420992134548 0
          -226.27851914936016 338.8835401202803 0 -1704.0751779756258 1116.1539494249703 0
          -119.43780240602615 165.18882012461896 0 -379.46980159404836 187.30444672844226 0
          67.77634502099104 27.9860840522668 0 -13050.02427431216 9216.586204065836 0
          -5644.290929110728 6100.816379122277 0
          <InformationKey name="L2_NORM_RANGE" location="vtkDataArray" length="2">
            <Value index="0">
              73.327033521
            </Value>
            <Value index="1">
              15976.501332
            </Value>
          </InformationKey>
        </DataArray>
        <DataArray type="Float64" Name="Velocity" NumberOfComponents="3" format="ascii" RangeMin="0.4121283157710607" RangeMax="10.778169085120567">
          -0.37899088294486827 0.4449606474736818 0 0.09013909011746046 -1.2807509128966643 0
          -0.8261608204507462 -1.0987008077718627 0 -0.22655026326986216 -3.366625352957257 0
          -1.3384793653398415 -3.140570471220741 0 -0.6553018380358755 -5.740536791535433 0
          -1.8714199102746587 -5.4916304049361955 0 -1.153755209686083 -8.219606761805224 0
          -2.378922029485154 -7.969618343985999 0 -1.668969460424334 -10.635636084281018 0
          -2.8676286662770654 -10.389688862511463 0 0.2532933488294099 0.3251034113925506 0
          -0.03731423186844163 1.3344166577765577 0
          <InformationKey name="L2_NORM_RANGE" location="vtkDataArray" length="2">
            <Value index="0">
              0.41212831577
            </Value>
            <Value index="1">
              10.778169085
            </Value>
          </InformationKey>
        </DataArray>
        <DataArray type="Float64" Name="Acceleration" NumberOfComponents="3" format="ascii" RangeMin="800.7400525073924" RangeMax="1166.5767945142945">
          132.53828487962983 1159.0233045717468 0 101.49900553934287 1135.817196089134 0
          82.09084019002512 1159.408341540795 0 45.20475324604081 1065.0604447924125 0
          4.4982092144691705 1102.9883386125439 0 -38.12617169565874 964.6498977366136 0
          -88.95627844243063 1010.6613765791117 0 -135.75672044305247 859.8169989110756 0
          -185.02447950689748 906.2939133393375 0 -229.88182680015143 767.032579097242 0
          -275.84380222055006 811.9209144334745 0 119.07894668638397 1153.3757995574852 0
          155.77882619552838 1073.6960870679177 0
          <InformationKey name="L2_NORM_RANGE" location="vtkDataArray" length="2">
            <Value index="0">
              800.74005251
            </Value>
            <Value index="1">
              1166.5767945
            </Value>
          </InformationKey>
        </DataArray>
        <DataArray type="Float64" Name="Sigma" NumberOfComponents="6" format="ascii" RangeMin="1083.4938370811385" RangeMax="82488.69800012582">
          -36107.205575392465 36107.20557539585 0 18929.457339889792 0 0
          22611.12045919492 -22611.120459196012 0 -20970.539590122375 0 0
          -21477.656189489415 21477.65618949093 0 11548.188916760097 0 0
          11895.215079619298 -11895.21507961886 0 -12665.152812558104 0 0
          -11066.33432429962 11066.334324308646 0 5939.522071356972 0 0
          4887.059845611331 -4887.0598456195985 0 -6530.074198947115 0 0
          -4500.770470201629 4500.770470201816 0 2167.2292829550147 0 0
          1564.6731740433647 -1564.673174041204 0 -2404.079294541892 0 0
          -1532.9471712987395 1532.9471712992176 0 597.1019481094758 0 0
          -52.02810585159798 52.02810584706132 0 -1080.9926213421952 0 0
          1043.0129664743213 -1043.0129664661677 0 601.7265881771026 0 0
          37957.791382341864 -37957.79138234529 0 -30691.882648524912 0 0
          -55099.12360439639 55099.123604396 0 27065.817072663867 0 0
          <InformationKey name="L2_NORM_RANGE" location="vtkDataArray" length="2">
            <Value index="0">
              1083.4938371
            </Value>
            <Value index="1">
              82488.698
            </Value>
          </InformationKey>
        </DataArray>
        <DataArray type="Float64" Name="Press" format="ascii" RangeMin="-66155.0457423756" RangeMax="53355.11797687179">
          -43589.13340251015 33486.86917522694 -26014.971539665024 18819.60671881941 -13243.16587730894 8654.519684807412
          -5183.561863459914 3080.226759564389 -1864.1449526215492 541.6322761606707 965.5611524564192 53355.11797687179
          -66155.0457423756
        </DataArray>
        <DataArray type="Float64" Name="Dev strain" NumberOfComponents="6" format="ascii" RangeMin="0" RangeMax="0">
          0 0 0 0 0 0
          0 0 0 0 0 0
          0 0 0 0 0 0
          0 0 0 0 0 0
          0 0 0 0 0 0
          0 0 0 0 0 0
          0 0 0 0 0 0
          0 0 0 0 0 0
          0 0 0 0 0 0
          0 0 0 0 0 0
          0 0 0 0 0 0
          0 0 0 0 0 0
          0 0 0 0 0 0
          <InformationKey name="L2_NORM_RANGE" location="vtkDataArray" length="2">
            <Value index="0">
              0
            </Value>
            <Value index="1">
              0
            </Value>
          </InformationKey>
        </DataArray>
        <DataArray type="Float64" Name="J2 Stresses" format="ascii" RangeMin="294843.18564733665" RangeMax="3219053035.4252563">
          1393311383.2594514 621203651.0954704 494629882.2082406 181597665.7317593 131283235.98630598 34543821.19556576
          21431155.51666426 3893101.455178817 2439059.714102572 294843.18564733665 1178394.7699548732 1676291841.753223
          3219053035.4252563
        </DataArray>
      </PointData>
      <CellData>
        <DataArray type="UInt8" Name="vtkGhostType" format="ascii" RangeMin="0" RangeMax="1">
          1 1 0 0 0 0
          0 0 0 0 0
        </DataArray>
        <DataArray type="Float64" Name="Gauss Stress" NumberOfComponents="6" format="ascii" RangeMin="308.4297824315713" RangeMax="36915.007176298706">
          -36545.866321820315 -1046.8411235224662 0 5101.130588009587 0 0
          22571.520005244303 6263.715827814376 0 -10910.988299585835 0 0
          -23696.992357545074 -381.1648204191615 0 3169.0355555091724 0 0
          -13695.768710774766 70.0815786753858 0 1607.519391852989 0 0
          13106.727901235374 4420.941668352459 0 -7362.50116197346 0 0
          -6817.417668283786 302.6122976431401 0 525.5590517882908 0 0
          6648.967042416296 2838.3399751293555 0 -4418.56831338275 0 0
          -2812.174841324693 167.18813698091827 0 120.08397884086628 0 0
          2834.0490434549856 1533.4073438176329 0 -2255.6414035113303 0 0
          -299.6379448934913 61.670262225217286 0 39.27863831479439 0 0
          579.1373266655128 592.6720620695284 0 -962.6566559248706 0 0
          <InformationKey name="L2_NORM_RANGE" location="vtkDataArray" length="2">
            <Value index="0">
              308.42978243
            </Value>
            <Value index="1">
              36915.007176
            </Value>
          </InformationKey>
        </DataArray>
        <DataArray type="Float64" Name="Gauss Strain" NumberOfComponents="6" format="ascii" RangeMin="0" RangeMax="0">
          0 0 0 0 0 0
          0 0 0 0 0 0
          0 0 0 0 0 0
          0 0 0 0 0 0
          0 0 0 0 0 0
          0 0 0 0 0 0
          0 0 0 0 0 0
          0 0 0 0 0 0
          0 0 0 0 0 0
          0 0 0 0 0 0
          0 0 0 0 0 0
          <InformationKey name="L2_NORM_RANGE" location="vtkDataArray" length="2">
            <Value index="0">
              0
            </Value>
            <Value index="1">
              0
            </Value>
          </InformationKey>
        </DataArray>
      </CellData>
      <Points>
        <DataArray type="Float32" Name="Points" NumberOfComponents="3" format="ascii" RangeMin="0.4000000059604645" RangeMax="1.0012492197622458">
          0.5 0 0 0.6000000238418579 0.05000000074505806 0
          0.6000000238418579 0 0 0.699999988079071 0.05000000074505806 0
          0.699999988079071 0 0 0.800000011920929 0.05000000074505806 0
          0.800000011920929 0 0 0.8999999761581421 0.05000000074505806 0
          0.8999999761581421 0 0 1 0.05000000074505806 0
          1 0 0 0.5 0.05000000074505806 0
          0.4000000059604645 0 0
          <InformationKey name="L2_NORM_RANGE" location="vtkDataArray" length="2">
            <Value index="0">
              0.40000000596
            </Value>
            <Value index="1">
              1.0012492198
            </Value>
          </InformationKey>
        </DataArray>
      </Points>
      <Cells>
        <DataArray type="Int64" Name="connectivity" format="ascii" RangeMin="0" RangeMax="12">
          0 11 12 1 11 0
          2 1 0 4 3 2
          3 1 2 6 5 4
          5 3 4 8 7 6
          7 5 6 10 9 8
          9 7 8
        </DataArray>
        <DataArray type="Int64" Name="offsets" format="ascii" RangeMin="3" RangeMax="33">
          3 6 9 12 15 18
          21 24 27 30 33
        </DataArray>
        <DataArray type="UInt8" Name="types" format="ascii" RangeMin="5" RangeMax="5">
          5 5 5 5 5 5
          5 5 5 5 5
        </DataArray>
      </Cells>
    </Piece>
  </UnstructuredGrid>
</VTKFile>
