<?xml version="1.0"?>
<VTKFile type="UnstructuredGrid" version="0.1" byte_order="LittleEndian" header_type="UInt32" compressor="vtkZLibDataCompressor">
  <UnstructuredGrid>
    <Piece NumberOfPoints="13" NumberOfCells="11">
      <PointData>
        <DataArray type="Float64" Name="Disp" NumberOfComponents="3" format="ascii" RangeMin="0.02140205410861795" RangeMax="0.09938668195311177">
          -0.004213791898659193 -0.03189956103094759 0 0.0011191084257051534 -0.0445181159206604 0
          -0.005277470993703766 -0.04410876637281431 0 0.00043813769043227636 -0.05782761829153748 0
          -0.006355493747117165 -0.05736551281049009 0 -0.00043601428998753375 -0.07166755493719007 0
          -0.00738525468207615 -0.07118374330439929 0 -0.0014191950427275112 -0.0855885535536225 0
          -0.008338809492642351 -0.08510823958542413 0 -0.002410806183183346 -0.09935743838886003 0
          -0.009278236098033526 -0.09888230189295737 0 0.001555434087063355 -0.03223253140766251 0
          -0.003221950407072567 -0.021158141592365228 0
          <InformationKey name="L2_NORM_RANGE" location="vtkDataArray" length="2">
            <Value index="0">
              0.021402054109
            </Value>
            <Value index="1">
              0.099386681953
            </Value>
          </InformationKey>
        </DataArray>
        <DataArray type="Float64" Name="Nodal Stress" NumberOfComponents="6" format="ascii" RangeMin="223.90188947946697" RangeMax="32985.14778312032">
          -26197.83288885097 -860.5083974015126 0 2711.107628104485 0 0
          18850.001924582284 3415.933048675162 0 -7028.756485421342 0 0
          -19026.000839973152 -136.94777486565653 0 1505.3899179448092 0 0
          11066.088218190574 2956.8168357872687 0 -5561.493010332122 0 0
          -11703.184821822364 433.28517822279775 0 367.74275158531145 0 0
          4844.411106320169 2094.199964795904 0 -3602.2122906692325 0 0
          -5543.736814195853 499.6602913174116 0 -228.63526438092933 0 0
          1400.794837375996 940.6574454004658 0 -1597.8671745434476 0 0
          -1871.8295748721182 114.05752892247294 0 -153.24423966002743 0 0
          255.00914807191208 291.44447905907515 0 -607.4627035054764 0 0
          86.40881755607899 -3.6114232338216645 0 206.52488950066507 0 0
          26750.000211893806 3575.9140406518254 0 -7900.848080021664 0 0
          -32759.488603272035 -1519.8230648833387 0 3539.2115757363026 0 0
          <InformationKey name="L2_NORM_RANGE" location="vtkDataArray" length="2">
            <Value index="0">
              223.90188948
            </Value>
            <Value index="1">
              32985.147783
            </Value>
          </InformationKey>
        </DataArray>
        <DataArray type="Float64" Name="Nodal Strain" NumberOfComponents="6" format="ascii" RangeMin="0" RangeMax="0">
          0 0 0 0 0 0
          0 0 0 0 0 0
          0 0 0 0 0 0
          0 0 0 0 0 0
          0 0 0 0 0 0
          0 0 0 0 0 0
          0 0 0 0 0 0
          0 0 0 0 0 0
          0 0 0 0 0 0
          0 0 0 0 0 0
          0 0 0 0 0 0
          0 0 0 0 0 0
          0 0 0 0 0 0
          <InformationKey name="L2_NORM_RANGE" location="vtkDataArray" length="2">
            <Value index="0">
              0
            </Value>
            <Value index="1">
              0
            </Value>
          </InformationKey>
        </DataArray>
        <DataArray type="Float64" Name="Sld_traction" NumberOfComponents="3" format="ascii" RangeMin="107.77106031741494" RangeMax="11140.570573468949">
          -4202.8321907271475 3726.7860016857835 0 -8319.234219687858 5191.4206907411035 0
          -2567.7267676038814 2283.9106412544434 0 -6802.793414054494 4025.879009698713 0
          -1120.448119129303 993.4373100393857 0 -4571.7281014771925 2605.8416556486777 0
          -172.78529292112597 265.2087102047581 0 -2147.0075470704332 1186.2752542300416 0
          -101.48203975103853 173.36497570583367 0 -426.2956152832457 198.80700954383772 0
          82.65509300265742 69.15733542193438 0 -9325.329482820129 6095.124505642845 0
          -5769.408478938164 5037.893063366941 0
          <InformationKey name="L2_NORM_RANGE" location="vtkDataArray" length="2">
            <Value index="0">
              107.77106032
            </Value>
            <Value index="1">
              11140.570573
            </Value>
          </InformationKey>
        </DataArray>
        <DataArray type="Float64" Name="Velocity" NumberOfComponents="3" format="ascii" RangeMin="6.400609111136972" RangeMax="10.62364547066485">
          -1.0914035587308744 -8.378342096749336 0 -0.5472726532632339 -9.963760856272138 0
          -1.0921969594289664 -9.892359777740843 0 -0.8561055726198997 -10.589094689108553 0
          -0.9422177505540383 -10.575749575800273 0 -1.0314891822705827 -10.26784118915085 0
          -0.6964420287356807 -10.311372003767655 0 -0.9785068763905087 -9.35122834310799 0
          -0.562344930709243 -9.406908403713828 0 -0.7962525847165272 -8.674689079323421 0
          -0.49221301096719117 -8.715597927296159 0 -0.1942413407739797 -8.480869688904184 0
          -0.9711531554136676 -6.326504448927519 0
          <InformationKey name="L2_NORM_RANGE" location="vtkDataArray" length="2">
            <Value index="0">
              6.4006091111
            </Value>
            <Value index="1">
              10.623645471
            </Value>
          </InformationKey>
        </DataArray>
        <DataArray type="Float64" Name="Acceleration" NumberOfComponents="3" format="ascii" RangeMin="256.02189164091175" RangeMax="1442.974819310749">
          -209.5684687169512 -353.77248221315494 0 -289.2621962626879 -215.16966211906038 0
          -118.83473467771728 -226.7719445466464 0 -311.2603591769389 367.10470183845973 0
          65.98445442278307 316.17312440190653 0 -192.35639821779773 1221.1072810106925 0
          134.23289566161657 1183.2703121840896 0 114.77267581140154 1413.528343821774 0
          -116.5612529000573 1438.2592963326388 0 169.68454010190038 389.00577169074677 0
          -340.8882816959367 496.803627428817 0 -206.65871651113162 -372.7892981891164 0
          -196.7736132731825 -234.22877819424957 0
          <InformationKey name="L2_NORM_RANGE" location="vtkDataArray" length="2">
            <Value index="0">
              256.02189164
            </Value>
            <Value index="1">
              1442.9748193
            </Value>
          </InformationKey>
        </DataArray>
        <DataArray type="Float64" Name="Sigma" NumberOfComponents="6" format="ascii" RangeMin="980.4225792598993" RangeMax="65133.945432658285">
          -35131.30375694825 35131.303756951755 0 13112.223349337824 0 0
          26495.973552107465 -26495.973552109597 0 -16355.890885288933 0 0
          -24685.803174111832 24685.803174111767 0 9448.06740092143 0 0
          15597.951567712858 -15597.951567709895 0 -12108.745680535665 0 0
          -14422.634832834556 14422.63483283088 0 5267.395069600024 0 0
          6701.156636253997 -6701.156636254688 0 -7114.1630744717395 0 0
          -6240.25806510181 6240.258065102945 0 1830.21588551218 0 0
          2005.6761871684143 -2005.6761871596539 0 -2617.2087741897317 0 0
          -1814.71018707902 1814.7101870700849 0 471.38599273551665 0 0
          137.3964453407148 -137.39644533690506 0 -960.9749567700255 0 0
          928.6771116616379 -928.6771116539053 0 657.8442610185845 0 0
          37442.38649191911 -37442.386491919875 0 -19116.69766644646 0 0
          -44734.27168380595 44734.27168380594 0 15495.829163467883 0 0
          <InformationKey name="L2_NORM_RANGE" location="vtkDataArray" length="2">
            <Value index="0">
              980.42257926
            </Value>
            <Value index="1">
              65133.945433
            </Value>
          </InformationKey>
        </DataArray>
        <DataArray type="Float64" Name="Press" format="ascii" RangeMin="-51423.985479350675" RangeMax="45881.68856523286">
          -40439.52255637973 33890.96382182542 -28201.62892942999 21383.36631750993 -16055.775775309832 10353.939178498542
          -6612.927456262954 3440.7488156731292 -2125.315716140205 528.8171101706743 881.0466973044377 45881.68856523286
          -51423.985479350675
        </DataArray>
        <DataArray type="Float64" Name="Dev strain" NumberOfComponents="6" format="ascii" RangeMin="0" RangeMax="0">
          0 0 0 0 0 0
          0 0 0 0 0 0
          0 0 0 0 0 0
          0 0 0 0 0 0
          0 0 0 0 0 0
          0 0 0 0 0 0
          0 0 0 0 0 0
          0 0 0 0 0 0
          0 0 0 0 0 0
          0 0 0 0 0 0
          0 0 0 0 0 0
          0 0 0 0 0 0
          0 0 0 0 0 0
          <InformationKey name="L2_NORM_RANGE" location="vtkDataArray" length="2">
            <Value index="0">
              0
            </Value>
            <Value index="1">
              0
            </Value>
          </InformationKey>
        </DataArray>
        <DataArray type="Float64" Name="J2 Stresses" format="ascii" RangeMin="249746.0000765287" RangeMax="2061185243.4464073">
          1277191103.9538193 768915406.1369042 631705372.7540767 279951523.5976426 214948758.22605133 57558329.32615991
          39778243.26597054 5735182.4096807875 3348724.2516089687 249746.0000765287 970630.945655793 1493294338.627855
          2061185243.4464073
        </DataArray>
      </PointData>
      <CellData>
        <DataArray type="UInt8" Name="vtkGhostType" format="ascii" RangeMin="0" RangeMax="1">
          1 1 0 0 0 0
          0 0 0 0 0
        </DataArray>
        <DataArray type="Float64" Name="Gauss Stress" NumberOfComponents="6" format="ascii" RangeMin="491.366159009022" RangeMax="29661.41373275588">
          -29468.336139777548 -1186.2101738865742 0 3163.784948786415 0 0
          22713.395372585634 3508.6911812002804 0 -7453.455067465858 0 0
          -22690.44034764564 -476.3514283434572 0 2068.1332883234422 0 0
          -15461.508275487808 212.14935066761836 0 868.9055966619308 0 0
          14826.941051871287 3221.5264213992114 0 -6338.8563883010565 0 0
          -8758.833438252204 548.9907362016302 0 -5.517373119844251 0 0
          7852.667697276984 2601.6854498549774 0 -4651.837895135794 0 0
          -3782.2621405808145 250.59923609444823 0 -105.20229864734506 0 0
          3216.1117654097734 1571.728593199106 0 -2633.7186543830967 0 0
          -488.0295129139197 11.061573804727018 0 56.08509899469195 0 0
          724.2042183779026 505.295921425708 0 -1035.5992460747468 0 0
          <InformationKey name="L2_NORM_RANGE" location="vtkDataArray" length="2">
            <Value index="0">
              491.36615901
            </Value>
            <Value index="1">
              29661.413733
            </Value>
          </InformationKey>
        </DataArray>
        <DataArray type="Float64" Name="Gauss Strain" NumberOfComponents="6" format="ascii" RangeMin="0" RangeMax="0">
          0 0 0 0 0 0
          0 0 0 0 0 0
          0 0 0 0 0 0
          0 0 0 0 0 0
          0 0 0 0 0 0
          0 0 0 0 0 0
          0 0 0 0 0 0
          0 0 0 0 0 0
          0 0 0 0 0 0
          0 0 0 0 0 0
          0 0 0 0 0 0
          <InformationKey name="L2_NORM_RANGE" location="vtkDataArray" length="2">
            <Value index="0">
              0
            </Value>
            <Value index="1">
              0
            </Value>
          </InformationKey>
        </DataArray>
      </CellData>
      <Points>
        <DataArray type="Float32" Name="Points" NumberOfComponents="3" format="ascii" RangeMin="0.4000000059604645" RangeMax="1.0012492197622458">
          0.5 0 0 0.6000000238418579 0.05000000074505806 0
          0.6000000238418579 0 0 0.699999988079071 0.05000000074505806 0
          0.699999988079071 0 0 0.800000011920929 0.05000000074505806 0
          0.800000011920929 0 0 0.8999999761581421 0.05000000074505806 0
          0.8999999761581421 0 0 1 0.05000000074505806 0
          1 0 0 0.5 0.05000000074505806 0
          0.4000000059604645 0 0
          <InformationKey name="L2_NORM_RANGE" location="vtkDataArray" length="2">
            <Value index="0">
              0.40000000596
            </Value>
            <Value index="1">
              1.0012492198
            </Value>
          </InformationKey>
        </DataArray>
      </Points>
      <Cells>
        <DataArray type="Int64" Name="connectivity" format="ascii" RangeMin="0" RangeMax="12">
          0 11 12 1 11 0
          2 1 0 4 3 2
          3 1 2 6 5 4
          5 3 4 8 7 6
          7 5 6 10 9 8
          9 7 8
        </DataArray>
        <DataArray type="Int64" Name="offsets" format="ascii" RangeMin="3" RangeMax="33">
          3 6 9 12 15 18
          21 24 27 30 33
        </DataArray>
        <DataArray type="UInt8" Name="types" format="ascii" RangeMin="5" RangeMax="5">
          5 5 5 5 5 5
          5 5 5 5 5
        </DataArray>
      </Cells>
    </Piece>
  </UnstructuredGrid>
</VTKFile>
