<?xml version="1.0"?>
<VTKFile type="UnstructuredGrid" version="0.1" byte_order="LittleEndian" header_type="UInt32" compressor="vtkZLibDataCompressor">
  <UnstructuredGrid>
    <Piece NumberOfPoints="13" NumberOfCells="11">
      <PointData>
        <DataArray type="Float64" Name="Disp" NumberOfComponents="3" format="ascii" RangeMin="0" RangeMax="0.053475011942072145">
          0 0 0 0 0 0
          0.0009114073405217761 -0.0018020358909515118 0 -0.0010760424993656319 -0.0017699694250283137 0
          0.0016637542959532783 -0.007922287436395118 0 -0.0021430442491651644 -0.00779040078502021 0
          0.001869869994540428 -0.01691919420027079 0 -0.003131641673232452 -0.016670075540556707 0
          0.0016914940040542008 -0.027949648518098145 0 -0.004153503686962995 -0.02761035085919492 0
          0.0012002351768826535 -0.0403126765129398 0 -0.005176913731468886 -0.03990508737436725 0
          0.00048808024585398274 -0.05347278447844628 0
          <InformationKey name="L2_NORM_RANGE" location="vtkDataArray" length="2">
            <Value index="0">
              0
            </Value>
            <Value index="1">
              0.053475011942
            </Value>
          </InformationKey>
        </DataArray>
        <DataArray type="Float64" Name="Nodal Stress" NumberOfComponents="6" format="ascii" RangeMin="12213.496902823761" RangeMax="103739.32029273108">
          99705.65129061915 549.4348695561516 0 -28641.365135681244 0 0
          -50913.932970518814 -5597.349876187751 0 -1985.151531041571 0 0
          69026.1220942583 5229.256137537991 0 -11337.330242374654 0 0
          -63140.76361864577 -1205.647214988611 0 3544.279388897017 0 0
          51190.77913624304 5401.0710787088865 0 -14101.26547164839 0 0
          -52330.59770303019 -1758.1415646753708 0 3037.2660139405057 0 0
          39871.10514574499 5362.277847530622 0 -12005.526507094839 0 0
          -39277.17115204487 -846.1297938173578 0 3069.1096795761887 0 0
          27600.628860926172 4680.070455748115 0 -10021.19497698742 0 0
          -27946.78133370417 -443.4468015931883 0 2122.7565479154105 0 0
          18163.375663871604 3762.031478891635 0 -7483.230861877214 0 0
          -18214.602666155417 -15.409310898001044 0 1255.8416352919749 0 0
          10730.56463628835 2708.8288191421984 0 -5165.920596593424 0 0
          <InformationKey name="L2_NORM_RANGE" location="vtkDataArray" length="2">
            <Value index="0">
              12213.496903
            </Value>
            <Value index="1">
              103739.32029
            </Value>
          </InformationKey>
        </DataArray>
        <DataArray type="Float64" Name="Nodal Strain" NumberOfComponents="6" format="ascii" RangeMin="0" RangeMax="0">
          0 0 0 0 0 0
          0 0 0 0 0 0
          0 0 0 0 0 0
          0 0 0 0 0 0
          0 0 0 0 0 0
          0 0 0 0 0 0
          0 0 0 0 0 0
          0 0 0 0 0 0
          0 0 0 0 0 0
          0 0 0 0 0 0
          0 0 0 0 0 0
          0 0 0 0 0 0
          0 0 0 0 0 0
          <InformationKey name="L2_NORM_RANGE" location="vtkDataArray" length="2">
            <Value index="0">
              0
            </Value>
            <Value index="1">
              0
            </Value>
          </InformationKey>
        </DataArray>
        <DataArray type="Float64" Name="Sld_traction" NumberOfComponents="3" format="ascii" RangeMin="3156.356723958689" RangeMax="49329.83717036842">
          -47122.01342661574 14592.761420543655 0 16554.56425581342 12351.171761073303 0
          -19672.66316659667 12328.342493570986 0 -11242.731025667828 8653.081818005277 0
          -17963.677047731413 10135.936895547893 0 -8433.132571626074 6951.910354215213 0
          -15009.298629538833 9087.032623850515 0 -5906.744253860807 5192.963691753278 0
          -12049.956215174656 7328.347068861948 0 -3845.960535262983 3546.522121052317 0
          -9042.446846950947 5533.527599466281 0 -2302.9890758780843 2158.4320895653477 0
          -6326.858122592207 3794.444208981729 0
          <InformationKey name="L2_NORM_RANGE" location="vtkDataArray" length="2">
            <Value index="0">
              3156.356724
            </Value>
            <Value index="1">
              49329.83717
            </Value>
          </InformationKey>
        </DataArray>
        <DataArray type="Float64" Name="Velocity" NumberOfComponents="3" format="ascii" RangeMin="0" RangeMax="6.708659770419635">
          0 0 0 0 0 0
          0.12424239906061862 -0.251510228839784 0 -0.14607420232551355 -0.24335196742254683 0
          0.1890126000038297 -1.076704941971609 0 -0.31523204784479053 -1.04052961376708 0
          0.15360182263707933 -2.2605718777522528 0 -0.4892304142345092 -2.195569149547498 0
          0.03793811849374262 -3.6564090065589507 0 -0.6844957376941907 -3.571380150002497 0
          -0.13087298736987985 -5.158585619084347 0 -0.8902938734422916 -5.06072660276509 0
          -0.33038641806893776 -6.700519437327408 0
          <InformationKey name="L2_NORM_RANGE" location="vtkDataArray" length="2">
            <Value index="0">
              0
            </Value>
            <Value index="1">
              6.7086597704
            </Value>
          </InformationKey>
        </DataArray>
        <DataArray type="Float64" Name="Acceleration" NumberOfComponents="3" format="ascii" RangeMin="0" RangeMax="875.9579213432755">
          0 0 0 0 0 0
          -32.12130396929069 74.20651134205707 0 46.92636331621077 73.56774220976888 0
          -53.997659819340356 302.0559202758791 0 68.5761832226483 299.2749895913389 0
          -43.697003439800255 546.7254613999157 0 68.47076226786953 545.006681208095 0
          -27.618377838158267 745.693102240346 0 52.351536478323396 747.5885305010961 0
          -13.774762564115463 860.5962885757326 0 19.86711948136326 867.7720961761843 0
          -10.197454011000673 875.8985625606001 0
          <InformationKey name="L2_NORM_RANGE" location="vtkDataArray" length="2">
            <Value index="0">
              0
            </Value>
            <Value index="1">
              875.95792134
            </Value>
          </InformationKey>
        </DataArray>
        <DataArray type="Float64" Name="Sigma" NumberOfComponents="6" format="ascii" RangeMin="23625.428054211974" RangeMax="149992.38018781165">
          98617.87566265246 -98617.87566265419 0 -55197.31256117398 0 0
          -96171.50332597722 96171.50332597706 0 14787.60706775191 0 0
          97248.18484279627 -97248.18484279668 0 -18958.44248812892 0 0
          -91579.51690243525 91579.51690243593 0 18816.067092584617 0 0
          73794.88096128844 -73794.88096128749 0 -33500.53992822465 0 0
          -70195.29461699919 70195.29461699874 0 20330.950447481355 0 0
          56511.15433336829 -56511.154333367245 0 -27090.504791455314 0 0
          -52571.81095465052 52571.810954650195 0 17259.73423864162 0 0
          38829.97893030993 -38829.97893031128 0 -22846.13891281624 0 0
          -36284.98168896163 36284.98168896447 0 13075.312299130763 0 0
          25298.440833364533 -25298.44083336721 0 -16563.199988745804 0 0
          -23295.51293471289 23295.5129347124 0 8716.548157675476 0 0
          14760.729740538323 -14760.729740540379 0 -11063.569306433632 0 0
          <InformationKey name="L2_NORM_RANGE" location="vtkDataArray" length="2">
            <Value index="0">
              23625.428054
            </Value>
            <Value index="1">
              149992.38019
            </Value>
          </InformationKey>
        </DataArray>
        <DataArray type="Float64" Name="Press" format="ascii" RangeMin="-114388.649025246" RangeMax="113955.38043899043">
          100471.72045330412 -114388.649025246 113955.38043899043 -98848.37975055445 85162.80850436303 -79339.0687955591
          68975.3272405017 -59376.48039252124 48783.1172374627 -41416.90589489065 33064.974541288095 -26518.21951911621
          20022.648186584705
        </DataArray>
        <DataArray type="Float64" Name="Dev strain" NumberOfComponents="6" format="ascii" RangeMin="0" RangeMax="0">
          0 0 0 0 0 0
          0 0 0 0 0 0
          0 0 0 0 0 0
          0 0 0 0 0 0
          0 0 0 0 0 0
          0 0 0 0 0 0
          0 0 0 0 0 0
          0 0 0 0 0 0
          0 0 0 0 0 0
          0 0 0 0 0 0
          0 0 0 0 0 0
          0 0 0 0 0 0
          0 0 0 0 0 0
          <InformationKey name="L2_NORM_RANGE" location="vtkDataArray" length="2">
            <Value index="0">
              0
            </Value>
            <Value index="1">
              0
            </Value>
          </InformationKey>
        </DataArray>
        <DataArray type="Float64" Name="J2 Stresses" format="ascii" RangeMin="248479783.922808" RangeMax="10487171228.708538">
          10487171228.708538 9303626382.675987 9547065090.612633 8475319011.291649 5726255999.961306 5030716272.891769
          3376984426.5536766 2838269913.5486298 1638253779.5342898 1359340844.0983338 708596007.066111 561675475.8376329
          248479783.922808
        </DataArray>
      </PointData>
      <CellData>
        <DataArray type="UInt8" Name="vtkGhostType" format="ascii" RangeMin="0" RangeMax="0">
          0 0 0 0 0 0
          0 0 0 0 0
        </DataArray>
        <DataArray type="Float64" Name="Gauss Stress" NumberOfComponents="6" format="ascii" RangeMin="16095.214168248604" RangeMax="69456.59728771691">
          -63261.49457414209 -2926.2709837312364 0 4881.743890735873 0 0
          66577.66968217336 114.63156252490444 0 -19789.382660517 0 0
          -60334.856866632195 -1681.56982786778 0 1882.1592039471097 0 0
          59911.11936481616 6935.420097050264 0 -11214.305107922986 0 0
          -45332.05772862003 -1161.4235697656527 0 3500.059964889222 0 0
          44969.935875654395 4896.108757216543 0 -13420.031424066203 0 0
          -34012.36092108382 -661.1517788819403 0 2496.3025416520486 0 0
          33717.095464823644 5204.213925471613 0 -10892.30315520998 0 0
          -23050.73488767625 -196.03236080303714 0 1742.8868226868121 0 0
          22758.207986190995 4195.915936382039 0 -8778.008867477092 0 0
          14444.353615982192 3268.5818565204654 0 -6303.407045834654 0 0
          <InformationKey name="L2_NORM_RANGE" location="vtkDataArray" length="2">
            <Value index="0">
              16095.214168
            </Value>
            <Value index="1">
              69456.597288
            </Value>
          </InformationKey>
        </DataArray>
        <DataArray type="Float64" Name="Gauss Strain" NumberOfComponents="6" format="ascii" RangeMin="0" RangeMax="0">
          0 0 0 0 0 0
          0 0 0 0 0 0
          0 0 0 0 0 0
          0 0 0 0 0 0
          0 0 0 0 0 0
          0 0 0 0 0 0
          0 0 0 0 0 0
          0 0 0 0 0 0
          0 0 0 0 0 0
          0 0 0 0 0 0
          0 0 0 0 0 0
          <InformationKey name="L2_NORM_RANGE" location="vtkDataArray" length="2">
            <Value index="0">
              0
            </Value>
            <Value index="1">
              0
            </Value>
          </InformationKey>
        </DataArray>
      </CellData>
      <Points>
        <DataArray type="Float32" Name="Points" NumberOfComponents="3" format="ascii" RangeMin="0" RangeMax="0.6020797527609908">
          0 0.05000000074505806 0 0 0 0
          0.10000000149011612 0.05000000074505806 0 0.10000000149011612 0 0
          0.20000000298023224 0.05000000074505806 0 0.20000000298023224 0 0
          0.30000001192092896 0.05000000074505806 0 0.30000001192092896 0 0
          0.4000000059604645 0.05000000074505806 0 0.4000000059604645 0 0
          0.5 0.05000000074505806 0 0.5 0 0
          0.6000000238418579 0.05000000074505806 0
          <InformationKey name="L2_NORM_RANGE" location="vtkDataArray" length="2">
            <Value index="0">
              0
            </Value>
            <Value index="1">
              0.60207975276
            </Value>
          </InformationKey>
        </DataArray>
      </Points>
      <Cells>
        <DataArray type="Int64" Name="connectivity" format="ascii" RangeMin="0" RangeMax="12">
          3 2 1 2 0 1
          5 4 3 4 2 3
          7 6 5 6 4 5
          9 8 7 8 6 7
          11 10 9 10 8 9
          12 10 11
        </DataArray>
        <DataArray type="Int64" Name="offsets" format="ascii" RangeMin="3" RangeMax="33">
          3 6 9 12 15 18
          21 24 27 30 33
        </DataArray>
        <DataArray type="UInt8" Name="types" format="ascii" RangeMin="5" RangeMax="5">
          5 5 5 5 5 5
          5 5 5 5 5
        </DataArray>
      </Cells>
    </Piece>
  </UnstructuredGrid>
</VTKFile>
