<?xml version="1.0"?>
<VTKFile type="UnstructuredGrid" version="0.1" byte_order="LittleEndian" header_type="UInt32" compressor="vtkZLibDataCompressor">
  <UnstructuredGrid>
    <Piece NumberOfPoints="13" NumberOfCells="11">
      <PointData>
        <DataArray type="Float64" Name="Disp" NumberOfComponents="3" format="ascii" RangeMin="0" RangeMax="0.08012430322047927">
          0 0 0 0 0 0
          0.0011576875679431171 -0.0021471999929653838 0 -0.0012370234725250363 -0.002099943264424787 0
          0.0021217738957855915 -0.00972829101756497 0 -0.0028369400974148835 -0.009507696066613619 0
          0.0024706902366179373 -0.02206064038983885 0 -0.004673540066952341 -0.021556980873246232 0
          0.0020483836484670617 -0.03844629865126014 0 -0.0069147251239797805 -0.03764759935166581 0
          0.0008412732628562764 -0.05806958412683203 0 -0.009538675852530706 -0.056986336190059605 0
          -0.0010799164222635431 -0.08011702532600815 0
          <InformationKey name="L2_NORM_RANGE" location="vtkDataArray" length="2">
            <Value index="0">
              0
            </Value>
            <Value index="1">
              0.08012430322
            </Value>
          </InformationKey>
        </DataArray>
        <DataArray type="Float64" Name="Nodal Stress" NumberOfComponents="6" format="ascii" RangeMin="37998.9674929725" RangeMax="137887.72418261485">
          133589.93509684014 -3581.7107259807017 0 -33969.47260936355 0 0
          -73239.1386163577 -12606.401817540504 0 3057.350650298768 0 0
          100514.80738516478 5608.875372631896 0 -12974.765803480714 0 0
          -91875.2129408822 -4170.098065220067 0 8906.759378396757 0 0
          82994.84727071333 6580.493488942389 0 -18960.139432780463 0 0
          -86040.29664675664 -6040.719843564219 0 10160.601140710667 0 0
          75373.96893809662 8221.32844048357 0 -20026.90988102501 0 0
          -76023.36582932944 -5030.90424540939 0 11952.544887243113 0 0
          61930.625413011934 9429.529282862239 0 -20626.078835950837 0 0
          -64821.09772743578 -4448.687163333182 0 11480.369905715834 0 0
          47965.97095277078 9852.075000862165 0 -19043.04175844532 0 0
          -51369.41392023726 -3105.44950563175 0 9749.542287070644 0 0
          33223.3690833839 9226.74504011375 0 -15968.60836910868 0 0
          <InformationKey name="L2_NORM_RANGE" location="vtkDataArray" length="2">
            <Value index="0">
              37998.967493
            </Value>
            <Value index="1">
              137887.72418
            </Value>
          </InformationKey>
        </DataArray>
        <DataArray type="Float64" Name="Nodal Strain" NumberOfComponents="6" format="ascii" RangeMin="0" RangeMax="0">
          0 0 0 0 0 0
          0 0 0 0 0 0
          0 0 0 0 0 0
          0 0 0 0 0 0
          0 0 0 0 0 0
          0 0 0 0 0 0
          0 0 0 0 0 0
          0 0 0 0 0 0
          0 0 0 0 0 0
          0 0 0 0 0 0
          0 0 0 0 0 0
          0 0 0 0 0 0
          0 0 0 0 0 0
          <InformationKey name="L2_NORM_RANGE" location="vtkDataArray" length="2">
            <Value index="0">
              0
            </Value>
            <Value index="1">
              0
            </Value>
          </InformationKey>
        </DataArray>
        <DataArray type="Float64" Name="Sld_traction" NumberOfComponents="3" format="ascii" RangeMin="10364.25140748079" RangeMax="60060.15983474784">
          -57997.26485624629 15605.770361307916 0 21445.487457264146 18600.550943399467 0
          -23187.884017867254 16816.753102072118 0 -19369.119969138537 15975.601578318809 0
          -20275.44335958428 13936.76468198898 0 -15539.55676799531 14421.899635198592 0
          -18431.60536746099 14200.660448975319 0 -12510.313440395938 12739.864841670742 0
          -17363.195653820207 13787.040934262504 0 -9461.7620998903 10566.517796754993 0
          -15926.682659081136 12821.290570342468 0 -6726.431082139212 7884.975087766546 0
          -14043.547234761369 11064.685705013359 0
          <InformationKey name="L2_NORM_RANGE" location="vtkDataArray" length="2">
            <Value index="0">
              10364.251407
            </Value>
            <Value index="1">
              60060.159835
            </Value>
          </InformationKey>
        </DataArray>
        <DataArray type="Float64" Name="Velocity" NumberOfComponents="3" format="ascii" RangeMin="0" RangeMax="1.4797736838898763">
          0 0 0 0 0 0
          -0.0924044810241228 0.23660848526549283 0 0.14357096178993267 0.2264989621692468 0
          -0.10090712353566644 0.884700818272087 0 0.20404899246812946 0.8523953045021173 0
          0.02770424308049524 1.3859749752380015 0 0.17873671282726056 1.359464667091423 0
          0.1548543690630506 1.4660226537783707 0 0.06543510452617118 1.4783262165803137 0
          0.19626309368538847 0.9940255522971846 0 -0.1701763969923249 1.068956242363516 0
          0.09273018741462391 -0.03833229628913415 0
          <InformationKey name="L2_NORM_RANGE" location="vtkDataArray" length="2">
            <Value index="0">
              0
            </Value>
            <Value index="1">
              1.4797736839
            </Value>
          </InformationKey>
        </DataArray>
        <DataArray type="Float64" Name="Acceleration" NumberOfComponents="3" format="ascii" RangeMin="0" RangeMax="711.6195340944384">
          0 0 0 0 0 0
          47.88955510358369 -137.4660730376554 0 -88.85691240131723 -132.93402131040284 0
          29.09901562013465 -495.0494584579228 0 -125.51868607286269 -477.47527576989705 0
          -57.966623441580396 -709.2547016915487 0 -98.92936217725492 -703.722397754027 0
          -120.525571630993 -647.2649824611217 0 -26.686163447332547 -666.2098510817668 0
          -121.6764304091542 -326.9156101013941 0 80.6705199510834 -366.7696884885445 0
          -68.06534250630762 166.89498769400234 0
          <InformationKey name="L2_NORM_RANGE" location="vtkDataArray" length="2">
            <Value index="0">
              0
            </Value>
            <Value index="1">
              711.61953409
            </Value>
          </InformationKey>
        </DataArray>
        <DataArray type="Float64" Name="Sigma" NumberOfComponents="6" format="ascii" RangeMin="75133.01900826053" RangeMax="200867.93599041097">
          132577.57235726033 -132577.5723572604 0 -69383.53016841458 0 0
          -131644.72664362955 131644.72664362934 0 28968.494093161582 0 0
          140832.87357475059 -140832.87357475006 0 -26079.324193786582 0 0
          -133371.2427618136 133371.24276181354 0 31329.695140363725 0 0
          117750.00485270815 -117750.00485270667 0 -49003.95687581015 0 0
          -115755.422365892 115755.42236589173 0 41312.15986980664 0 0
          105317.74257008734 -105317.74257008874 0 -51473.01940587305 0 0
          -101823.55551414123 101823.55551414112 0 45047.36821080453 0 0
          85424.91007554298 -85424.91007554039 0 -53864.0958547032 0 0
          -83267.82188915534 83267.82188915153 0 43735.763616914264 0 0
          65241.68280975953 -65241.68280975926 0 -49322.36639665846 0 0
          -63795.26643961685 63795.26643961847 0 37642.22990932137 0 0
          44667.62384993912 -44667.6238499476 0 -40676.49572536431 0 0
          <InformationKey name="L2_NORM_RANGE" location="vtkDataArray" length="2">
            <Value index="0">
              75133.019008
            </Value>
            <Value index="1">
              200867.93599
            </Value>
          </InformationKey>
        </DataArray>
        <DataArray type="Float64" Name="Press" format="ascii" RangeMin="-165168.26283749484" RangeMax="165259.32864625083">
          129962.69146648135 -165168.26283749484 165259.32864625083 -146491.79744960152 133901.89863151783 -135488.71230937293
          127990.67729261453 -120996.92120674609 109156.61796721129 -102224.78005756631 89104.2042319731 -79885.77250441295
          65722.04084354936
        </DataArray>
        <DataArray type="Float64" Name="Dev strain" NumberOfComponents="6" format="ascii" RangeMin="0" RangeMax="0">
          0 0 0 0 0 0
          0 0 0 0 0 0
          0 0 0 0 0 0
          0 0 0 0 0 0
          0 0 0 0 0 0
          0 0 0 0 0 0
          0 0 0 0 0 0
          0 0 0 0 0 0
          0 0 0 0 0 0
          0 0 0 0 0 0
          0 0 0 0 0 0
          0 0 0 0 0 0
          0 0 0 0 0 0
          <InformationKey name="L2_NORM_RANGE" location="vtkDataArray" length="2">
            <Value index="0">
              0
            </Value>
            <Value index="1">
              0
            </Value>
          </InformationKey>
        </DataArray>
        <DataArray type="Float64" Name="J2 Stresses" format="ascii" RangeMin="2408840946.523924" RangeMax="20003931066.922768">
          18780331256.80243 17540127465.582306 20003931066.922768 18033275845.227642 14465410590.184185 13825991445.383133
          11754194831.74868 10875352803.22134 8022750466.975548 7411734416.952432 4864651132.590812 4424070388.238359
          2408840946.523924
        </DataArray>
      </PointData>
      <CellData>
        <DataArray type="UInt8" Name="vtkGhostType" format="ascii" RangeMin="0" RangeMax="0">
          0 0 0 0 0 0
          0 0 0 0 0
        </DataArray>
        <DataArray type="Float64" Name="Gauss Stress" NumberOfComponents="6" format="ascii" RangeMin="45001.6977529821" RangeMax="94213.81905120259">
          -90194.60915717938 -7405.878603384245 0 11406.288346579579 0 0
          90606.49218787294 -3903.987337714583 0 -22164.786756346526 0 0
          -93151.75713415137 -5567.316950819341 0 7879.299378120075 0 0
          92627.02183127076 9152.598054174654 0 -14584.528643077674 0 0
          -80252.06384448346 -5411.240304520129 0 11628.836224912717 0 0
          77905.39622388767 6363.846185951921 0 -19721.60547062552 0 0
          -71243.8502082849 -4799.538656449621 0 11639.678657671875 0 0
          68356.49039485632 9077.092307197247 0 -20096.58234992391 0 0
          -58275.91794967295 -3728.31427033181 0 10685.209043192399 0 0
          54478.27104592177 9545.757048489988 0 -19816.89954481581 0 0
          40351.50426373045 9608.810783673707 0 -17452.21073756713 0 0
          <InformationKey name="L2_NORM_RANGE" location="vtkDataArray" length="2">
            <Value index="0">
              45001.697753
            </Value>
            <Value index="1">
              94213.819051
            </Value>
          </InformationKey>
        </DataArray>
        <DataArray type="Float64" Name="Gauss Strain" NumberOfComponents="6" format="ascii" RangeMin="0" RangeMax="0">
          0 0 0 0 0 0
          0 0 0 0 0 0
          0 0 0 0 0 0
          0 0 0 0 0 0
          0 0 0 0 0 0
          0 0 0 0 0 0
          0 0 0 0 0 0
          0 0 0 0 0 0
          0 0 0 0 0 0
          0 0 0 0 0 0
          0 0 0 0 0 0
          <InformationKey name="L2_NORM_RANGE" location="vtkDataArray" length="2">
            <Value index="0">
              0
            </Value>
            <Value index="1">
              0
            </Value>
          </InformationKey>
        </DataArray>
      </CellData>
      <Points>
        <DataArray type="Float32" Name="Points" NumberOfComponents="3" format="ascii" RangeMin="0" RangeMax="0.6020797527609908">
          0 0.05000000074505806 0 0 0 0
          0.10000000149011612 0.05000000074505806 0 0.10000000149011612 0 0
          0.20000000298023224 0.05000000074505806 0 0.20000000298023224 0 0
          0.30000001192092896 0.05000000074505806 0 0.30000001192092896 0 0
          0.4000000059604645 0.05000000074505806 0 0.4000000059604645 0 0
          0.5 0.05000000074505806 0 0.5 0 0
          0.6000000238418579 0.05000000074505806 0
          <InformationKey name="L2_NORM_RANGE" location="vtkDataArray" length="2">
            <Value index="0">
              0
            </Value>
            <Value index="1">
              0.60207975276
            </Value>
          </InformationKey>
        </DataArray>
      </Points>
      <Cells>
        <DataArray type="Int64" Name="connectivity" format="ascii" RangeMin="0" RangeMax="12">
          3 2 1 2 0 1
          5 4 3 4 2 3
          7 6 5 6 4 5
          9 8 7 8 6 7
          11 10 9 10 8 9
          12 10 11
        </DataArray>
        <DataArray type="Int64" Name="offsets" format="ascii" RangeMin="3" RangeMax="33">
          3 6 9 12 15 18
          21 24 27 30 33
        </DataArray>
        <DataArray type="UInt8" Name="types" format="ascii" RangeMin="5" RangeMax="5">
          5 5 5 5 5 5
          5 5 5 5 5
        </DataArray>
      </Cells>
    </Piece>
  </UnstructuredGrid>
</VTKFile>
