<?xml version="1.0"?>
<VTKFile type="UnstructuredGrid" version="0.1" byte_order="LittleEndian" header_type="UInt32" compressor="vtkZLibDataCompressor">
  <UnstructuredGrid>
    <Piece NumberOfPoints="13" NumberOfCells="11">
      <PointData>
        <DataArray type="Float64" Name="Disp" NumberOfComponents="3" format="ascii" RangeMin="0.025245736148464547" RangeMax="0.1135357978563736">
          -0.005124670709761322 -0.03733344113429812 0 0.0008196656966365761 -0.05173575269906334 0
          -0.006405339123673942 -0.051213041262500515 0 -0.0001016044804918563 -0.06669437480923834 0
          -0.007718947003369697 -0.06611201349965333 0 -0.0012095378233983422 -0.08220928727853312 0
          -0.009019430053595113 -0.08159688653477853 0 -0.002434902920292232 -0.09790670301374008 0
          -0.010252996435131865 -0.09729334637062727 0 -0.0036959378452184216 -0.1134756248642307 0
          -0.011460224736901165 -0.11286720109510867 0 0.0014817110346869154 -0.037769642086196216 0
          -0.0039221525322099896 -0.024939204341597757 0
          <InformationKey name="L2_NORM_RANGE" location="vtkDataArray" length="2">
            <Value index="0">
              0.025245736148
            </Value>
            <Value index="1">
              0.11353579786
            </Value>
          </InformationKey>
        </DataArray>
        <DataArray type="Float64" Name="Nodal Stress" NumberOfComponents="6" format="ascii" RangeMin="315.39951192752096" RangeMax="37166.49184704438">
          -28602.660066173477 -925.4556570722858 0 3261.345898142099 0 0
          19647.550346672477 3907.854559079853 0 -7745.606126411627 0 0
          -20448.869743921266 -310.4933512835891 0 2048.2363932107774 0 0
          11970.382313208602 3188.0966126933677 0 -5876.736941125455 0 0
          -12799.064921778976 219.39653121225564 0 898.77289333013 0 0
          5787.763647621383 2303.782212006321 0 -3888.026471578468 0 0
          -6624.861822897928 446.84402075001924 0 50.31759444132086 0 0
          1962.3055041025382 1234.508544528545 0 -1968.3887475112167 0 0
          -2825.5693813658654 204.99591681201215 0 -133.52552544094547 0 0
          478.7432897259273 589.7481207842592 0 -1045.3008380080807 0 0
          -222.01996156249442 50.654282022830216 0 218.2157934354398 0 0
          28150.38284321062 4371.084376462012 0 -9247.104481498905 0 0
          -36896.28014281621 -1596.6570327841164 0 4178.913035575612 0 0
          <InformationKey name="L2_NORM_RANGE" location="vtkDataArray" length="2">
            <Value index="0">
              315.39951193
            </Value>
            <Value index="1">
              37166.491847
            </Value>
          </InformationKey>
        </DataArray>
        <DataArray type="Float64" Name="Nodal Strain" NumberOfComponents="6" format="ascii" RangeMin="0" RangeMax="0">
          0 0 0 0 0 0
          0 0 0 0 0 0
          0 0 0 0 0 0
          0 0 0 0 0 0
          0 0 0 0 0 0
          0 0 0 0 0 0
          0 0 0 0 0 0
          0 0 0 0 0 0
          0 0 0 0 0 0
          0 0 0 0 0 0
          0 0 0 0 0 0
          0 0 0 0 0 0
          0 0 0 0 0 0
          <InformationKey name="L2_NORM_RANGE" location="vtkDataArray" length="2">
            <Value index="0">
              0
            </Value>
            <Value index="1">
              0
            </Value>
          </InformationKey>
        </DataArray>
        <DataArray type="Float64" Name="Sld_traction" NumberOfComponents="3" format="ascii" RangeMin="108.0684133706861" RangeMax="12478.465324948527">
          -4263.802997315744 4009.578350273527 0 -8748.984762994567 5713.050559181749 0
          -2698.184990455302 2576.301670399796 0 -6900.059111759251 4316.0092295231225 0
          -1401.4723204155844 1301.7261483593668 0 -4759.508176961242 2880.8781599607532 0
          -336.99658987693397 444.5128068623155 0 -2560.2928533282147 1533.9058911349389 0
          -164.39430692383556 228.15598087014865 0 -557.5516757386706 244.11533646388946 0
          97.57798904104473 46.44693771566908 0 -10360.452376445559 6955.078965859866 0
          -5980.132683294491 5488.981866019717 0
          <InformationKey name="L2_NORM_RANGE" location="vtkDataArray" length="2">
            <Value index="0">
              108.06841337
            </Value>
            <Value index="1">
              12478.465325
            </Value>
          </InformationKey>
        </DataArray>
        <DataArray type="Float64" Name="Velocity" NumberOfComponents="3" format="ascii" RangeMin="3.503917924707847" RangeMax="12.870193480675335">
          0.8515000330121762 4.921373536444779 0 0.30305854798786896 6.576931036613082 0
          1.0812588952651785 6.4622103896339596 0 0.5416088721157734 8.145088928748777 0
          1.322606398625231 8.023184308060728 0 0.7922907787132891 9.707372024822241 0
          1.5698994988221724 9.582709726716502 0 1.0451840614493295 11.259129682950324 0
          1.8191724931983284 11.134840235698796 0 1.2935354149922529 12.805024262381494 0
          2.0666795179352713 12.681602377288598 0 0.09196456108804352 5.023215776726932 0
          0.6402593246893677 3.4449250819484103 0
          <InformationKey name="L2_NORM_RANGE" location="vtkDataArray" length="2">
            <Value index="0">
              3.5039179247
            </Value>
            <Value index="1">
              12.870193481
            </Value>
          </InformationKey>
        </DataArray>
        <DataArray type="Float64" Name="Acceleration" NumberOfComponents="3" format="ascii" RangeMin="16.828565948475415" RangeMax="1457.896556590965">
          -16.82723370124222 -0.21174948869884247 0 -108.6782305051102 195.29225666902494 0
          7.548200050725427 189.96047717156762 0 -106.15540680688059 465.9878375162807 0
          41.256212784652234 454.33434125019994 0 -86.91971311999805 786.0906416707439 0
          78.87012770945148 770.4603605589509 0 -55.466986509223716 1126.6560637998336 0
          112.78852332486167 1110.4437810054806 0 -20.226331873679555 1457.7562434161373 0
          143.71581851373776 1442.044942603592 0 -92.8739055238683 -1.8966793774452526 0
          -29.552459981547145 -105.20875293351128 0
          <InformationKey name="L2_NORM_RANGE" location="vtkDataArray" length="2">
            <Value index="0">
              16.828565948
            </Value>
            <Value index="1">
              1457.8965566
            </Value>
          </InformationKey>
        </DataArray>
        <DataArray type="Float64" Name="Sigma" NumberOfComponents="6" format="ascii" RangeMin="1729.9836642900982" RangeMax="72072.64362856427">
          -37503.93181734009 37503.93181734016 0 15193.469365563573 0 0
          27520.11392447755 -27520.113924477933 0 -18256.502993504528 0 0
          -26064.50678551681 26064.50678551911 0 10963.783198143587 0 0
          16763.456110930383 -16763.456110926138 0 -13216.406900756478 0 0
          -15660.563384119961 15660.563384113086 0 6631.34242162343 0 0
          7949.040313009983 -7949.040313007881 0 -8102.3451641703805 0 0
          -7560.679479022238 7560.679479024542 0 2701.2410747698023 0 0
          2864.5882069049608 -2864.5882069019035 0 -3475.379584724107 0 0
          -3042.269872582512 3042.2698725940113 0 924.6776525860957 0 0
          436.543370260384 -436.54337026920865 0 -1917.5740518312386 0 0
          1030.1890075784256 -1030.1890075743902 0 932.879786493451 0 0
          39458.10345882764 -39458.10345882523 0 -22386.807122277412 0 0
          -49263.027747957094 49263.02774795553 0 18460.069171544288 0 0
          <InformationKey name="L2_NORM_RANGE" location="vtkDataArray" length="2">
            <Value index="0">
              1729.9836643
            </Value>
            <Value index="1">
              72072.643629
            </Value>
          </InformationKey>
        </DataArray>
        <DataArray type="Float64" Name="Press" format="ascii" RangeMin="-57009.986694962" RangeMax="49566.86873892005">
          -43569.78305181917 35994.28366789116 -30264.58819249926 23184.105985788126 -17946.029355306036 12155.856703873736
          -8283.374933499788 4857.753727025596 -3460.0002640435705 1365.289128181655 875.989888388607 49566.86873892005
          -57009.986694962
        </DataArray>
        <DataArray type="Float64" Name="Dev strain" NumberOfComponents="6" format="ascii" RangeMin="0" RangeMax="0">
          0 0 0 0 0 0
          0 0 0 0 0 0
          0 0 0 0 0 0
          0 0 0 0 0 0
          0 0 0 0 0 0
          0 0 0 0 0 0
          0 0 0 0 0 0
          0 0 0 0 0 0
          0 0 0 0 0 0
          0 0 0 0 0 0
          0 0 0 0 0 0
          0 0 0 0 0 0
          0 0 0 0 0 0
          <InformationKey name="L2_NORM_RANGE" location="vtkDataArray" length="2">
            <Value index="0">
              0
            </Value>
            <Value index="1">
              0
            </Value>
          </InformationKey>
        </DataArray>
        <DataArray type="Float64" Name="J2 Stresses" format="ascii" RangeMin="1109842.6751862657" RangeMax="2512039441.350463">
          1464255279.6002767 840681645.8041937 709409649.4762857 324681813.6246089 256246921.08613682 79599241.18767993
          58988050.02053129 11225431.409609498 9469163.167956233 1109842.6751862657 1278855.5653432808 1682234211.8499627
          2512039441.350463
        </DataArray>
      </PointData>
      <CellData>
        <DataArray type="UInt8" Name="vtkGhostType" format="ascii" RangeMin="0" RangeMax="1">
          1 1 0 0 0 0
          0 0 0 0 0
        </DataArray>
        <DataArray type="Float64" Name="Gauss Stress" NumberOfComponents="6" format="ascii" RangeMin="939.1959768619638" RangeMax="33011.49144608566">
          -32773.91903811022 -1234.6816337968892 0 3755.577138276817 0 0
          23821.88497365239 4172.361263009678 0 -8483.28025007279 0 0
          -24629.470751602203 -597.2542993486434 0 2633.5831900675435 0 0
          -16662.708540241183 -21.632501103704953 0 1459.5729063368476 0 0
          15710.954903690388 3564.912737098356 0 -6836.375565372471 0 0
          -9781.9167116881 399.5516550658858 0 410.07944407428386 0 0
          8815.288791392082 2780.6667648449657 0 -4895.803214434478 0 0
          -4874.660871739185 284.24655806629573 0 50.17971421059724 0 0
          3994.394846097417 1825.7621521714343 0 -2958.8278913748954 0 0
          -931.4195807390031 118.938749092368 0 -20.005537583897194 0 0
          1007.301431915505 834.7269621955267 0 -1489.4253279897498 0 0
          <InformationKey name="L2_NORM_RANGE" location="vtkDataArray" length="2">
            <Value index="0">
              939.19597686
            </Value>
            <Value index="1">
              33011.491446
            </Value>
          </InformationKey>
        </DataArray>
        <DataArray type="Float64" Name="Gauss Strain" NumberOfComponents="6" format="ascii" RangeMin="0" RangeMax="0">
          0 0 0 0 0 0
          0 0 0 0 0 0
          0 0 0 0 0 0
          0 0 0 0 0 0
          0 0 0 0 0 0
          0 0 0 0 0 0
          0 0 0 0 0 0
          0 0 0 0 0 0
          0 0 0 0 0 0
          0 0 0 0 0 0
          0 0 0 0 0 0
          <InformationKey name="L2_NORM_RANGE" location="vtkDataArray" length="2">
            <Value index="0">
              0
            </Value>
            <Value index="1">
              0
            </Value>
          </InformationKey>
        </DataArray>
      </CellData>
      <Points>
        <DataArray type="Float32" Name="Points" NumberOfComponents="3" format="ascii" RangeMin="0.4000000059604645" RangeMax="1.0012492197622458">
          0.5 0 0 0.6000000238418579 0.05000000074505806 0
          0.6000000238418579 0 0 0.699999988079071 0.05000000074505806 0
          0.699999988079071 0 0 0.800000011920929 0.05000000074505806 0
          0.800000011920929 0 0 0.8999999761581421 0.05000000074505806 0
          0.8999999761581421 0 0 1 0.05000000074505806 0
          1 0 0 0.5 0.05000000074505806 0
          0.4000000059604645 0 0
          <InformationKey name="L2_NORM_RANGE" location="vtkDataArray" length="2">
            <Value index="0">
              0.40000000596
            </Value>
            <Value index="1">
              1.0012492198
            </Value>
          </InformationKey>
        </DataArray>
      </Points>
      <Cells>
        <DataArray type="Int64" Name="connectivity" format="ascii" RangeMin="0" RangeMax="12">
          0 11 12 1 11 0
          2 1 0 4 3 2
          3 1 2 6 5 4
          5 3 4 8 7 6
          7 5 6 10 9 8
          9 7 8
        </DataArray>
        <DataArray type="Int64" Name="offsets" format="ascii" RangeMin="3" RangeMax="33">
          3 6 9 12 15 18
          21 24 27 30 33
        </DataArray>
        <DataArray type="UInt8" Name="types" format="ascii" RangeMin="5" RangeMax="5">
          5 5 5 5 5 5
          5 5 5 5 5
        </DataArray>
      </Cells>
    </Piece>
  </UnstructuredGrid>
</VTKFile>
