<?xml version="1.0"?>
<VTKFile type="UnstructuredGrid" version="0.1" byte_order="LittleEndian" header_type="UInt32" compressor="vtkZLibDataCompressor">
  <UnstructuredGrid>
    <Piece NumberOfPoints="13" NumberOfCells="11">
      <PointData>
        <DataArray type="Float64" Name="Disp" NumberOfComponents="3" format="ascii" RangeMin="0.04360265143834959" RangeMax="0.17891045572019504">
          0.000384414122394963 0.06369515354255201 0 -0.012838942850297007 0.08429001331704561 0
          -0.0016655005579381496 0.08556123985049274 0 -0.015665606331330358 0.10707687910724716 0
          -0.004117068105792904 0.10843419858538064 0 -0.018489979048491218 0.13037294146344136 0
          -0.006797429445661277 0.1317629746583673 0 -0.021270853021708468 0.1537963871190033 0
          -0.009588235800056192 0.15518190537572799 0 -0.023990198198576312 0.17711102076239463 0
          -0.012358183033375185 0.17848312659218368 0 -0.01008922285104306 0.06257867357947186 0
          0.0018538409826436865 0.04356322400907996 0
          <InformationKey name="L2_NORM_RANGE" location="vtkDataArray" length="2">
            <Value index="0">
              0.043602651438
            </Value>
            <Value index="1">
              0.17891045572
            </Value>
          </InformationKey>
        </DataArray>
        <DataArray type="Float64" Name="Nodal Stress" NumberOfComponents="6" format="ascii" RangeMin="1149.4503627421927" RangeMax="36563.087073706774">
          24062.974088899384 1263.296608023359 0 6022.925700776166 0 0
          -16662.35762961429 -628.4964225348092 0 2598.06726457699 0 0
          15023.078184386977 975.5705065735758 0 4618.527743597688 0 0
          -9635.866036773787 -270.8660687139888 0 2041.3506044128362 0 0
          8433.023836552149 657.8443108287821 0 3141.728217608303 0 0
          -4832.590555148595 -120.91496848164799 0 1410.0528045035874 0 0
          4220.403866512629 463.7302331805927 0 1961.7239935381103 0 0
          -2019.1549102406589 -88.68368535475882 0 617.3625672409262 0 0
          1709.0662696167537 153.27321937495117 0 733.8997615877828 0 0
          -1135.1599463318848 -23.515065590468197 0 179.15098197393974 0 0
          1938.740865536571 884.9881838962218 0 1110.2338785371483 0 0
          -26051.828829439724 -1305.1398109265517 0 3105.460626900072 0 0
          35842.01175966403 1338.6917249297055 0 7100.5234909247165 0 0
          <InformationKey name="L2_NORM_RANGE" location="vtkDataArray" length="2">
            <Value index="0">
              1149.4503627
            </Value>
            <Value index="1">
              36563.087074
            </Value>
          </InformationKey>
        </DataArray>
        <DataArray type="Float64" Name="Nodal Strain" NumberOfComponents="6" format="ascii" RangeMin="0" RangeMax="0">
          0 0 0 0 0 0
          0 0 0 0 0 0
          0 0 0 0 0 0
          0 0 0 0 0 0
          0 0 0 0 0 0
          0 0 0 0 0 0
          0 0 0 0 0 0
          0 0 0 0 0 0
          0 0 0 0 0 0
          0 0 0 0 0 0
          0 0 0 0 0 0
          0 0 0 0 0 0
          0 0 0 0 0 0
          <InformationKey name="L2_NORM_RANGE" location="vtkDataArray" length="2">
            <Value index="0">
              0
            </Value>
            <Value index="1">
              0
            </Value>
          </InformationKey>
        </DataArray>
        <DataArray type="Float64" Name="Sld_traction" NumberOfComponents="3" format="ascii" RangeMin="115.11569476831822" RangeMax="17154.229012658994">
          5453.894602813227 -1431.1353568153509 0 11596.001763837938 -2322.0548555564465 0
          2868.9667379321168 -785.6212067148039 0 7338.420202164256 -1388.0849511562283 0
          1074.735399083791 -426.0864166222977 0 3976.688013455723 -844.0150824957533 0
          0.2360175179854319 -269.320557984631 0 1636.5290220800152 -424.82977239526844 0
          -113.186177283661 -220.42713006287903 0 53.44208622311485 -101.95865143338139 0
          -13.186200410940847 -130.43706274070865 0 16737.672592317944 -3757.3779702234274 0
          8770.72790853897 -2415.0924704934882 0
          <InformationKey name="L2_NORM_RANGE" location="vtkDataArray" length="2">
            <Value index="0">
              115.11569477
            </Value>
            <Value index="1">
              17154.229013
            </Value>
          </InformationKey>
        </DataArray>
        <DataArray type="Float64" Name="Velocity" NumberOfComponents="3" format="ascii" RangeMin="0.32823397101739477" RangeMax="7.029520967074698">
          0.0015779634260438269 -0.9190488063681244 0 0.6214346599276572 -1.683508890409648 0
          0.12741893369280421 -1.7973715286752565 0 0.9361992984047163 -2.7761133270661915 0
          0.33552715693131185 -2.919648066334126 0 1.2765684901462446 -4.048322457846254 0
          0.6115977414647316 -4.20922118582628 0 1.6149102906669484 -5.406672089679901 0
          0.9359646738318688 -5.570464632285706 0 1.9301508921318025 -6.755105134544763 0
          1.2624941112981052 -6.915220433614564 0 0.3606907363616072 -0.8422774797609449 0
          -0.04664430716896717 -0.3249028290713625 0
          <InformationKey name="L2_NORM_RANGE" location="vtkDataArray" length="2">
            <Value index="0">
              0.32823397102
            </Value>
            <Value index="1">
              7.0295209671
            </Value>
          </InformationKey>
        </DataArray>
        <DataArray type="Float64" Name="Acceleration" NumberOfComponents="3" format="ascii" RangeMin="732.0476166902934" RangeMax="1059.8274566265163">
          93.57439634547404 -969.5108508335834 0 146.13165272742117 -1049.7046145895438 0
          126.34295523064634 -1048.762296495057 0 107.2530882302126 -1051.811205584032 0
          128.8090569086835 -1037.0803144628444 0 51.498674469810794 -980.5646793314954 0
          100.79042030234177 -956.0967104403826 0 -7.822662565882638 -869.2649249835231 0
          49.27932988977227 -842.2553095478797 0 -57.85494091250075 -757.6799113597081 0
          -4.38362917573977 -732.0344916034956 0 159.1551266424849 -957.0813651284843 0
          42.13567906981734 -798.9961029764963 0
          <InformationKey name="L2_NORM_RANGE" location="vtkDataArray" length="2">
            <Value index="0">
              732.04761669
            </Value>
            <Value index="1">
              1059.8274566
            </Value>
          </InformationKey>
        </DataArray>
        <DataArray type="Float64" Name="Sigma" NumberOfComponents="6" format="ascii" RangeMin="2419.7037744033264" RangeMax="69990.38665203772">
          32342.400436000946 -32342.40043599815 0 9330.683556730723 0 0
          -24661.016995125425 24661.016995123337 0 -168.99634258995448 0 0
          19819.759231347194 -19819.75923134236 0 6901.180796629493 0 0
          -14282.062834626977 14282.06283462225 0 274.34296436420607 0 0
          10772.777395293971 -10772.777395290475 0 4448.870069280767 0 0
          -7094.8592360862785 7094.859236085479 0 308.05116702453574 0 0
          4912.146862063278 -4912.146862066271 0 2932.8990084469806 0 0
          -2803.1929883096404 2803.192988308206 0 32.43603034348095 0 0
          2086.0660200967027 -2086.066020083603 0 811.2764047550852 0 0
          -1664.3799490843628 1664.3799490741612 0 -581.7411388693741 0 0
          842.9096461389295 -842.9096461308778 0 2105.700124131441 0 0
          -38511.63269238761 38511.63269238272 0 -581.0147235029449 0 0
          48893.95928243719 -48893.95928243595 0 10835.853223286582 0 0
          <InformationKey name="L2_NORM_RANGE" location="vtkDataArray" length="2">
            <Value index="0">
              2419.7037744
            </Value>
            <Value index="1">
              69990.386652
            </Value>
          </InformationKey>
        </DataArray>
        <DataArray type="Float64" Name="Press" format="ascii" RangeMin="-42341.02517231736" RangeMax="53115.65052751647">
          35830.41242985782 -27012.419178985274 22155.968897051047 -15559.004256700442 12216.860337409742 -7900.74751034035
          5966.975621919464 -3141.48756066463 2165.463820371974 -2161.0433105554666 2821.5187945197886 -42341.02517231736
          53115.65052751647
        </DataArray>
        <DataArray type="Float64" Name="Dev strain" NumberOfComponents="6" format="ascii" RangeMin="0" RangeMax="0">
          0 0 0 0 0 0
          0 0 0 0 0 0
          0 0 0 0 0 0
          0 0 0 0 0 0
          0 0 0 0 0 0
          0 0 0 0 0 0
          0 0 0 0 0 0
          0 0 0 0 0 0
          0 0 0 0 0 0
          0 0 0 0 0 0
          0 0 0 0 0 0
          0 0 0 0 0 0
          0 0 0 0 0 0
          <InformationKey name="L2_NORM_RANGE" location="vtkDataArray" length="2">
            <Value index="0">
              0
            </Value>
            <Value index="1">
              0
            </Value>
          </InformationKey>
        </DataArray>
        <DataArray type="Float64" Name="J2 Stresses" format="ascii" RangeMin="1818989.92473906" RangeMax="2419973183.0817175">
          1067796279.8715051 608172899.1747658 404729430.0854183 203996134.82768965 121000844.03185466 50360751.460249394
          26279660.942930125 7858153.9537204215 4516213.791402854 2854766.3030603463 1818989.92473906 1483230247.1604214
          2419973183.0817175
        </DataArray>
      </PointData>
      <CellData>
        <DataArray type="UInt8" Name="vtkGhostType" format="ascii" RangeMin="0" RangeMax="1">
          1 1 0 0 0 0
          0 0 0 0 0
        </DataArray>
        <DataArray type="Float64" Name="Gauss Stress" NumberOfComponents="6" format="ascii" RangeMin="1654.072243689053" RangeMax="30511.302763657994">
          29776.58827036915 1293.436919668517 0 6528.507352171453 0 0
          -21451.093724318976 -897.5942233123028 0 2860.2241635459404 0 0
          19491.70160671544 1157.6064919021396 0 5354.289336923421 0 0
          11708.099589924848 834.45039524992 0 3874.797943424822 0 0
          -13179.591712346628 -430.71131341048 0 2335.5091394679143 0 0
          6291.051156753278 564.3411425725292 0 2563.273414917428 0 0
          -7282.345368350115 -212.9155847379331 0 1677.0880668898358 0 0
          3061.9905918257164 265.3106625950469 0 1258.8704811818488 0 0
          -3353.7216038060524 -29.78469558603416 0 1091.1287352716654 0 0
          1363.5116738291886 520.4478623986591 0 778.4117966723841 0 0
          -1839.5246560484748 -251.8533778497858 0 87.32376540973058 0 0
          <InformationKey name="L2_NORM_RANGE" location="vtkDataArray" length="2">
            <Value index="0">
              1654.0722437
            </Value>
            <Value index="1">
              30511.302764
            </Value>
          </InformationKey>
        </DataArray>
        <DataArray type="Float64" Name="Gauss Strain" NumberOfComponents="6" format="ascii" RangeMin="0" RangeMax="0">
          0 0 0 0 0 0
          0 0 0 0 0 0
          0 0 0 0 0 0
          0 0 0 0 0 0
          0 0 0 0 0 0
          0 0 0 0 0 0
          0 0 0 0 0 0
          0 0 0 0 0 0
          0 0 0 0 0 0
          0 0 0 0 0 0
          0 0 0 0 0 0
          <InformationKey name="L2_NORM_RANGE" location="vtkDataArray" length="2">
            <Value index="0">
              0
            </Value>
            <Value index="1">
              0
            </Value>
          </InformationKey>
        </DataArray>
      </CellData>
      <Points>
        <DataArray type="Float32" Name="Points" NumberOfComponents="3" format="ascii" RangeMin="0.4000000059604645" RangeMax="1.0012492197622458">
          0.5 0 0 0.6000000238418579 0.05000000074505806 0
          0.6000000238418579 0 0 0.699999988079071 0.05000000074505806 0
          0.699999988079071 0 0 0.800000011920929 0.05000000074505806 0
          0.800000011920929 0 0 0.8999999761581421 0.05000000074505806 0
          0.8999999761581421 0 0 1 0.05000000074505806 0
          1 0 0 0.5 0.05000000074505806 0
          0.4000000059604645 0 0
          <InformationKey name="L2_NORM_RANGE" location="vtkDataArray" length="2">
            <Value index="0">
              0.40000000596
            </Value>
            <Value index="1">
              1.0012492198
            </Value>
          </InformationKey>
        </DataArray>
      </Points>
      <Cells>
        <DataArray type="Int64" Name="connectivity" format="ascii" RangeMin="0" RangeMax="12">
          0 11 12 1 11 0
          2 1 0 4 3 2
          3 1 2 6 5 4
          5 3 4 8 7 6
          7 5 6 10 9 8
          9 7 8
        </DataArray>
        <DataArray type="Int64" Name="offsets" format="ascii" RangeMin="3" RangeMax="33">
          3 6 9 12 15 18
          21 24 27 30 33
        </DataArray>
        <DataArray type="UInt8" Name="types" format="ascii" RangeMin="5" RangeMax="5">
          5 5 5 5 5 5
          5 5 5 5 5
        </DataArray>
      </Cells>
    </Piece>
  </UnstructuredGrid>
</VTKFile>
