<?xml version="1.0"?>
<VTKFile type="UnstructuredGrid" version="0.1" byte_order="LittleEndian" header_type="UInt32" compressor="vtkZLibDataCompressor">
  <UnstructuredGrid>
    <Piece NumberOfPoints="13" NumberOfCells="11">
      <PointData>
        <DataArray type="Float64" Name="Disp" NumberOfComponents="3" format="ascii" RangeMin="0" RangeMax="0.07295535692202666">
          0 0 0 0 0 0
          0.0013249410906917831 -0.0026698937844316937 0 -0.001580436778159948 -0.0026049257483428652 0
          0.002234567116823488 -0.011551005767023302 0 -0.0032100593463195767 -0.01127803414867523 0
          0.002213470810148614 -0.024286735165065496 0 -0.004747764560317541 -0.02380332903088037 0
          0.0015443769746109122 -0.0394314734458171 0 -0.006352352155314191 -0.038810362800953555 0
          0.0004316997272690115 -0.05589729885922455 0 -0.007943385053376622 -0.05519259770894139 0
          -0.0009373882096244603 -0.0729493345203694 0
          <InformationKey name="L2_NORM_RANGE" location="vtkDataArray" length="2">
            <Value index="0">
              0
            </Value>
            <Value index="1">
              0.072955356922
            </Value>
          </InformationKey>
        </DataArray>
        <DataArray type="Float64" Name="Nodal Stress" NumberOfComponents="6" format="ascii" RangeMin="9879.071366541491" RangeMax="150398.20168553418">
          143736.22221080985 -3598.418770576183 0 -44119.93741109427 0 0
          -75134.74958229488 -12507.935920371438 0 -3988.530678788363 0 0
          98327.10495348107 7544.991953079545 0 -19215.03149398849 0 0
          -90679.6901492178 -845.7347571269369 0 5225.054983102196 0 0
          68338.50378424373 9251.233378487232 0 -22932.649925964797 0 0
          -72858.90496689346 -2193.4535799957416 0 5014.56747824047 0 0
          49355.41639388099 8957.992164543528 0 -18806.804389712695 0 0
          -51056.06956339562 -612.4020145929043 0 4818.376571107553 0 0
          30051.84908111844 7502.262282240834 0 -14406.554555265893 0 0
          -32885.27378097594 -69.81307447276811 0 2860.683638473227 0 0
          16644.464017305607 5448.56809362664 0 -9515.316361267041 0 0
          -18383.713142395252 467.14178841094605 0 1272.5269484249964 0 0
          7485.24400685283 3349.3740698259426 0 -5508.98053758328 0 0
          <InformationKey name="L2_NORM_RANGE" location="vtkDataArray" length="2">
            <Value index="0">
              9879.0713665
            </Value>
            <Value index="1">
              150398.20169
            </Value>
          </InformationKey>
        </DataArray>
        <DataArray type="Float64" Name="Nodal Strain" NumberOfComponents="6" format="ascii" RangeMin="0" RangeMax="0">
          0 0 0 0 0 0
          0 0 0 0 0 0
          0 0 0 0 0 0
          0 0 0 0 0 0
          0 0 0 0 0 0
          0 0 0 0 0 0
          0 0 0 0 0 0
          0 0 0 0 0 0
          0 0 0 0 0 0
          0 0 0 0 0 0
          0 0 0 0 0 0
          0 0 0 0 0 0
          0 0 0 0 0 0
          <InformationKey name="L2_NORM_RANGE" location="vtkDataArray" length="2">
            <Value index="0">
              0
            </Value>
            <Value index="1">
              0
            </Value>
          </InformationKey>
        </DataArray>
        <DataArray type="Float64" Name="Sld_traction" NumberOfComponents="3" format="ascii" RangeMin="2500.9904365279126" RangeMax="71603.42224590841">
          -68915.99542246253 19432.84982335264 0 25606.199378819434 21672.05252935862 0
          -28617.87806964876 18257.522196467235 0 -14770.243524962556 12309.739200911637 0
          -25253.34312626363 14619.521389561512 0 -9906.335910298854 9060.736279566607 0
          -20807.176860303407 12949.70744874439 0 -6409.534818604259 6205.344751514603 0
          -16073.163569495442 10035.524593046439 0 -3610.8887143709867 3718.5922830689524 0
          -11087.653277828253 6966.776385154535 0 -1732.9127316357315 1803.3209997498686 0
          -6747.73128923535 4123.652052392345 0
          <InformationKey name="L2_NORM_RANGE" location="vtkDataArray" length="2">
            <Value index="0">
              2500.9904365
            </Value>
            <Value index="1">
              71603.422246
            </Value>
          </InformationKey>
        </DataArray>
        <DataArray type="Float64" Name="Velocity" NumberOfComponents="3" format="ascii" RangeMin="0" RangeMax="5.342037303441588">
          0 0 0 0 0 0
          -0.12007043187111222 0.25522668155786543 0 0.14561738454691553 0.24249320454505718 0
          -0.14967400274253806 1.0494684953982025 0 0.31583310079381377 0.9996935682137993 0
          -0.05935248914353175 2.102905597431464 0 0.4839085750399077 2.0244536909977686 0
          0.10810001310581463 3.22759840901416 0 0.6604340442193193 3.138053471282685 0
          0.3040353087389243 4.315311018365705 0 0.8269683548765574 4.22574058323714 0
          0.49866954610909087 5.318711426195712 0
          <InformationKey name="L2_NORM_RANGE" location="vtkDataArray" length="2">
            <Value index="0">
              0
            </Value>
            <Value index="1">
              5.3420373034
            </Value>
          </InformationKey>
        </DataArray>
        <DataArray type="Float64" Name="Acceleration" NumberOfComponents="3" format="ascii" RangeMin="0" RangeMax="1787.165119387039">
          0 0 0 0 0 0
          -74.14138828591945 180.06112945712175 0 111.46878667606688 173.42172704949007 0
          -78.99180701244723 706.9737078397593 0 198.0716206526572 680.1080808378629 0
          4.285674347209806 1251.4597142089624 0 239.85869418141556 1222.5625794371772 0
          106.97354403960503 1634.2797071263412 0 241.3213916052291 1619.4126368177458 0
          185.1260897003271 1770.947992410096 0 192.2563443131021 1776.79392784449 0
          217.88755921058532 1645.3721704118361 0
          <InformationKey name="L2_NORM_RANGE" location="vtkDataArray" length="2">
            <Value index="0">
              0
            </Value>
            <Value index="1">
              1787.1651194
            </Value>
          </InformationKey>
        </DataArray>
        <DataArray type="Float64" Name="Sigma" NumberOfComponents="6" format="ascii" RangeMin="18242.011364290327" RangeMax="223119.8069246722">
          146502.36777827228 -146502.3677782722 0 -82804.3520161997 0 0
          -136617.3517427555 136617.35174275492 0 21874.716689575172 0 0
          138281.8981489829 -138281.89814898255 0 -32745.762301552786 0 0
          -131108.88945016632 131108.88945016687 0 30523.6578559229 0 0
          99057.563258676 -99057.56325867535 0 -54288.25007752791 0 0
          -94630.00575409875 94630.00575409706 0 33045.87772625786 0 0
          70010.81573683259 -70010.81573683051 0 -42819.43460914799 0 0
          -65535.3980491031 65535.39804910198 0 26503.832575158125 0 0
          42146.47813552027 -42146.47813551932 0 -32869.823077910565 0 0
          -40064.00254446293 40064.002544462935 0 17594.173097748328 0 0
          23036.60959624426 -23036.60959624248 0 -20725.72412179601 0 0
          -21674.803775467775 21674.80377547019 0 9636.864019424442 0 0
          10119.202030452134 -10119.202030455182 0 -11312.580569817952 0 0
          <InformationKey name="L2_NORM_RANGE" location="vtkDataArray" length="2">
            <Value index="0">
              18242.011364
            </Value>
            <Value index="1">
              223119.80692
            </Value>
          </InformationKey>
        </DataArray>
        <DataArray type="Float64" Name="Press" format="ascii" RangeMin="-172397.28041311554" RangeMax="165558.5610704792">
          143557.1631115518 -172397.28041311554 165558.5610704792 -139742.85048979142 117150.62004397993 -108812.64556254412
          90261.15672078755 -75158.2804857378 57395.93616840209 -46699.483414978764 33696.399059164905 -24975.620423751894
          16118.78635311327
        </DataArray>
        <DataArray type="Float64" Name="Dev strain" NumberOfComponents="6" format="ascii" RangeMin="0" RangeMax="0">
          0 0 0 0 0 0
          0 0 0 0 0 0
          0 0 0 0 0 0
          0 0 0 0 0 0
          0 0 0 0 0 0
          0 0 0 0 0 0
          0 0 0 0 0 0
          0 0 0 0 0 0
          0 0 0 0 0 0
          0 0 0 0 0 0
          0 0 0 0 0 0
          0 0 0 0 0 0
          0 0 0 0 0 0
          <InformationKey name="L2_NORM_RANGE" location="vtkDataArray" length="2">
            <Value index="0">
              0
            </Value>
            <Value index="1">
              0
            </Value>
          </InformationKey>
        </DataArray>
        <DataArray type="Float64" Name="J2 Stresses" format="ascii" RangeMin="134391869.52029312" RangeMax="23177083942.845825">
          23177083942.845825 18783926604.765995 19389954592.863083 17422464315.082367 10549204362.866587 9227845497.6953
          5359890315.198355 4470501682.747315 2046431936.521134 1682513031.631115 638074291.7829312 493014405.7373039
          134391869.52029312
        </DataArray>
      </PointData>
      <CellData>
        <DataArray type="UInt8" Name="vtkGhostType" format="ascii" RangeMin="0" RangeMax="0">
          0 0 0 0 0 0
          0 0 0 0 0
        </DataArray>
        <DataArray type="Float64" Name="Gauss Stress" NumberOfComponents="6" format="ascii" RangeMin="14905.105778401523" RangeMax="100036.5570800657">
          -92008.6376254556 -5712.408929496176 0 6550.870747981766 0 0
          94961.78598447176 -3816.156805194787 0 -31225.13254272577 0 0
          -86028.73598464823 -1574.514687589009 0 3093.761834884288 0 0
          83065.63419405348 12245.252889058887 0 -18836.784841052606 0 0
          -61288.11913128788 -1185.0604203752741 0 5576.75856408933 0 0
          57679.16814787776 8053.585986938194 0 -21353.935653472687 0 0
          -42638.25006345342 -336.3017580896267 0 3742.727531665294 0 0
          39706.902742233884 8625.638860068004 0 -16395.141703966816 0 0
          -25560.30050108408 241.163981374963 0 2168.4376651255866 0 0
          23170.645666629945 6424.588875096455 0 -12000.458033986088 0 0
          12106.857613251637 4452.852379099604 0 -7467.146890729841 0 0
          <InformationKey name="L2_NORM_RANGE" location="vtkDataArray" length="2">
            <Value index="0">
              14905.105778
            </Value>
            <Value index="1">
              100036.55708
            </Value>
          </InformationKey>
        </DataArray>
        <DataArray type="Float64" Name="Gauss Strain" NumberOfComponents="6" format="ascii" RangeMin="0" RangeMax="0">
          0 0 0 0 0 0
          0 0 0 0 0 0
          0 0 0 0 0 0
          0 0 0 0 0 0
          0 0 0 0 0 0
          0 0 0 0 0 0
          0 0 0 0 0 0
          0 0 0 0 0 0
          0 0 0 0 0 0
          0 0 0 0 0 0
          0 0 0 0 0 0
          <InformationKey name="L2_NORM_RANGE" location="vtkDataArray" length="2">
            <Value index="0">
              0
            </Value>
            <Value index="1">
              0
            </Value>
          </InformationKey>
        </DataArray>
      </CellData>
      <Points>
        <DataArray type="Float32" Name="Points" NumberOfComponents="3" format="ascii" RangeMin="0" RangeMax="0.6020797527609908">
          0 0.05000000074505806 0 0 0 0
          0.10000000149011612 0.05000000074505806 0 0.10000000149011612 0 0
          0.20000000298023224 0.05000000074505806 0 0.20000000298023224 0 0
          0.30000001192092896 0.05000000074505806 0 0.30000001192092896 0 0
          0.4000000059604645 0.05000000074505806 0 0.4000000059604645 0 0
          0.5 0.05000000074505806 0 0.5 0 0
          0.6000000238418579 0.05000000074505806 0
          <InformationKey name="L2_NORM_RANGE" location="vtkDataArray" length="2">
            <Value index="0">
              0
            </Value>
            <Value index="1">
              0.60207975276
            </Value>
          </InformationKey>
        </DataArray>
      </Points>
      <Cells>
        <DataArray type="Int64" Name="connectivity" format="ascii" RangeMin="0" RangeMax="12">
          3 2 1 2 0 1
          5 4 3 4 2 3
          7 6 5 6 4 5
          9 8 7 8 6 7
          11 10 9 10 8 9
          12 10 11
        </DataArray>
        <DataArray type="Int64" Name="offsets" format="ascii" RangeMin="3" RangeMax="33">
          3 6 9 12 15 18
          21 24 27 30 33
        </DataArray>
        <DataArray type="UInt8" Name="types" format="ascii" RangeMin="5" RangeMax="5">
          5 5 5 5 5 5
          5 5 5 5 5
        </DataArray>
      </Cells>
    </Piece>
  </UnstructuredGrid>
</VTKFile>
