<?xml version="1.0"?>
<VTKFile type="UnstructuredGrid" version="0.1" byte_order="LittleEndian" header_type="UInt32" compressor="vtkZLibDataCompressor">
  <UnstructuredGrid>
    <Piece NumberOfPoints="13" NumberOfCells="11">
      <PointData>
        <DataArray type="Float64" Name="Disp" NumberOfComponents="3" format="ascii" RangeMin="0" RangeMax="0.019337549965744886">
          0 0 0 0 0 0
          -0.00016948314739408482 0.0002581227083298805 0 0.0001556289119338305 0.0002557802419847914 0
          -0.0004184741837807569 0.0013770256538762043 0 0.0004340454602414474 0.0013851460719995874 0
          -0.0007772572023922763 0.0037187282876103645 0 0.0007442885244599591 0.0037410654209257287 0
          -0.001201674145520721 0.007460497911864445 0 0.0010386689560048824 0.007511362374053159 0
          -0.001689028841234904 0.012653605983706663 0 0.0012626914471424158 0.012742390269940486 0
          -0.0022164313680403253 0.01921010855431189 0
          <InformationKey name="L2_NORM_RANGE" location="vtkDataArray" length="2">
            <Value index="0">
              0
            </Value>
            <Value index="1">
              0.019337549966
            </Value>
          </InformationKey>
        </DataArray>
        <DataArray type="Float64" Name="Nodal Stress" NumberOfComponents="6" format="ascii" RangeMin="13386.75954287286" RangeMax="21762.352770095258">
          -21090.54783212085 497.91548563791605 0 3254.2803092030576 0 0
          13053.721754336526 1646.474333982794 0 -2468.7652149596674 0 0
          -18541.12526916249 -774.3656733120687 0 -337.32071276192806 0 0
          18120.09515586583 1145.546713356885 0 -2257.3081362674916 0 0
          -18907.91722970897 -610.6040106134873 0 234.78271569107818 0 0
          20523.642075904605 1250.8013897441285 0 -1892.2736756394868 0 0
          -20549.940282483483 -923.194855449428 0 496.41278790050575 0 0
          21695.255072459957 988.1749581218438 0 -1392.6290543838902 0 0
          -20233.549542245353 -1055.635536669577 0 1105.5673687189478 0 0
          21407.493520827506 784.9502805826248 0 -563.0183766897703 0 0
          -18278.356218438275 -1123.1094979452173 0 1709.6642939134565 0 0
          19235.10923529352 489.2856183965865 0 336.514183803609 0 0
          -14767.567429232393 -1065.3378499367707 0 2250.86766693886 0 0
          <InformationKey name="L2_NORM_RANGE" location="vtkDataArray" length="2">
            <Value index="0">
              13386.759543
            </Value>
            <Value index="1">
              21762.35277
            </Value>
          </InformationKey>
        </DataArray>
        <DataArray type="Float64" Name="Nodal Strain" NumberOfComponents="6" format="ascii" RangeMin="0" RangeMax="0">
          0 0 0 0 0 0
          0 0 0 0 0 0
          0 0 0 0 0 0
          0 0 0 0 0 0
          0 0 0 0 0 0
          0 0 0 0 0 0
          0 0 0 0 0 0
          0 0 0 0 0 0
          0 0 0 0 0 0
          0 0 0 0 0 0
          0 0 0 0 0 0
          0 0 0 0 0 0
          0 0 0 0 0 0
          <InformationKey name="L2_NORM_RANGE" location="vtkDataArray" length="2">
            <Value index="0">
              0
            </Value>
            <Value index="1">
              0
            </Value>
          </InformationKey>
        </DataArray>
        <DataArray type="Float64" Name="Sld_traction" NumberOfComponents="3" format="ascii" RangeMin="3540.3536962029907" RangeMax="7814.671309700047">
          7590.536867487406 -1858.1812995409043 0 -2849.8494276875313 -2100.5862357273577 0
          2957.418347605356 -2730.8775208893585 0 4776.773887011423 -3278.4253433587232 0
          3320.2478996105506 -2625.5321223687183 0 5160.512916461911 -3236.2980581493534 0
          4642.84136565806 -2995.47440591203 0 5491.308227918574 -3102.026608857686 0
          5967.065517513469 -3153.0582428801945 0 5294.7340869873415 -2756.6938090402723 0
          6864.354659975568 -3076.5329467843794 0 4540.330655624482 -2160.0380126816567 0
          7050.570669660656 -2735.9431685746063 0
          <InformationKey name="L2_NORM_RANGE" location="vtkDataArray" length="2">
            <Value index="0">
              3540.3536962
            </Value>
            <Value index="1">
              7814.6713097
            </Value>
          </InformationKey>
        </DataArray>
        <DataArray type="Float64" Name="Velocity" NumberOfComponents="3" format="ascii" RangeMin="0" RangeMax="8.059352617410367">
          0 0 0 0 0 0
          -0.14107205022069927 0.2853426689390497 0 0.18064090670323044 0.28687835860834965 0
          -0.30516694426724006 1.266975257987613 0 0.29729947942854257 1.2760232719967317 0
          -0.41404754083326334 2.647066748452644 0 0.3490165412636512 2.668747997273526 0
          -0.5310649343279714 4.298991909542058 0 0.34287410044755984 4.337554512176801 0
          -0.6584535327597041 6.116527150108395 0 0.2772361159228516 6.172635515762558 0
          -0.8033162848165826 8.019217390637804 0
          <InformationKey name="L2_NORM_RANGE" location="vtkDataArray" length="2">
            <Value index="0">
              0
            </Value>
            <Value index="1">
              8.0593526174
            </Value>
          </InformationKey>
        </DataArray>
        <DataArray type="Float64" Name="Acceleration" NumberOfComponents="3" format="ascii" RangeMin="0" RangeMax="826.3059415315045">
          0 0 0 0 0 0
          -37.52020877734277 92.52151889094532 0 63.49530469309951 97.07772934114092 0
          -79.05203722090187 377.7356826865321 0 67.66235876996424 387.5957046451374 0
          -79.97974896416449 645.2508425346482 0 30.16785338173898 661.369622984955 0
          -75.5354225643355 806.8599815766208 0 -35.769202805286426 825.5313883438596 0
          -57.86043809297871 795.8509246764988 0 -115.29973478382308 811.9726216041804 0
          -27.674259330603338 579.3645485550942 0
          <InformationKey name="L2_NORM_RANGE" location="vtkDataArray" length="2">
            <Value index="0">
              0
            </Value>
            <Value index="1">
              826.30594153
            </Value>
          </InformationKey>
        </DataArray>
        <DataArray type="Float64" Name="Sigma" NumberOfComponents="6" format="ascii" RangeMin="29728.166817001307" RangeMax="43752.57911002265">
          -19925.95734131998 19925.957341319358 0 9469.759783821084 0 0
          22977.51308945477 -22977.513089453925 0 -6769.702413794784 0 0
          -26302.52504233234 26302.52504233276 0 847.3040829648526 0 0
          26173.5394766171 -26173.53947661663 0 -3813.664077068262 0 0
          -27280.370814105147 27280.370814104837 0 2591.566358999939 0 0
          28830.382428948662 -28830.38242894853 0 -4294.108510445695 0 0
          -30018.25896559605 30018.258965596193 0 2658.8766005143107 0 0
          30832.68024024165 -30832.68024024119 0 -3602.7541110714933 0 0
          -29962.884024562125 29962.88402456191 0 3237.233684508543 0 0
          30099.322367618835 -30099.32236761854 0 -2563.509920697439 0 0
          -27419.054350582766 27419.054350583367 0 3546.659142902663 0 0
          26797.082820522945 -26797.08282052333 0 -1312.299938895602 0 0
          -22500.16100818357 22500.161008183535 0 3775.1709952543215 0 0
          <InformationKey name="L2_NORM_RANGE" location="vtkDataArray" length="2">
            <Value index="0">
              29728.166817
            </Value>
            <Value index="1">
              43752.57911
            </Value>
          </InformationKey>
        </DataArray>
        <DataArray type="Float64" Name="Press" format="ascii" RangeMin="-33087.55770882103" RangeMax="33843.95544674606">
          -19175.829475938262 27189.34151584483 -30022.94725693419 29184.989093687604 -29458.847314793085 32073.46713400276
          -33087.55770882103 33843.95544674606 -32981.851056076215 32795.076451793815 -30345.63223105395 28895.470965773504
          -25011.12323372404
        </DataArray>
        <DataArray type="Float64" Name="Dev strain" NumberOfComponents="6" format="ascii" RangeMin="0" RangeMax="0">
          0 0 0 0 0 0
          0 0 0 0 0 0
          0 0 0 0 0 0
          0 0 0 0 0 0
          0 0 0 0 0 0
          0 0 0 0 0 0
          0 0 0 0 0 0
          0 0 0 0 0 0
          0 0 0 0 0 0
          0 0 0 0 0 0
          0 0 0 0 0 0
          0 0 0 0 0 0
          0 0 0 0 0 0
          <InformationKey name="L2_NORM_RANGE" location="vtkDataArray" length="2">
            <Value index="0">
              0
            </Value>
            <Value index="1">
              0
            </Value>
          </InformationKey>
        </DataArray>
        <DataArray type="Float64" Name="J2 Stresses" format="ascii" RangeMin="419462863.55891" RangeMax="953899130.0931842">
          419462863.55891 539423325.4688804 692002304.654783 688690177.1572015 745897685.8033466 835800792.9742985
          902863277.5197824 953899130.0931842 900394339.5513829 907612102.7682095 754949239.2492118 718514180.4723825
          509820224.4050359
        </DataArray>
      </PointData>
      <CellData>
        <DataArray type="UInt8" Name="vtkGhostType" format="ascii" RangeMin="0" RangeMax="0">
          0 0 0 0 0 0
          0 0 0 0 0
        </DataArray>
        <DataArray type="Float64" Name="Gauss Stress" NumberOfComponents="6" format="ascii" RangeMin="15138.726633162738" RangeMax="21582.82103626909">
          16399.970292112597 1167.618609620149 0 -3245.3541359660644 0 0
          -15086.801503741732 413.84469239018927 0 1182.453817663718 0 0
          19841.053334785967 1358.6859404789868 0 -1838.7354095046728 0 0
          -19235.387285953355 -962.4830327395662 0 -124.93121170115637 0 0
          20824.88952517403 1061.6870561114247 0 -1745.995340334293 0 0
          -19647.061746787967 -668.2301796196164 0 318.7781496895186 0 0
          21542.09980858735 896.0207530552824 0 -976.3434490867968 0 0
          -20457.97202268924 -1025.6635227447534 0 764.452057983787 0 0
          20274.0886746908 622.5214496516202 0 -109.7169055634597 0 0
          -19271.67428095413 -1083.263609269869 0 1406.7943022379225 0 0
          -16527.805679082627 -1113.050653586973 0 2003.176733087128 0 0
          <InformationKey name="L2_NORM_RANGE" location="vtkDataArray" length="2">
            <Value index="0">
              15138.726633
            </Value>
            <Value index="1">
              21582.821036
            </Value>
          </InformationKey>
        </DataArray>
        <DataArray type="Float64" Name="Gauss Strain" NumberOfComponents="6" format="ascii" RangeMin="0" RangeMax="0">
          0 0 0 0 0 0
          0 0 0 0 0 0
          0 0 0 0 0 0
          0 0 0 0 0 0
          0 0 0 0 0 0
          0 0 0 0 0 0
          0 0 0 0 0 0
          0 0 0 0 0 0
          0 0 0 0 0 0
          0 0 0 0 0 0
          0 0 0 0 0 0
          <InformationKey name="L2_NORM_RANGE" location="vtkDataArray" length="2">
            <Value index="0">
              0
            </Value>
            <Value index="1">
              0
            </Value>
          </InformationKey>
        </DataArray>
      </CellData>
      <Points>
        <DataArray type="Float32" Name="Points" NumberOfComponents="3" format="ascii" RangeMin="0" RangeMax="0.6020797527609908">
          0 0.05000000074505806 0 0 0 0
          0.10000000149011612 0.05000000074505806 0 0.10000000149011612 0 0
          0.20000000298023224 0.05000000074505806 0 0.20000000298023224 0 0
          0.30000001192092896 0.05000000074505806 0 0.30000001192092896 0 0
          0.4000000059604645 0.05000000074505806 0 0.4000000059604645 0 0
          0.5 0.05000000074505806 0 0.5 0 0
          0.6000000238418579 0.05000000074505806 0
          <InformationKey name="L2_NORM_RANGE" location="vtkDataArray" length="2">
            <Value index="0">
              0
            </Value>
            <Value index="1">
              0.60207975276
            </Value>
          </InformationKey>
        </DataArray>
      </Points>
      <Cells>
        <DataArray type="Int64" Name="connectivity" format="ascii" RangeMin="0" RangeMax="12">
          3 2 1 2 0 1
          5 4 3 4 2 3
          7 6 5 6 4 5
          9 8 7 8 6 7
          11 10 9 10 8 9
          12 10 11
        </DataArray>
        <DataArray type="Int64" Name="offsets" format="ascii" RangeMin="3" RangeMax="33">
          3 6 9 12 15 18
          21 24 27 30 33
        </DataArray>
        <DataArray type="UInt8" Name="types" format="ascii" RangeMin="5" RangeMax="5">
          5 5 5 5 5 5
          5 5 5 5 5
        </DataArray>
      </Cells>
    </Piece>
  </UnstructuredGrid>
</VTKFile>
