<?xml version="1.0"?>
<VTKFile type="UnstructuredGrid" version="0.1" byte_order="LittleEndian" header_type="UInt32" compressor="vtkZLibDataCompressor">
  <UnstructuredGrid>
    <Piece NumberOfPoints="13" NumberOfCells="11">
      <PointData>
        <DataArray type="Float64" Name="Disp" NumberOfComponents="3" format="ascii" RangeMin="0" RangeMax="0.00014825743428300187">
          0 0 0 0 0 0
          -0.000001983360625203423 0.0000034788757331809527 0 0.0000020061668032649967 0.0000032450916493291385 0
          -0.000005047759686223966 0.000017328265347410735 0 0.0000047473723904078655 0.000017162920380329 0
          -0.000008073411284268107 0.00004410052696514026 0 0.000008330320764636491 0.0000439740035294368 0
          -0.00001000105953492955 0.0000848917784028487 0 0.000011586669088906278 0.00008488629575945551 0
          -0.000006707572307311261 0.00013088630872970853 0 0.00001019967282329374 0.00013112267710661813 0
          0.000010468429989801127 0.00014788738551251506 0
          <InformationKey name="L2_NORM_RANGE" location="vtkDataArray" length="2">
            <Value index="0">
              0
            </Value>
            <Value index="1">
              0.00014825743428
            </Value>
          </InformationKey>
        </DataArray>
        <DataArray type="Float64" Name="Nodal Stress" NumberOfComponents="6" format="ascii" RangeMin="39.44565406469803" RangeMax="3162.907917794219">
          -273.14667597089345 -65.78191824266482 0 42.148249182235865 0 0
          31.45215584624798 -36.33888824708973 0 -2.408616683712888 0 0
          -195.5507596176528 -15.499304116203971 0 17.98950082044212 0 0
          49.94130297897317 9.926039751882254 0 -3.5770003057760578 0 0
          -115.12430592081891 -3.8254814155886105 0 43.252413324855524 0 0
          -31.145602118216413 -7.47597875374006 0 23.02218136839359 0 0
          101.78707415734195 -9.218488371766687 0 99.67236550587131 0 0
          -253.65393295680272 -38.94878250281281 0 92.35476979081741 0 0
          605.9186103612006 -18.4631315055954 0 209.56809808264208 0 0
          -763.4215776346596 -113.05231305519585 0 233.81265966652305 0 0
          1579.108622705268 -35.62692192340733 0 375.8188854873611 0 0
          -1715.3989566786818 -240.40502771773706 0 479.0980912778948 0 0
          3116.145152971268 -64.09935760038444 0 538.0679830785808 0 0
          <InformationKey name="L2_NORM_RANGE" location="vtkDataArray" length="2">
            <Value index="0">
              39.445654065
            </Value>
            <Value index="1">
              3162.9079178
            </Value>
          </InformationKey>
        </DataArray>
        <DataArray type="Float64" Name="Nodal Strain" NumberOfComponents="6" format="ascii" RangeMin="0" RangeMax="0">
          0 0 0 0 0 0
          0 0 0 0 0 0
          0 0 0 0 0 0
          0 0 0 0 0 0
          0 0 0 0 0 0
          0 0 0 0 0 0
          0 0 0 0 0 0
          0 0 0 0 0 0
          0 0 0 0 0 0
          0 0 0 0 0 0
          0 0 0 0 0 0
          0 0 0 0 0 0
          0 0 0 0 0 0
          <InformationKey name="L2_NORM_RANGE" location="vtkDataArray" length="2">
            <Value index="0">
              0
            </Value>
            <Value index="1">
              0
            </Value>
          </InformationKey>
        </DataArray>
        <DataArray type="Float64" Name="Sld_traction" NumberOfComponents="3" format="ascii" RangeMin="13.531963616809827" RangeMax="662.9783799499057">
          113.47496713812288 -61.81706333609634 0 -1.3768149776513003 13.461739109193134 0
          47.92102582364837 -23.669491396765242 0 32.21854729312249 -14.980741874850237 0
          80.54497991135548 -12.35592476648458 0 18.407625094037982 7.16823693819815 0
          151.55493989614533 1.9888905250924072 0 -40.42457459049691 69.22630968339604 0
          268.226799326635 34.40732203148953 0 -190.08000973818335 203.42875252976037 0
          402.5864168133662 98.4043777206898 0 -495.8332316315523 440.10196397063834 0
          448.3118954013556 210.9335663554803 0
          <InformationKey name="L2_NORM_RANGE" location="vtkDataArray" length="2">
            <Value index="0">
              13.531963617
            </Value>
            <Value index="1">
              662.97837995
            </Value>
          </InformationKey>
        </DataArray>
        <DataArray type="Float64" Name="Velocity" NumberOfComponents="3" format="ascii" RangeMin="0" RangeMax="0.22238615142450283">
          0 0 0 0 0 0
          -0.0029750409378051347 0.005218313599771429 0 0.003009250204897495 0.004867637473993708 0
          -0.00757163952933595 0.025992398021116102 0 0.007121058585611798 0.0257443805704935 0
          -0.01211011692640216 0.06615079044771038 0 0.012495481146954736 0.0659610052941552 0
          -0.015001589302394326 0.12733766760427304 0 0.01738000363335942 0.12732944363918328 0
          -0.010061358460966893 0.19632946309456278 0 0.01529950923494061 0.19668401565992719 0
          0.01570264498470169 0.2218310782687726 0
          <InformationKey name="L2_NORM_RANGE" location="vtkDataArray" length="2">
            <Value index="0">
              0
            </Value>
            <Value index="1">
              0.22238615142
            </Value>
          </InformationKey>
        </DataArray>
        <DataArray type="Float64" Name="Acceleration" NumberOfComponents="3" format="ascii" RangeMin="0" RangeMax="296.51486856600377">
          0 0 0 0 0 0
          -3.966721250406846 6.957751466361906 0 4.012333606529993 6.490183298658277 0
          -10.095519372447933 34.65653069482147 0 9.494744780815731 34.325840760658004 0
          -16.146822568536216 88.20105393028052 0 16.660641529272983 87.9480070588736 0
          -20.002119069859102 169.7835568056974 0 23.173338177812557 169.77259151891104 0
          -13.415144614622523 261.77261745941706 0 20.399345646587477 262.2453542132362 0
          20.936859979602254 295.77477102503013 0
          <InformationKey name="L2_NORM_RANGE" location="vtkDataArray" length="2">
            <Value index="0">
              0
            </Value>
            <Value index="1">
              296.51486857
            </Value>
          </InformationKey>
        </DataArray>
        <DataArray type="Float64" Name="Sigma" NumberOfComponents="6" format="ascii" RangeMin="36.021543148473434" RangeMax="5900.604348483023">
          -190.30823602659396 190.30823602570632 0 85.42796883887907 0 0
          200.66252100219702 -200.66252100265294 0 -33.35916124279875 0 0
          -234.77556440650233 234.77556440666135 0 31.096220293984018 0 0
          128.3663549774529 -128.36635497713237 0 -33.450048518937024 0 0
          -139.41538812066105 139.41538812086606 0 77.490761948134 0 0
          17.602491952569856 -17.60249195269077 0 -26.035670241276744 0 0
          111.532232279115 -111.5322322788313 0 141.9640928886813 0 0
          -320.228612878291 320.228612877721 0 27.024685624238888 0 0
          741.522974381148 -741.5229743816781 0 264.82064933942917 0 0
          -1090.539918200095 1090.5399181999712 0 158.5809474330395 0 0
          2007.158247616159 -2007.1582476160213 0 412.7109118787296 0 0
          -2536.182929239292 2536.1829292392904 0 472.19208459949124 0 0
          4156.917660669913 -4156.91766066995 0 507.1516559744297 0 0
          <InformationKey name="L2_NORM_RANGE" location="vtkDataArray" length="2">
            <Value index="0">
              36.021543148
            </Value>
            <Value index="1">
              5900.6043485
            </Value>
          </InformationKey>
        </DataArray>
        <DataArray type="Float64" Name="Press" format="ascii" RangeMin="-2948.2011515752383" RangeMax="4355.451249873228">
          -292.1337167917664 146.95669469912121 -240.54644954166858 165.8427006635673 -156.49837643892346 11.27102535118577
          111.60479216576901 -375.4067422358189 770.5694232388446 -1278.7596146408139 2098.0488550309065 -2948.2011515752383
          4355.451249873228
        </DataArray>
        <DataArray type="Float64" Name="Dev strain" NumberOfComponents="6" format="ascii" RangeMin="0" RangeMax="0">
          0 0 0 0 0 0
          0 0 0 0 0 0
          0 0 0 0 0 0
          0 0 0 0 0 0
          0 0 0 0 0 0
          0 0 0 0 0 0
          0 0 0 0 0 0
          0 0 0 0 0 0
          0 0 0 0 0 0
          0 0 0 0 0 0
          0 0 0 0 0 0
          0 0 0 0 0 0
          0 0 0 0 0 0
          <InformationKey name="L2_NORM_RANGE" location="vtkDataArray" length="2">
            <Value index="0">
              0
            </Value>
            <Value index="1">
              0
            </Value>
          </InformationKey>
        </DataArray>
        <DataArray type="Float64" Name="J2 Stresses" format="ascii" RangeMin="479.3117541705408" RangeMax="17344265.13812898">
          38041.709164369 40543.655744754404 55361.30937157206 16757.647526636112 20937.854991688735 479.3117541705408
          17477.889754557353 102728.94791404407 567388.8156145969 1195564.292409925 4071266.805169237 6487965.191754394
          17344265.13812898
        </DataArray>
      </PointData>
      <CellData>
        <DataArray type="UInt8" Name="vtkGhostType" format="ascii" RangeMin="0" RangeMax="0">
          0 0 0 0 0 0
          0 0 0 0 0
        </DataArray>
        <DataArray type="Float64" Name="Gauss Stress" NumberOfComponents="6" format="ascii" RangeMin="11.832453024577815" RangeMax="2422.929186718382">
          55.50208579805589 -7.333455250701334 0 -11.904329822583922 0 0
          -203.3815836884044 -53.767397401533 0 27.72167596335478 0 0
          9.056269461730423 4.687296922290843 0 6.0016810626400705 0 0
          -159.00890762224512 4.874157411123404 0 25.045644574393673 0 0
          -147.8749377884902 -20.479012024221742 0 47.65103609054783 0 0
          -14.634407603648265 -7.780631677541566 0 64.47306153184621 0 0
          -517.6141634450091 -71.45045898059139 0 150.14209413223583 0 0
          346.53135565025576 -8.686373537997879 0 144.6031426174498 0 0
          -1249.4921703361251 -169.78243712063517 0 347.82798130375346 0 0
          1082.6666558087168 -22.760880056263616 0 278.70416955039946 0 0
          2377.7306441252254 -40.86467523926184 0 464.01821748421685 0 0
          <InformationKey name="L2_NORM_RANGE" location="vtkDataArray" length="2">
            <Value index="0">
              11.832453025
            </Value>
            <Value index="1">
              2422.9291867
            </Value>
          </InformationKey>
        </DataArray>
        <DataArray type="Float64" Name="Gauss Strain" NumberOfComponents="6" format="ascii" RangeMin="0" RangeMax="0">
          0 0 0 0 0 0
          0 0 0 0 0 0
          0 0 0 0 0 0
          0 0 0 0 0 0
          0 0 0 0 0 0
          0 0 0 0 0 0
          0 0 0 0 0 0
          0 0 0 0 0 0
          0 0 0 0 0 0
          0 0 0 0 0 0
          0 0 0 0 0 0
          <InformationKey name="L2_NORM_RANGE" location="vtkDataArray" length="2">
            <Value index="0">
              0
            </Value>
            <Value index="1">
              0
            </Value>
          </InformationKey>
        </DataArray>
      </CellData>
      <Points>
        <DataArray type="Float32" Name="Points" NumberOfComponents="3" format="ascii" RangeMin="0" RangeMax="0.6020797527609908">
          0 0.05000000074505806 0 0 0 0
          0.10000000149011612 0.05000000074505806 0 0.10000000149011612 0 0
          0.20000000298023224 0.05000000074505806 0 0.20000000298023224 0 0
          0.30000001192092896 0.05000000074505806 0 0.30000001192092896 0 0
          0.4000000059604645 0.05000000074505806 0 0.4000000059604645 0 0
          0.5 0.05000000074505806 0 0.5 0 0
          0.6000000238418579 0.05000000074505806 0
          <InformationKey name="L2_NORM_RANGE" location="vtkDataArray" length="2">
            <Value index="0">
              0
            </Value>
            <Value index="1">
              0.60207975276
            </Value>
          </InformationKey>
        </DataArray>
      </Points>
      <Cells>
        <DataArray type="Int64" Name="connectivity" format="ascii" RangeMin="0" RangeMax="12">
          3 2 1 2 0 1
          5 4 3 4 2 3
          7 6 5 6 4 5
          9 8 7 8 6 7
          11 10 9 10 8 9
          12 10 11
        </DataArray>
        <DataArray type="Int64" Name="offsets" format="ascii" RangeMin="3" RangeMax="33">
          3 6 9 12 15 18
          21 24 27 30 33
        </DataArray>
        <DataArray type="UInt8" Name="types" format="ascii" RangeMin="5" RangeMax="5">
          5 5 5 5 5 5
          5 5 5 5 5
        </DataArray>
      </Cells>
    </Piece>
  </UnstructuredGrid>
</VTKFile>
