<?xml version="1.0"?>
<VTKFile type="UnstructuredGrid" version="0.1" byte_order="LittleEndian" header_type="UInt32" compressor="vtkZLibDataCompressor">
  <UnstructuredGrid>
    <Piece NumberOfPoints="13" NumberOfCells="11">
      <PointData>
        <DataArray type="Float64" Name="Disp" NumberOfComponents="3" format="ascii" RangeMin="0.004354182170274937" RangeMax="0.01966468821096262">
          -0.0005905550207136211 -0.006468681091119012 0 0.0005849111842157962 -0.008894689747227045 0
          -0.0006674210716575058 -0.008875549060354577 0 0.0005958053606041129 -0.011488772438237234 0
          -0.0007301245047931224 -0.011468137849854754 0 0.0005848007145918915 -0.014191552671766415 0
          -0.0007789573124576332 -0.014170602576595458 0 0.0005551633082513597 -0.01693451919100003 0
          -0.0008121302064340417 -0.016914678371853186 0 0.0005124577508863379 -0.019658009804858902 0
          -0.0008455813676312592 -0.019639155824107014 0 0.0005496068220961122 -0.0064853993648029875 0
          -0.0005005046916245544 -0.00432532049975513 0
          <InformationKey name="L2_NORM_RANGE" location="vtkDataArray" length="2">
            <Value index="0">
              0.0043541821703
            </Value>
            <Value index="1">
              0.019664688211
            </Value>
          </InformationKey>
        </DataArray>
        <DataArray type="Float64" Name="Nodal Stress" NumberOfComponents="6" format="ascii" RangeMin="33.773861483462866" RangeMax="6203.605022033971">
          -2983.394997398116 -70.38476049221754 0 25.343928580811866 0 0
          4712.1185228766035 389.44329410196843 0 -942.5084397667475 0 0
          -1810.3163114728509 -2.8883446278145404 0 -78.1641019752053 0 0
          3361.3897617897983 313.95297816988415 0 -770.982856647736 0 0
          -817.179284788384 51.034202545333606 0 -147.10974194712895 0 0
          2109.2368571703378 234.66994647575413 0 -562.4772003142931 0 0
          -175.74945690341363 69.96688027147496 0 -170.53049562875856 0 0
          1058.6822094112194 130.55278460446456 0 -308.72091087568685 0 0
          -21.257628211353317 27.92113244988045 0 -98.65253369951014 0 0
          402.609703476071 42.49774322476803 0 -173.39340278969695 0 0
          -27.66164233962117 -14.691616667338275 0 -12.63580873070663 0 0
          6091.905298491533 459.49529958594206 0 -1078.0858839973403 0 0
          -4262.942954671704 -144.4028909328358 0 132.11207426135073 0 0
          <InformationKey name="L2_NORM_RANGE" location="vtkDataArray" length="2">
            <Value index="0">
              33.773861483
            </Value>
            <Value index="1">
              6203.605022
            </Value>
          </InformationKey>
        </DataArray>
        <DataArray type="Float64" Name="Nodal Strain" NumberOfComponents="6" format="ascii" RangeMin="0" RangeMax="0">
          0 0 0 0 0 0
          0 0 0 0 0 0
          0 0 0 0 0 0
          0 0 0 0 0 0
          0 0 0 0 0 0
          0 0 0 0 0 0
          0 0 0 0 0 0
          0 0 0 0 0 0
          0 0 0 0 0 0
          0 0 0 0 0 0
          0 0 0 0 0 0
          0 0 0 0 0 0
          0 0 0 0 0 0
          <InformationKey name="L2_NORM_RANGE" location="vtkDataArray" length="2">
            <Value index="0">
              0
            </Value>
            <Value index="1">
              0
            </Value>
          </InformationKey>
        </DataArray>
        <DataArray type="Float64" Name="Sld_traction" NumberOfComponents="3" format="ascii" RangeMin="22.492965260333754" RangeMax="2115.5195511310744">
          -805.3517564304793 541.5199071567304 0 -1557.9922706567932 767.9201891281092 0
          -516.7662237482921 341.3205414203538 0 -1211.7435760527726 564.4376808675459 0
          -261.4678419917985 165.83951710689792 0 -822.3631631935009 375.25199414499707 0
          -50.49621048759255 47.930400932388956 0 -434.34155081403543 196.15571423974453 0
          -14.5019652949485 23.020435122504672 0 -62.14926925347166 14.752926984683736 0
          14.316792865639194 17.348283149780666 0 -1879.24639021796 971.5225041503614 0
          -1107.979436004988 751.6729184293885 0
          <InformationKey name="L2_NORM_RANGE" location="vtkDataArray" length="2">
            <Value index="0">
              22.49296526
            </Value>
            <Value index="1">
              2115.5195511
            </Value>
          </InformationKey>
        </DataArray>
        <DataArray type="Float64" Name="Velocity" NumberOfComponents="3" format="ascii" RangeMin="1.9287598461234654" RangeMax="19.63843839105756">
          0.6226919136220023 3.7246448262601675 0 -0.5475402792132861 6.242307800694556 0
          0.834652681179493 6.207272681007137 0 -0.5746459685668278 9.265603961113902 0
          1.0300736062365534 9.221222022312011 0 -0.5400646635393718 12.640789552363643 0
          1.1925042445223526 12.59059969356927 0 -0.44931770511394525 16.16489971383624 0
          1.3020918466607274 16.11366289935637 0 -0.3237070115934897 19.635770323825053 0
          1.398919691553231 19.583701450575216 0 -0.4637615231303137 3.7488270841319116 0
          0.4152656114134129 1.883525687638918 0
          <InformationKey name="L2_NORM_RANGE" location="vtkDataArray" length="2">
            <Value index="0">
              1.9287598461
            </Value>
            <Value index="1">
              19.638438391
            </Value>
          </InformationKey>
        </DataArray>
        <DataArray type="Float64" Name="Acceleration" NumberOfComponents="3" format="ascii" RangeMin="19.34737376574429" RangeMax="697.8210266601911">
          -54.014963554715905 16.74466247637247 0 -134.90519959298354 7.5629256033826096 0
          -119.58849048445154 48.61147644767334 0 -243.80119327889338 40.996977574555785 0
          -218.98545070401815 98.16085674511851 0 -377.20743824337546 93.94774307563057 0
          -345.12106147931536 161.37004886292561 0 -520.924613220069 161.19630729106575 0
          -485.4410008646746 230.23306926870282 0 -657.4735292816358 233.84341671946459 0
          -622.3522801400522 301.00792309324606 0 -60.427539541481565 -6.6886247494476265 0
          -19.28858433795972 1.5071117638799478 0
          <InformationKey name="L2_NORM_RANGE" location="vtkDataArray" length="2">
            <Value index="0">
              19.347373766
            </Value>
            <Value index="1">
              697.82102666
            </Value>
          </InformationKey>
        </DataArray>
        <DataArray type="Float64" Name="Sigma" NumberOfComponents="6" format="ascii" RangeMin="103.98500468915974" RangeMax="10680.871262914734">
          -5391.362597583749 5391.362597583107 0 1064.2846314529213 0 0
          5482.866304139996 -5482.866304140175 0 -1861.804080128158 0 0
          -3622.4904730380786 3622.4904730393346 0 701.4264161574247 0 0
          3674.702022773821 -3674.702022773315 0 -1430.7016483365933 0 0
          -2038.118320169201 2038.1183201702038 0 375.52754212842746 0 0
          2071.788526130718 -2071.7885261305696 0 -958.8084119394993 0 0
          -852.7183531408216 852.7183531397611 0 59.60492614604838 0 0
          922.8077895220113 -922.8077895210528 0 -436.1670107873368 0 0
          -309.30827811134753 309.3082781114388 0 10.476145956719762 0 0
          284.17774340089926 -284.1777433992915 0 -268.9862392162996 0 0
          -0.40475831713886484 0.40475831612911345 0 103.98342916837665 0 0
          7384.845618387073 -7384.845618387309 0 -2238.1066373461326 0 0
          -7252.608302289012 7252.608302288943 0 1419.368176297002 0 0
          <InformationKey name="L2_NORM_RANGE" location="vtkDataArray" length="2">
            <Value index="0">
              103.98500469
            </Value>
            <Value index="1">
              10680.871263
            </Value>
          </InformationKey>
        </DataArray>
        <DataArray type="Float64" Name="Press" format="ascii" RangeMin="-8023.078178626536" RangeMax="8411.079209487014">
          -5958.5977280545 6298.084061332726 -3977.351711864281 4273.787326014245 -2205.591818476233 2473.774371270795
          -882.9698667913533 1123.1814973688295 -325.4654256998617 339.3893398607405 -49.31521608731871 8411.079209487014
          -8023.078178626536
        </DataArray>
        <DataArray type="Float64" Name="Dev strain" NumberOfComponents="6" format="ascii" RangeMin="0" RangeMax="0">
          0 0 0 0 0 0
          0 0 0 0 0 0
          0 0 0 0 0 0
          0 0 0 0 0 0
          0 0 0 0 0 0
          0 0 0 0 0 0
          0 0 0 0 0 0
          0 0 0 0 0 0
          0 0 0 0 0 0
          0 0 0 0 0 0
          0 0 0 0 0 0
          0 0 0 0 0 0
          0 0 0 0 0 0
          <InformationKey name="L2_NORM_RANGE" location="vtkDataArray" length="2">
            <Value index="0">
              0
            </Value>
            <Value index="1">
              0
            </Value>
          </InformationKey>
        </DataArray>
        <DataArray type="Float64" Name="J2 Stresses" format="ascii" RangeMin="2703.302214698585" RangeMax="55788225.137445696">
          29349966.102808252 30928401.51727022 13245436.981577054 14015161.757814415 4189181.5207356242 4522136.089708071
          728016.7765875096 899134.631726406 95699.04831676156 98845.38906590253 2703.302214698585 55788225.137445696
          53103978.69140218
        </DataArray>
      </PointData>
      <CellData>
        <DataArray type="UInt8" Name="vtkGhostType" format="ascii" RangeMin="0" RangeMax="1">
          1 1 0 0 0 0
          0 0 0 0 0
        </DataArray>
        <DataArray type="Float64" Name="Gauss Stress" NumberOfComponents="6" format="ascii" RangeMin="55.46538540111531" RangeMax="5519.172832829131">
          -3609.907326226571 -103.82380523642695 0 81.84872346793037 0 0
          5408.97162256952 424.7387392736211 0 -1011.8753620071234 0 0
          -2389.617381689296 -35.62620403459573 0 -32.03101083927061 0 0
          -1298.3543249199092 25.583522036651317 0 -117.91589668358034 0 0
          4043.1991764528116 353.1472738695122 0 -863.6931041024422 0 0
          -477.94515372536534 68.08694439420125 0 -174.55864788834108 0 0
          2750.1140358480484 277.8658833583753 0 -671.3275060492218 0 0
          -108.15754561751453 51.32168220258716 0 -122.02864622818952 0 0
          1618.6213214533927 190.70267977880326 0 -445.1234988602626 0 0
          -20.308864984675722 -3.285336299387845 0 -51.50888803040105 0 0
          678.2608887804238 79.80938557360093 0 -231.55903468230554 0 0
          <InformationKey name="L2_NORM_RANGE" location="vtkDataArray" length="2">
            <Value index="0">
              55.465385401
            </Value>
            <Value index="1">
              5519.1728328
            </Value>
          </InformationKey>
        </DataArray>
        <DataArray type="Float64" Name="Gauss Strain" NumberOfComponents="6" format="ascii" RangeMin="0" RangeMax="0">
          0 0 0 0 0 0
          0 0 0 0 0 0
          0 0 0 0 0 0
          0 0 0 0 0 0
          0 0 0 0 0 0
          0 0 0 0 0 0
          0 0 0 0 0 0
          0 0 0 0 0 0
          0 0 0 0 0 0
          0 0 0 0 0 0
          0 0 0 0 0 0
          <InformationKey name="L2_NORM_RANGE" location="vtkDataArray" length="2">
            <Value index="0">
              0
            </Value>
            <Value index="1">
              0
            </Value>
          </InformationKey>
        </DataArray>
      </CellData>
      <Points>
        <DataArray type="Float32" Name="Points" NumberOfComponents="3" format="ascii" RangeMin="0.4000000059604645" RangeMax="1.0012492197622458">
          0.5 0 0 0.6000000238418579 0.05000000074505806 0
          0.6000000238418579 0 0 0.699999988079071 0.05000000074505806 0
          0.699999988079071 0 0 0.800000011920929 0.05000000074505806 0
          0.800000011920929 0 0 0.8999999761581421 0.05000000074505806 0
          0.8999999761581421 0 0 1 0.05000000074505806 0
          1 0 0 0.5 0.05000000074505806 0
          0.4000000059604645 0 0
          <InformationKey name="L2_NORM_RANGE" location="vtkDataArray" length="2">
            <Value index="0">
              0.40000000596
            </Value>
            <Value index="1">
              1.0012492198
            </Value>
          </InformationKey>
        </DataArray>
      </Points>
      <Cells>
        <DataArray type="Int64" Name="connectivity" format="ascii" RangeMin="0" RangeMax="12">
          0 11 12 1 11 0
          2 1 0 4 3 2
          3 1 2 6 5 4
          5 3 4 8 7 6
          7 5 6 10 9 8
          9 7 8
        </DataArray>
        <DataArray type="Int64" Name="offsets" format="ascii" RangeMin="3" RangeMax="33">
          3 6 9 12 15 18
          21 24 27 30 33
        </DataArray>
        <DataArray type="UInt8" Name="types" format="ascii" RangeMin="5" RangeMax="5">
          5 5 5 5 5 5
          5 5 5 5 5
        </DataArray>
      </Cells>
    </Piece>
  </UnstructuredGrid>
</VTKFile>
