<?xml version="1.0"?>
<VTKFile type="UnstructuredGrid" version="0.1" byte_order="LittleEndian" header_type="UInt32" compressor="vtkZLibDataCompressor">
  <UnstructuredGrid>
    <Piece NumberOfPoints="13" NumberOfCells="11">
      <PointData>
        <DataArray type="Float64" Name="Disp" NumberOfComponents="3" format="ascii" RangeMin="0" RangeMax="0.08706303813739755">
          0 0 0 0 0 0
          -0.0012588094556891744 0.0024214489529637575 0 0.001576070103224028 0.0024895745035201306 0
          -0.00321154458918446 0.011260134438986377 0 0.002476963631663111 0.011572687588978331 0
          -0.005156366009768667 0.02470170363599348 0 0.0026446668273642877 0.025314111892547748 0
          -0.00764139714461852 0.0421528683412155 0 0.001992770258788678 0.04309095167251655 0
          -0.010537065808550353 0.06284136921522843 0 0.0005050631316745419 0.0640805064047897 0
          -0.013778931333901663 0.08596577028683895 0
          <InformationKey name="L2_NORM_RANGE" location="vtkDataArray" length="2">
            <Value index="0">
              0
            </Value>
            <Value index="1">
              0.087063038137
            </Value>
          </InformationKey>
        </DataArray>
        <DataArray type="Float64" Name="Nodal Stress" NumberOfComponents="6" format="ascii" RangeMin="22415.388161063187" RangeMax="134367.2614048342">
          -128967.14804947314 -18873.205376328147 0 32647.171090973014 0 0
          62667.75758115592 -12960.047677906354 0 3297.731972958348 0 0
          -85048.41628770142 -8958.05234977528 0 4959.1510867439665 0 0
          85339.03050956856 2723.801840204607 0 -1201.0900994285937 0 0
          -69528.48773091179 -4609.742230715302 0 6728.86620199314 0 0
          69391.4445254703 919.9609710542444 0 5070.339220023557 0 0
          -57010.222339299886 -4319.159503203584 0 3192.0630871566177 0 0
          54976.26599522914 1672.8278944669366 0 6516.14466238324 0 0
          -43628.07621074338 -2575.144848331331 0 2669.4185545298437 0 0
          41323.113869506764 1551.3923319220144 0 7233.856990243703 0 0
          -32261.516808642005 -1654.6617952849854 0 2258.906707394333 0 0
          29406.88139730646 1544.9269385479524 0 6753.720085117756 0 0
          -22285.766978492924 -840.925240630002 0 2255.4514694662143 0 0
          <InformationKey name="L2_NORM_RANGE" location="vtkDataArray" length="2">
            <Value index="0">
              22415.388161
            </Value>
            <Value index="1">
              134367.2614
            </Value>
          </InformationKey>
        </DataArray>
        <DataArray type="Float64" Name="Nodal Strain" NumberOfComponents="6" format="ascii" RangeMin="0" RangeMax="0">
          0 0 0 0 0 0
          0 0 0 0 0 0
          0 0 0 0 0 0
          0 0 0 0 0 0
          0 0 0 0 0 0
          0 0 0 0 0 0
          0 0 0 0 0 0
          0 0 0 0 0 0
          0 0 0 0 0 0
          0 0 0 0 0 0
          0 0 0 0 0 0
          0 0 0 0 0 0
          0 0 0 0 0 0
          <InformationKey name="L2_NORM_RANGE" location="vtkDataArray" length="2">
            <Value index="0">
              0
            </Value>
            <Value index="1">
              0
            </Value>
          </InformationKey>
        </DataArray>
        <DataArray type="Float64" Name="Sld_traction" NumberOfComponents="3" format="ascii" RangeMin="8071.161745013224" RangeMax="69379.61957523014">
          63586.76756971246 -27753.46108936725 0 -18119.562475180122 -749.378181482568 0
          29273.189033900075 -13787.397052123735 0 18955.365058853215 -8371.486513981601 0
          33674.112544983924 -12976.780971713888 0 18365.180170581614 -6853.989015197197 0
          28517.240148746307 -9694.636748178724 0 14503.955934744423 -4729.864415966658 0
          24099.277055215858 -6444.29423026436 0 11279.41192722392 -2880.8156984057705 0
          19495.0655246346 -4194.834912244025 0 7890.224727892265 -1699.4133274522558 0
          14797.596019198392 -2640.1580034028802 0
          <InformationKey name="L2_NORM_RANGE" location="vtkDataArray" length="2">
            <Value index="0">
              8071.161745
            </Value>
            <Value index="1">
              69379.619575
            </Value>
          </InformationKey>
        </DataArray>
        <DataArray type="Float64" Name="Velocity" NumberOfComponents="3" format="ascii" RangeMin="0" RangeMax="0.8064726139535134">
          0 0 0 0 0 0
          -0.04590981501928204 0.11370366091965511 0 0.07667528188570738 0.12339819118872297 0
          -0.11156490151184584 0.4545570634852787 0 0.053775385666730235 0.4748322258563 0
          -0.10388959169549761 0.7272430892762731 0 -0.016185974108718693 0.7446534213593221 0
          -0.051002342513224 0.8048582720673103 0 -0.09138580847939393 0.7996173240894642 0
          0.08698318314841647 0.5827846003964154 0 -0.12179151326029375 0.5373013825604858 0
          0.3183440136755147 0.012408869109670206 0
          <InformationKey name="L2_NORM_RANGE" location="vtkDataArray" length="2">
            <Value index="0">
              0
            </Value>
            <Value index="1">
              0.80647261395
            </Value>
          </InformationKey>
        </DataArray>
        <DataArray type="Float64" Name="Acceleration" NumberOfComponents="3" format="ascii" RangeMin="0" RangeMax="629.9066945819302">
          0 0 0 0 0 0
          6.85939653610717 -13.169018234094892 0 -9.369767674058949 -13.721320172815467 0
          19.349200530658436 -64.39487175161412 0 -15.363066822926157 -67.45401082455828 0
          38.09387139386399 -148.8497573440036 0 -14.207995697228853 -156.90161583872032 0
          68.54222588467928 -269.0776283821324 0 -1.7481632216899925 -283.22911754614324 0
          109.73972067913019 -424.29115369660576 0 23.311138108202726 -443.776407272846 0
          157.58139383059824 -609.8774862196005 0
          <InformationKey name="L2_NORM_RANGE" location="vtkDataArray" length="2">
            <Value index="0">
              0
            </Value>
            <Value index="1">
              629.90669458
            </Value>
          </InformationKey>
        </DataArray>
        <DataArray type="Float64" Name="Sigma" NumberOfComponents="6" format="ascii" RangeMin="46031.171833705834" RangeMax="193740.28292389293">
          -115637.96700466867 115637.96700466746 0 69245.29242516843 0 0
          136827.44536774445 -136827.4453677441 0 -9581.107227454688 0 0
          -125739.39670469808 125739.39670469805 0 1679.2067410098916 0 0
          118994.51270982515 -118994.51270982357 0 -6819.919174117598 0 0
          -102884.92665811036 102884.92665810973 0 13905.171230312144 0 0
          97473.0395790727 -97473.03957907335 0 5156.71643881523 0 0
          -83175.07448272734 83175.07448272762 0 -1043.2112062598787 0 0
          76278.57694238421 -76278.57694238392 0 11066.513041273894 0 0
          -64087.04949556661 64087.04949556547 0 -1812.7618954569662 0 0
          57222.12784526386 -57222.12784526205 0 12224.048433210455 0 0
          -47186.95979162929 47186.95979163188 0 -2786.5764896570336 0 0
          40381.85662337391 -40381.856623379244 0 11454.839295206133 0 0
          -32522.938302711707 32522.938302715425 0 -1840.0404071450916 0 0
          <InformationKey name="L2_NORM_RANGE" location="vtkDataArray" length="2">
            <Value index="0">
              46031.171834
            </Value>
            <Value index="1">
              193740.28292
            </Value>
          </InformationKey>
        </DataArray>
        <DataArray type="Float64" Name="Press" format="ascii" RangeMin="-138536.12445449474" RangeMax="134580.83820798906">
          -138536.12445449474 118067.10119399331 -136675.55913660533 134580.83820798906 -115773.28905593375 102974.55047258119
          -92740.42678682547 83292.13753672058 -70893.07522472019 62283.163406547545 -51994.532941724625 44727.80118160477
          -35630.69064856938
        </DataArray>
        <DataArray type="Float64" Name="Dev strain" NumberOfComponents="6" format="ascii" RangeMin="0" RangeMax="0">
          0 0 0 0 0 0
          0 0 0 0 0 0
          0 0 0 0 0 0
          0 0 0 0 0 0
          0 0 0 0 0 0
          0 0 0 0 0 0
          0 0 0 0 0 0
          0 0 0 0 0 0
          0 0 0 0 0 0
          0 0 0 0 0 0
          0 0 0 0 0 0
          0 0 0 0 0 0
          0 0 0 0 0 0
          <InformationKey name="L2_NORM_RANGE" location="vtkDataArray" length="2">
            <Value index="0">
              0
            </Value>
            <Value index="1">
              0
            </Value>
          </InformationKey>
        </DataArray>
        <DataArray type="Float64" Name="J2 Stresses" format="ascii" RangeMin="1058587953.0170949" RangeMax="18744699209.78904">
          14570867043.73447 18744699209.78904 15811100817.481201 14171321879.433926 10633646580.18076 9507641375.891123
          6918365087.612479 5849038228.078379 4107971439.469537 3311728755.1639867 2228550426.5101385 1663497680.170692
          1058587953.0170949
        </DataArray>
      </PointData>
      <CellData>
        <DataArray type="UInt8" Name="vtkGhostType" format="ascii" RangeMin="0" RangeMax="0">
          0 0 0 0 0 0
          0 0 0 0 0
        </DataArray>
        <DataArray type="Float64" Name="Gauss Stress" NumberOfComponents="6" format="ascii" RangeMin="27528.554895327023" RangeMax="91295.13930017785">
          82018.31387941621 -4703.393702497515 0 -4907.273220187464 0 0
          -87231.50024624303 -17531.554685161776 0 20447.79731290788 0 0
          78454.90841847469 2733.157997949776 0 4080.656165003258 0 0
          -75832.6068791778 -2746.066443855266 0 2921.486265734813 0 0
          61367.60108706864 983.2397279155546 0 5060.006091276417 0 0
          -64708.70897731435 -5650.734602804675 0 6006.225487622496 0 0
          48031.96033687648 1756.1901421558096 0 7159.266526342462 0 0
          -50441.637170244954 -3119.27247963864 0 2736.8466465190163 0 0
          35144.4854411454 1533.1356564727619 0 6964.103746253188 0 0
          -38218.775400609775 -2184.1877726539897 0 2541.570016032151 0 0
          -27408.487959885442 -1189.7936459070556 0 2276.0741328013346 0 0
          <InformationKey name="L2_NORM_RANGE" location="vtkDataArray" length="2">
            <Value index="0">
              27528.554895
            </Value>
            <Value index="1">
              91295.1393
            </Value>
          </InformationKey>
        </DataArray>
        <DataArray type="Float64" Name="Gauss Strain" NumberOfComponents="6" format="ascii" RangeMin="0" RangeMax="0">
          0 0 0 0 0 0
          0 0 0 0 0 0
          0 0 0 0 0 0
          0 0 0 0 0 0
          0 0 0 0 0 0
          0 0 0 0 0 0
          0 0 0 0 0 0
          0 0 0 0 0 0
          0 0 0 0 0 0
          0 0 0 0 0 0
          0 0 0 0 0 0
          <InformationKey name="L2_NORM_RANGE" location="vtkDataArray" length="2">
            <Value index="0">
              0
            </Value>
            <Value index="1">
              0
            </Value>
          </InformationKey>
        </DataArray>
      </CellData>
      <Points>
        <DataArray type="Float32" Name="Points" NumberOfComponents="3" format="ascii" RangeMin="0" RangeMax="0.6020797527609908">
          0 0.05000000074505806 0 0 0 0
          0.10000000149011612 0.05000000074505806 0 0.10000000149011612 0 0
          0.20000000298023224 0.05000000074505806 0 0.20000000298023224 0 0
          0.30000001192092896 0.05000000074505806 0 0.30000001192092896 0 0
          0.4000000059604645 0.05000000074505806 0 0.4000000059604645 0 0
          0.5 0.05000000074505806 0 0.5 0 0
          0.6000000238418579 0.05000000074505806 0
          <InformationKey name="L2_NORM_RANGE" location="vtkDataArray" length="2">
            <Value index="0">
              0
            </Value>
            <Value index="1">
              0.60207975276
            </Value>
          </InformationKey>
        </DataArray>
      </Points>
      <Cells>
        <DataArray type="Int64" Name="connectivity" format="ascii" RangeMin="0" RangeMax="12">
          3 2 1 2 0 1
          5 4 3 4 2 3
          7 6 5 6 4 5
          9 8 7 8 6 7
          11 10 9 10 8 9
          12 10 11
        </DataArray>
        <DataArray type="Int64" Name="offsets" format="ascii" RangeMin="3" RangeMax="33">
          3 6 9 12 15 18
          21 24 27 30 33
        </DataArray>
        <DataArray type="UInt8" Name="types" format="ascii" RangeMin="5" RangeMax="5">
          5 5 5 5 5 5
          5 5 5 5 5
        </DataArray>
      </Cells>
    </Piece>
  </UnstructuredGrid>
</VTKFile>
