<?xml version="1.0"?>
<VTKFile type="UnstructuredGrid" version="0.1" byte_order="LittleEndian" header_type="UInt32" compressor="vtkZLibDataCompressor">
  <UnstructuredGrid>
    <Piece NumberOfPoints="13" NumberOfCells="11">
      <PointData>
        <DataArray type="Float64" Name="Disp" NumberOfComponents="3" format="ascii" RangeMin="0.004912085175558237" RangeMax="0.015056155830152233">
          0.0004512497442008394 0.006748062958294661 0 -0.0004598041731917206 0.008549977564836843 0
          0.00042324853089214875 0.008561315223518665 0 -0.00044380455359678143 0.010269883595336224 0
          0.0003907679345454431 0.01027963303302961 0 -0.0004322298833366047 0.011896799351984358 0
          0.0003642966805452119 0.011905097868050918 0 -0.0004331967421758257 0.013469426684168048 0
          0.0003521681715174327 0.013476459069462682 0 -0.00044859489195302156 0.0150457245194793 0
          0.00034200712483489694 0.015052270908683156 0 -0.00046840975260332355 0.006735473895544205 0
          0.0004602871678890718 0.004890472011474522 0
          <InformationKey name="L2_NORM_RANGE" location="vtkDataArray" length="2">
            <Value index="0">
              0.0049120851756
            </Value>
            <Value index="1">
              0.01505615583
            </Value>
          </InformationKey>
        </DataArray>
        <DataArray type="Float64" Name="Nodal Stress" NumberOfComponents="6" format="ascii" RangeMin="78.34919774229894" RangeMax="3348.614435274728">
          1622.6358517050655 -112.16023663426161 0 370.5206839737383 0 0
          1809.3963856499631 -69.63425164548708 0 284.53546923357413 0 0
          634.7421110335019 -62.83342400442809 0 195.4467967820105 0 0
          1883.5274931143756 30.569899531245305 0 -25.601404475758127 0 0
          224.89088885887318 -1.4026296341285698 0 32.635720907009414 0 0
          1458.0597016843824 86.23266787697654 0 -185.24936858571655 0 0
          117.94732576564992 38.08214406820161 0 -81.07540093841331 0 0
          818.9762134669893 74.90232625053784 0 -169.0327444990946 0 0
          19.3660643566537 23.81529508594094 0 -72.08594910358998 0 0
          344.3972984638027 28.751979990746452 0 -125.1468580424545 0 0
          -71.66266274745088 -19.424968579426967 0 -36.804945105012465 0 0
          1011.4662683444635 -219.51760577963992 0 693.2693447625875 0 0
          3306.9385797847963 -127.59926236583328 0 510.9738681233059 0 0
          <InformationKey name="L2_NORM_RANGE" location="vtkDataArray" length="2">
            <Value index="0">
              78.349197742
            </Value>
            <Value index="1">
              3348.6144353
            </Value>
          </InformationKey>
        </DataArray>
        <DataArray type="Float64" Name="Nodal Strain" NumberOfComponents="6" format="ascii" RangeMin="0" RangeMax="0">
          0 0 0 0 0 0
          0 0 0 0 0 0
          0 0 0 0 0 0
          0 0 0 0 0 0
          0 0 0 0 0 0
          0 0 0 0 0 0
          0 0 0 0 0 0
          0 0 0 0 0 0
          0 0 0 0 0 0
          0 0 0 0 0 0
          0 0 0 0 0 0
          0 0 0 0 0 0
          0 0 0 0 0 0
          <InformationKey name="L2_NORM_RANGE" location="vtkDataArray" length="2">
            <Value index="0">
              0
            </Value>
            <Value index="1">
              0
            </Value>
          </InformationKey>
        </DataArray>
        <DataArray type="Float64" Name="Sld_traction" NumberOfComponents="3" format="ascii" RangeMin="13.396658040819467" RangeMax="1017.0815763309956">
          -221.643990223495 84.50534543553836 0 247.89508762281326 -60.94225222373495 0
          -284.1143363327243 113.41922499042818 0 -205.411098476696 92.8081116354353 0
          -206.02837964532236 70.87156098244161 0 -362.8188498430876 149.01385502784592 0
          -54.18935410858597 14.878676052190915 0 -282.8629682061547 114.85990496332235 0
          -11.49048404443777 6.887613744046188 0 -39.752080609825796 5.915682747823066 0
          8.720072245236363 10.348419347072175 0 961.4723425787893 -331.70147326775333 0
          35.908537104594416 -47.82829747189742 0
          <InformationKey name="L2_NORM_RANGE" location="vtkDataArray" length="2">
            <Value index="0">
              13.396658041
            </Value>
            <Value index="1">
              1017.0815763
            </Value>
          </InformationKey>
        </DataArray>
        <DataArray type="Float64" Name="Velocity" NumberOfComponents="3" format="ascii" RangeMin="2.890633036168971" RangeMax="18.389921496125147">
          -0.4443567591432036 -4.726697423373022 0 0.7345600203398011 -6.995449519162271 0
          -0.5004428526865605 -7.018422967572015 0 0.8523734459610868 -9.630014516592519 0
          -0.5256773566133685 -9.654165113543852 0 0.9401702438238242 -12.48905190995574 0
          -0.5181080755413048 -12.513299573301133 0 0.9965124224597905 -15.441561522531718 0
          -0.4731081286296056 -15.465506485997135 0 1.029140559669122 -18.36110242719891 0
          -0.4221657226959529 -18.383766521723913 0 0.5944949656409648 -4.706704339437526 0
          -0.3640293886682562 -2.867619562281102 0
          <InformationKey name="L2_NORM_RANGE" location="vtkDataArray" length="2">
            <Value index="0">
              2.8906330362
            </Value>
            <Value index="1">
              18.389921496
            </Value>
          </InformationKey>
        </DataArray>
        <DataArray type="Float64" Name="Acceleration" NumberOfComponents="3" format="ascii" RangeMin="255.17372393665715" RangeMax="581.9805337949642">
          -61.845227592134734 -318.68953155653435 0 -135.32829363268047 -315.61200043061035 0
          -105.13256504159176 -282.0441097809926 0 -229.3509019901685 -231.664893370551 0
          -172.801175933884 -187.75884262417094 0 -335.2569982458608 -101.18077288542554 0
          -261.46328418862686 -50.79307331985183 0 -443.05598386922065 54.188529647719406 0
          -364.7255591088107 105.71663649927359 0 -543.1285856694421 209.07577847513312 0
          -467.5082257606042 259.32393115946616 0 -61.909961622879564 -340.4088086797783 0
          -39.79838423203228 -295.31286941798135 0
          <InformationKey name="L2_NORM_RANGE" location="vtkDataArray" length="2">
            <Value index="0">
              255.17372394
            </Value>
            <Value index="1">
              581.98053379
            </Value>
          </InformationKey>
        </DataArray>
        <DataArray type="Float64" Name="Sigma" NumberOfComponents="6" format="ascii" RangeMin="99.845912606688" RangeMax="4216.441168405454">
          784.7164867075652 -784.7164867072952 0 285.6917294495266 0 0
          1435.708445328865 -1435.7084453282025 0 258.3657330556644 0 0
          -381.36835376969674 381.3683537702794 0 288.94310385694547 0 0
          1738.1703780935966 -1738.1703780935297 0 -197.27374711451134 0 0
          -659.2912112534572 659.2912112535779 0 203.87854927275316 0 0
          1333.7571303119691 -1333.7571303117463 0 -367.5094914868798 0 0
          -449.47719642140123 449.47719642126486 0 9.108006318816752 0 0
          707.3759869073658 -707.375986904877 0 -246.58232604636 0 0
          -247.06933249454914 247.06933249200497 0 -3.195311179322541 0 0
          279.4490493871385 -279.4490493868453 0 -193.1995178136642 0 0
          -68.42755261521208 68.42755261455056 0 24.587524286468444 0 0
          114.86280955490258 -114.86280955438397 0 912.2552616933822 0 0
          2980.6050232822204 -2980.6050232820253 0 101.80136047763474 0 0
          <InformationKey name="L2_NORM_RANGE" location="vtkDataArray" length="2">
            <Value index="0">
              99.845912607
            </Value>
            <Value index="1">
              4216.4411684
            </Value>
          </InformationKey>
        </DataArray>
        <DataArray type="Float64" Name="Press" format="ascii" RangeMin="-729.1583341090535" RangeMax="3006.1049610141363">
          688.954348885853 1402.2832213364125 -502.84107474644895 1841.81218625054 -729.1583341090535 1494.8079024863312
          -455.0752929378921 823.1264780189476 -240.25195049657455 320.276161378886 -131.09973676714006 -189.3842896098849
          3006.1049610141363
        </DataArray>
        <DataArray type="Float64" Name="Dev strain" NumberOfComponents="6" format="ascii" RangeMin="0" RangeMax="0">
          0 0 0 0 0 0
          0 0 0 0 0 0
          0 0 0 0 0 0
          0 0 0 0 0 0
          0 0 0 0 0 0
          0 0 0 0 0 0
          0 0 0 0 0 0
          0 0 0 0 0 0
          0 0 0 0 0 0
          0 0 0 0 0 0
          0 0 0 0 0 0
          0 0 0 0 0 0
          0 0 0 0 0 0
          <InformationKey name="L2_NORM_RANGE" location="vtkDataArray" length="2">
            <Value index="0">
              0
            </Value>
            <Value index="1">
              0
            </Value>
          </InformationKey>
        </DataArray>
        <DataArray type="Float64" Name="J2 Stresses" format="ascii" RangeMin="4833.46654449677" RangeMax="8886597.184063397">
          636184.905579418 2077946.952992023 166313.85057385216 3030965.4961070707 445056.5169495209 1812673.8892409578
          202050.48904755746 515581.49773101753 61045.80756205665 87423.2846241515 4833.46654449677 221245.88064060156
          8886597.184063397
        </DataArray>
      </PointData>
      <CellData>
        <DataArray type="UInt8" Name="vtkGhostType" format="ascii" RangeMin="0" RangeMax="1">
          1 1 0 0 0 0
          0 0 0 0 0
        </DataArray>
        <DataArray type="Float64" Name="Gauss Stress" NumberOfComponents="6" format="ascii" RangeMin="64.4067470240674" RangeMax="2502.898790083046">
          2461.9531132782645 -124.83643308453334 0 433.2494505401811 0 0
          1412.3803407345713 -144.478153659167 0 485.4375747328577 0 0
          1142.4843579141832 -83.55336092980056 0 277.6668554540455 0 0
          435.77453015515977 -29.232678558211752 0 98.51596867172911 0 0
          1844.5882674977563 -17.08537893698318 0 116.67836326603282 0 0
          178.520999358832 28.528517600827357 0 -51.50764529843664 0 0
          1673.3660172599753 64.94181915870621 0 -120.30156310954605 0 0
          46.209564191965455 38.98992553095799 0 -80.22321030228859 0 0
          1151.5050027884402 90.40105559067618 0 -201.6612704048077 0 0
          -29.0411205358171 -5.0092300550394615 0 -57.269101568839424 0 0
          547.635464233738 54.46499503384729 0 -147.65905167978224 0 0
          <InformationKey name="L2_NORM_RANGE" location="vtkDataArray" length="2">
            <Value index="0">
              64.406747024
            </Value>
            <Value index="1">
              2502.8987901
            </Value>
          </InformationKey>
        </DataArray>
        <DataArray type="Float64" Name="Gauss Strain" NumberOfComponents="6" format="ascii" RangeMin="0" RangeMax="0">
          0 0 0 0 0 0
          0 0 0 0 0 0
          0 0 0 0 0 0
          0 0 0 0 0 0
          0 0 0 0 0 0
          0 0 0 0 0 0
          0 0 0 0 0 0
          0 0 0 0 0 0
          0 0 0 0 0 0
          0 0 0 0 0 0
          0 0 0 0 0 0
          <InformationKey name="L2_NORM_RANGE" location="vtkDataArray" length="2">
            <Value index="0">
              0
            </Value>
            <Value index="1">
              0
            </Value>
          </InformationKey>
        </DataArray>
      </CellData>
      <Points>
        <DataArray type="Float32" Name="Points" NumberOfComponents="3" format="ascii" RangeMin="0.4000000059604645" RangeMax="1.0012492197622458">
          0.5 0 0 0.6000000238418579 0.05000000074505806 0
          0.6000000238418579 0 0 0.699999988079071 0.05000000074505806 0
          0.699999988079071 0 0 0.800000011920929 0.05000000074505806 0
          0.800000011920929 0 0 0.8999999761581421 0.05000000074505806 0
          0.8999999761581421 0 0 1 0.05000000074505806 0
          1 0 0 0.5 0.05000000074505806 0
          0.4000000059604645 0 0
          <InformationKey name="L2_NORM_RANGE" location="vtkDataArray" length="2">
            <Value index="0">
              0.40000000596
            </Value>
            <Value index="1">
              1.0012492198
            </Value>
          </InformationKey>
        </DataArray>
      </Points>
      <Cells>
        <DataArray type="Int64" Name="connectivity" format="ascii" RangeMin="0" RangeMax="12">
          0 11 12 1 11 0
          2 1 0 4 3 2
          3 1 2 6 5 4
          5 3 4 8 7 6
          7 5 6 10 9 8
          9 7 8
        </DataArray>
        <DataArray type="Int64" Name="offsets" format="ascii" RangeMin="3" RangeMax="33">
          3 6 9 12 15 18
          21 24 27 30 33
        </DataArray>
        <DataArray type="UInt8" Name="types" format="ascii" RangeMin="5" RangeMax="5">
          5 5 5 5 5 5
          5 5 5 5 5
        </DataArray>
      </Cells>
    </Piece>
  </UnstructuredGrid>
</VTKFile>
