<?xml version="1.0"?>
<VTKFile type="UnstructuredGrid" version="0.1" byte_order="LittleEndian" header_type="UInt32" compressor="vtkZLibDataCompressor">
  <UnstructuredGrid>
    <Piece NumberOfPoints="13" NumberOfCells="11">
      <PointData>
        <DataArray type="Float64" Name="Disp" NumberOfComponents="3" format="ascii" RangeMin="0.038053986682836376" RangeMax="0.1854491781100559">
          -0.009825946009901594 -0.05718621711940245 0 -0.0011430366175864165 -0.08126008598933707 0
          -0.013067543988162891 -0.0798259339987933 0 -0.003869241199484935 -0.1061757866932171 0
          -0.0165989871848753 -0.10453370747660662 0 -0.007099750203856995 -0.13225392346477433 0
          -0.020245112660041503 -0.13050035902210758 0 -0.010635412667389592 -0.1587232966857196 0
          -0.02380194845861003 -0.15696397175243473 0 -0.014218373247691771 -0.18490331398837762 0
          -0.02727082591631428 -0.18316428096330004 0 0.0008859981485252835 -0.05833704264135181 0
          -0.00700886014841778 -0.037402964880840786 0
          <InformationKey name="L2_NORM_RANGE" location="vtkDataArray" length="2">
            <Value index="0">
              0.038053986683
            </Value>
            <Value index="1">
              0.18544917811
            </Value>
          </InformationKey>
        </DataArray>
        <DataArray type="Float64" Name="Nodal Stress" NumberOfComponents="6" format="ascii" RangeMin="1665.3066497170494" RangeMax="73401.76653052562">
          -59369.32996915285 -4293.783826033022 0 12170.020196196048 0 0
          38594.6717534318 10527.6759452216 0 -18269.612763289304 0 0
          -44981.66904916843 -2549.219799255812 0 9221.49627304006 0 0
          23420.41098848658 9241.486064624005 0 -14109.598489693235 0 0
          -29643.63519125457 -640.2827252708545 0 5591.81391022271 0 0
          10535.070865843743 6934.8835680621 0 -9188.134177518907 0 0
          -15948.726598279654 600.8467325554961 0 2253.537910242694 0 0
          2770.759587600897 3822.0360629954803 0 -4529.773358874678 0 0
          -7166.2031580772045 405.46932993583033 0 550.8642157594328 0 0
          -177.00622223443605 1958.3430428300583 0 -2345.040776842394 0 0
          1421.4503280800452 134.10754893631926 0 857.1699759739882 0 0
          53895.53549438878 10585.794810587313 0 -20802.535069077265 0 0
          -71914.17892584979 -5627.929911339458 0 13582.952703138753 0 0
          <InformationKey name="L2_NORM_RANGE" location="vtkDataArray" length="2">
            <Value index="0">
              1665.3066497
            </Value>
            <Value index="1">
              73401.766531
            </Value>
          </InformationKey>
        </DataArray>
        <DataArray type="Float64" Name="Nodal Strain" NumberOfComponents="6" format="ascii" RangeMin="0" RangeMax="0">
          0 0 0 0 0 0
          0 0 0 0 0 0
          0 0 0 0 0 0
          0 0 0 0 0 0
          0 0 0 0 0 0
          0 0 0 0 0 0
          0 0 0 0 0 0
          0 0 0 0 0 0
          0 0 0 0 0 0
          0 0 0 0 0 0
          0 0 0 0 0 0
          0 0 0 0 0 0
          0 0 0 0 0 0
          <InformationKey name="L2_NORM_RANGE" location="vtkDataArray" length="2">
            <Value index="0">
              0
            </Value>
            <Value index="1">
              0
            </Value>
          </InformationKey>
        </DataArray>
        <DataArray type="Float64" Name="Sld_traction" NumberOfComponents="3" format="ascii" RangeMin="259.98309425522075" RangeMax="21427.725456889446">
          -7841.242925110054 9458.522541186918 0 -15139.658665045536 12492.117592345487 0
          -5119.446016486458 6413.185424062967 0 -13091.86478905509 10299.262706538479 0
          -2874.7619535366966 3396.725617807138 0 -9845.615451490507 7385.6996861698335 0
          -832.3054689619079 1216.645845984034 0 -5687.520565610438 4197.976563902671 0
          -539.3379462434172 621.9419633365142 0 -1502.567804334246 775.02612185398 0
          259.4397523022433 16.799530465750145 0 -16363.979574531995 13833.56753480922 0
          -10705.925199359575 12148.697805408623 0
          <InformationKey name="L2_NORM_RANGE" location="vtkDataArray" length="2">
            <Value index="0">
              259.98309426
            </Value>
            <Value index="1">
              21427.725457
            </Value>
          </InformationKey>
        </DataArray>
        <DataArray type="Float64" Name="Velocity" NumberOfComponents="3" format="ascii" RangeMin="0.09072297482879702" RangeMax="2.5511597998504056">
          -0.029941435939417005 -1.1575908425241401 0 -0.12626394135966346 -0.7377367984930316 0
          0.13065699309623469 -0.7991973985254006 0 -0.01508446736339808 -0.0894601419971437 0
          0.34716623664015245 -0.18407417788747438 0 0.1711998375277024 0.7222807784463754 0
          0.593735019479416 0.6075476392032897 0 0.4064120487649454 1.596119492468091 0
          0.8351243588535997 1.479330919011474 0 0.647930070641773 2.4331336142737428 0
          1.0619422528021385 2.31963250884408 0 -0.1480161621735312 -1.1340075214055645 0
          -0.1246342909240652 -1.2194890827771196 0
          <InformationKey name="L2_NORM_RANGE" location="vtkDataArray" length="2">
            <Value index="0">
              0.090722974829
            </Value>
            <Value index="1">
              2.5511597999
            </Value>
          </InformationKey>
        </DataArray>
        <DataArray type="Float64" Name="Acceleration" NumberOfComponents="3" format="ascii" RangeMin="355.1387150354669" RangeMax="3532.091090407005">
          29.637924793642014 -819.1978213929106 0 -74.56805955055142 -347.22199154418195 0
          215.94146929132148 -418.949805867931 0 59.02764238471991 394.13439044420375 0
          479.3572901533844 279.4280432943633 0 287.2288851284857 1349.4215987858188 0
          789.1097302616217 1206.238221948297 0 582.915050937996 2394.530309024616 0
          1095.688780237957 2247.432587292569 0 888.1065828645042 3393.4786715812807 0
          1381.78375333417 3250.5908893544693 0 -107.40049719925548 -791.562408189282 0
          -74.61436127880734 -914.6196630328996 0
          <InformationKey name="L2_NORM_RANGE" location="vtkDataArray" length="2">
            <Value index="0">
              355.13871504
            </Value>
            <Value index="1">
              3532.0910904
            </Value>
          </InformationKey>
        </DataArray>
        <DataArray type="Float64" Name="Sigma" NumberOfComponents="6" format="ascii" RangeMin="5019.702611279804" RangeMax="139175.51748466017">
          -73205.95803285591 73205.95803285074 0 44774.68873127191 0 0
          52368.33928158118 -52368.33928158363 0 -47886.33086965502 0 0
          -52876.79114042403 52876.79114043036 0 35168.099015532374 0 0
          31605.811196613486 -31605.81119661864 0 -35872.897045358266 0 0
          -32692.53546356323 32692.535463563898 0 22878.420014755673 0 0
          13818.359695738318 -13818.359695739899 0 -21957.09497600531 0 0
          -16060.57939171846 16060.579391711912 0 10519.162301873377 0 0
          4486.939136521619 -4486.9391365045685 0 -9336.292545351951 0 0
          -6895.049620877829 6895.049620878224 0 3668.1203718060174 0 0
          -1135.2832257542818 1135.2832257510695 0 -4756.014960062519 0 0
          5302.509202459519 -5302.509202458634 0 2258.2872460762273 0 0
          73847.96608139656 -73847.9660813967 0 -55268.7547327002 0 0
          -92008.30168170312 92008.30168170552 0 49383.89930351717 0 0
          <InformationKey name="L2_NORM_RANGE" location="vtkDataArray" length="2">
            <Value index="0">
              5019.7026113
            </Value>
            <Value index="1">
              139175.51748
            </Value>
          </InformationKey>
        </DataArray>
        <DataArray type="Float64" Name="Press" format="ascii" RangeMin="-113810.04091299367" RangeMax="100421.90690731701">
          -92808.48519443798 77206.48381597015 -68211.8068536725 51896.68710053131 -42167.20051447848 27591.309304238122
          -19788.78135267775 11130.492635576427 -8688.38559055682 2135.674845441293 4831.913249574389 100421.90690731701
          -113810.04091299367
        </DataArray>
        <DataArray type="Float64" Name="Dev strain" NumberOfComponents="6" format="ascii" RangeMin="0" RangeMax="0">
          0 0 0 0 0 0
          0 0 0 0 0 0
          0 0 0 0 0 0
          0 0 0 0 0 0
          0 0 0 0 0 0
          0 0 0 0 0 0
          0 0 0 0 0 0
          0 0 0 0 0 0
          0 0 0 0 0 0
          0 0 0 0 0 0
          0 0 0 0 0 0
          0 0 0 0 0 0
          0 0 0 0 0 0
          <InformationKey name="L2_NORM_RANGE" location="vtkDataArray" length="2">
            <Value index="0">
              0
            </Value>
            <Value index="1">
              0
            </Value>
          </InformationKey>
        </DataArray>
        <DataArray type="Float64" Name="J2 Stresses" format="ascii" RangeMin="6943787.577760022" RangeMax="9075219955.956493">
          5860305479.253452 3315718130.1504455 3105153838.399932 1320643487.0028598 1199657400.6292543 311475569.6271565
          285605404.280875 41924212.43787147 50905486.03988479 6943787.577760022 29391569.163610816 6217180906.78495
          9075219955.956493
        </DataArray>
      </PointData>
      <CellData>
        <DataArray type="UInt8" Name="vtkGhostType" format="ascii" RangeMin="0" RangeMax="1">
          1 1 0 0 0 0
          0 0 0 0 0
        </DataArray>
        <DataArray type="Float64" Name="Gauss Stress" NumberOfComponents="6" format="ascii" RangeMin="1569.6478969009338" RangeMax="67299.87800703423">
          -65854.30427775905 -4943.441855651696 0 12963.277767362964 0 0
          45943.41761965702 10603.186066239867 0 -19460.132290361107 0 0
          -52509.40604127971 -3366.4661134809594 0 10685.485625716425 0 0
          -37481.94522499781 -1506.268286748022 0 7391.207328309931 0 0
          30662.907800199886 9931.334908352348 0 -16197.042966493642 0 0
          -23099.80924082049 190.02753220593422 0 3813.495780207915 0 0
          16684.14377302651 8196.38682049877 0 -11650.524002202636 0 0
          -11938.45472791094 374.0051894758078 0 1616.996709442481 0 0
          7059.246675892768 5562.767048868084 0 -6924.741739827963 0 0
          -1482.8737132379065 335.6753828765071 0 390.1308859399087 0 0
          344.79606011680335 2707.058533528542 0 -3474.7290445361514 0 0
          <InformationKey name="L2_NORM_RANGE" location="vtkDataArray" length="2">
            <Value index="0">
              1569.6478969
            </Value>
            <Value index="1">
              67299.878007
            </Value>
          </InformationKey>
        </DataArray>
        <DataArray type="Float64" Name="Gauss Strain" NumberOfComponents="6" format="ascii" RangeMin="0" RangeMax="0">
          0 0 0 0 0 0
          0 0 0 0 0 0
          0 0 0 0 0 0
          0 0 0 0 0 0
          0 0 0 0 0 0
          0 0 0 0 0 0
          0 0 0 0 0 0
          0 0 0 0 0 0
          0 0 0 0 0 0
          0 0 0 0 0 0
          0 0 0 0 0 0
          <InformationKey name="L2_NORM_RANGE" location="vtkDataArray" length="2">
            <Value index="0">
              0
            </Value>
            <Value index="1">
              0
            </Value>
          </InformationKey>
        </DataArray>
      </CellData>
      <Points>
        <DataArray type="Float32" Name="Points" NumberOfComponents="3" format="ascii" RangeMin="0.4000000059604645" RangeMax="1.0012492197622458">
          0.5 0 0 0.6000000238418579 0.05000000074505806 0
          0.6000000238418579 0 0 0.699999988079071 0.05000000074505806 0
          0.699999988079071 0 0 0.800000011920929 0.05000000074505806 0
          0.800000011920929 0 0 0.8999999761581421 0.05000000074505806 0
          0.8999999761581421 0 0 1 0.05000000074505806 0
          1 0 0 0.5 0.05000000074505806 0
          0.4000000059604645 0 0
          <InformationKey name="L2_NORM_RANGE" location="vtkDataArray" length="2">
            <Value index="0">
              0.40000000596
            </Value>
            <Value index="1">
              1.0012492198
            </Value>
          </InformationKey>
        </DataArray>
      </Points>
      <Cells>
        <DataArray type="Int64" Name="connectivity" format="ascii" RangeMin="0" RangeMax="12">
          0 11 12 1 11 0
          2 1 0 4 3 2
          3 1 2 6 5 4
          5 3 4 8 7 6
          7 5 6 10 9 8
          9 7 8
        </DataArray>
        <DataArray type="Int64" Name="offsets" format="ascii" RangeMin="3" RangeMax="33">
          3 6 9 12 15 18
          21 24 27 30 33
        </DataArray>
        <DataArray type="UInt8" Name="types" format="ascii" RangeMin="5" RangeMax="5">
          5 5 5 5 5 5
          5 5 5 5 5
        </DataArray>
      </Cells>
    </Piece>
  </UnstructuredGrid>
</VTKFile>
