<?xml version="1.0"?>
<VTKFile type="UnstructuredGrid" version="0.1" byte_order="LittleEndian" header_type="UInt32" compressor="vtkZLibDataCompressor">
  <UnstructuredGrid>
    <Piece NumberOfPoints="13" NumberOfCells="11">
      <PointData>
        <DataArray type="Float64" Name="Disp" NumberOfComponents="3" format="ascii" RangeMin="0" RangeMax="0.07357910189000202">
          0 0 0 0 0 0
          0.0014070577380693445 -0.0028824524927577744 0 -0.0017119066695733818 -0.002808094647448026 0
          0.002313268999651642 -0.01234845503017387 0 -0.003411842284975977 -0.012045077237028317 0
          0.0021775694768926997 -0.02556213602989495 0 -0.00494507394428809 -0.025055076635574422 0
          0.001395179584449039 -0.040856294289413606 0 -0.00648392112179576 -0.04023766173959025 0
          0.00022751805732531237 -0.05708634469741568 0 -0.007948914694209906 -0.056414311452743046 0
          -0.001119688873798456 -0.07357058197245141 0
          <InformationKey name="L2_NORM_RANGE" location="vtkDataArray" length="2">
            <Value index="0">
              0
            </Value>
            <Value index="1">
              0.07357910189
            </Value>
          </InformationKey>
        </DataArray>
        <DataArray type="Float64" Name="Nodal Stress" NumberOfComponents="6" format="ascii" RangeMin="5998.09845821526" RangeMax="158454.11834349562">
          150876.29922361288 -4346.837841512648 0 -48219.86056990356 0 0
          -78295.39731332082 -13507.033266506049 0 -5793.346795488387 0 0
          101202.32724190602 8255.617542806336 0 -21530.633576274686 0 0
          -93534.31106646077 -14.48028102309382 0 4642.675280830802 0 0
          67062.76618032774 10321.877423206633 0 -24763.184746059935 0 0
          -72337.5039921094 -1465.566340530813 0 4226.579182265828 0 0
          45157.212714668545 9477.28138210177 0 -19251.918608134594 0 0
          -47243.948511417795 158.10951934071747 0 3719.8705307056607 0 0
          24552.758847117162 7349.8174836160615 0 -13640.65920343871 0 0
          -27438.904036723565 521.8029347925433 0 1612.5610757100703 0 0
          11572.459789931023 4780.738296518069 0 -8071.474469622613 0 0
          -12928.162050007264 801.8922715789978 0 255.242582238658 0 0
          3729.261955081253 2496.598431516967 0 -3979.5460364939677 0 0
          <InformationKey name="L2_NORM_RANGE" location="vtkDataArray" length="2">
            <Value index="0">
              5998.0984582
            </Value>
            <Value index="1">
              158454.11834
            </Value>
          </InformationKey>
        </DataArray>
        <DataArray type="Float64" Name="Nodal Strain" NumberOfComponents="6" format="ascii" RangeMin="0" RangeMax="0">
          0 0 0 0 0 0
          0 0 0 0 0 0
          0 0 0 0 0 0
          0 0 0 0 0 0
          0 0 0 0 0 0
          0 0 0 0 0 0
          0 0 0 0 0 0
          0 0 0 0 0 0
          0 0 0 0 0 0
          0 0 0 0 0 0
          0 0 0 0 0 0
          0 0 0 0 0 0
          0 0 0 0 0 0
          <InformationKey name="L2_NORM_RANGE" location="vtkDataArray" length="2">
            <Value index="0">
              0
            </Value>
            <Value index="1">
              0
            </Value>
          </InformationKey>
        </DataArray>
        <DataArray type="Float64" Name="Sld_traction" NumberOfComponents="3" format="ascii" RangeMin="1334.7562520303277" RangeMax="76607.16712244143">
          -73758.68863912077 20695.74605475501 0 27627.86681175346 23616.941592876567 0
          -30753.750794804055 19277.74704971514 0 -14110.411696243726 11916.667955702515 0
          -27046.749246526062 15269.371569230467 0 -8925.805845232762 8199.387985339386 0
          -21769.787928122696 13077.540797677235 0 -5346.267431761869 5156.786632473585 0
          -15877.541312154563 9501.127359734946 0 -2583.855983392511 2692.08258794307 0
          -9933.06261505458 5954.695842993219 0 -902.1195980806976 983.7451311659785 0
          -5191.697957354694 2981.3783995651697 0
          <InformationKey name="L2_NORM_RANGE" location="vtkDataArray" length="2">
            <Value index="0">
              1334.756252
            </Value>
            <Value index="1">
              76607.167122
            </Value>
          </InformationKey>
        </DataArray>
        <DataArray type="Float64" Name="Velocity" NumberOfComponents="3" format="ascii" RangeMin="0" RangeMax="4.0575591929159405">
          0 0 0 0 0 0
          0.06725590077366783 -0.13785681687319729 0 -0.07526913929990009 -0.13003746125105642 0
          0.0780497999925649 -0.5626327458631097 0 -0.1756337475074894 -0.5324072850845667 0
          0.033462976906773356 -1.153064427312179 0 -0.289459057185939 -1.1036334460789714 0
          -0.04340366436957954 -1.8785179194478587 0 -0.4491373686998381 -1.8120747734029656 0
          -0.1360722280366254 -2.8147057258173653 0 -0.670105313516161 -2.725835700266096 0
          -0.2615581882934934 -4.049120141234795 0
          <InformationKey name="L2_NORM_RANGE" location="vtkDataArray" length="2">
            <Value index="0">
              0
            </Value>
            <Value index="1">
              4.0575591929
            </Value>
          </InformationKey>
        </DataArray>
        <DataArray type="Float64" Name="Acceleration" NumberOfComponents="3" format="ascii" RangeMin="0" RangeMax="2316.8240395456946">
          0 0 0 0 0 0
          -119.13398571334608 299.78035648707055 0 186.09176225187161 288.4617919151053 0
          -117.74843994531875 1148.5633177380278 0 306.81745520181175 1104.7212654502073 0
          39.41668858119829 1922.2670253062315 0 335.90205652283794 1880.5585635926618 0
          211.75803291744273 2307.1263870260264 0 290.03219002632795 2295.9570568726595 0
          311.6182971690671 2218.2293254328397 0 177.18458897310938 2243.411450001753 0
          305.3814060749628 1773.240066281105 0
          <InformationKey name="L2_NORM_RANGE" location="vtkDataArray" length="2">
            <Value index="0">
              0
            </Value>
            <Value index="1">
              2316.8240395
            </Value>
          </InformationKey>
        </DataArray>
        <DataArray type="Float64" Name="Sigma" NumberOfComponents="6" format="ascii" RangeMin="9971.412999857503" RangeMax="236737.12689684556">
          155096.32343648322 -155096.32343648412 0 -89077.09113091009 0 0
          -142054.57209611763 142054.57209611672 0 21153.761798973836 0 0
          142308.19935340012 -142308.1993534016 0 -35879.021816767876 0 0
          -135138.1584511254 135138.15845112567 0 31742.534799468078 0 0
          97718.59059907527 -97718.59059907525 0 -57766.42309838374 0 0
          -92766.68488444044 92766.68488444093 0 32805.47279431624 0 0
          64215.2396035336 -64215.23960353035 0 -42700.169128798756 0 0
          -59543.7072905275 59543.707290525 0 23960.295395099343 0 0
          34441.0183027072 -34441.018302703495 0 -29945.545883279232 0 0
          -32425.741953402903 32425.74195340029 0 13735.544965624838 0 0
          15902.87271684511 -15902.872716846388 0 -16480.759066344985 0 0
          -14558.058834290325 14558.058834294941 0 5942.138413196087 0 0
          4782.53991620033 -4782.539916202363 0 -7326.916207628476 0 0
          <InformationKey name="L2_NORM_RANGE" location="vtkDataArray" length="2">
            <Value index="0">
              9971.4129999
            </Value>
            <Value index="1">
              236737.1269
            </Value>
          </InformationKey>
        </DataArray>
        <DataArray type="Float64" Name="Press" format="ascii" RangeMin="-180839.926606823" RangeMax="171644.06283567217">
          151127.3932676767 -180839.926606823 171644.06283567217 -142813.14031092415 117048.51935894774 -106421.71540978877
          84835.82038271459 -67751.68978795601 48609.54797734531 -37369.86871451365 24672.423713824977 -16347.281516454199
          8807.37127092435
        </DataArray>
        <DataArray type="Float64" Name="Dev strain" NumberOfComponents="6" format="ascii" RangeMin="0" RangeMax="0">
          0 0 0 0 0 0
          0 0 0 0 0 0
          0 0 0 0 0 0
          0 0 0 0 0 0
          0 0 0 0 0 0
          0 0 0 0 0 0
          0 0 0 0 0 0
          0 0 0 0 0 0
          0 0 0 0 0 0
          0 0 0 0 0 0
          0 0 0 0 0 0
          0 0 0 0 0 0
          0 0 0 0 0 0
          <InformationKey name="L2_NORM_RANGE" location="vtkDataArray" length="2">
            <Value index="0">
              0
            </Value>
            <Value index="1">
              0
            </Value>
          </InformationKey>
        </DataArray>
        <DataArray type="Float64" Name="J2 Stresses" format="ascii" RangeMin="36293613.32846139" RangeMax="26038551584.60047">
          26038551584.60047 20291371862.972885 20573449654.839306 18514218998.435375 10383162858.065046 8874707585.763771
          4579423108.246025 3688977016.7549734 1410367671.2891798 1098595040.104264 320805215.4989249 220764329.25312096
          36293613.32846139
        </DataArray>
      </PointData>
      <CellData>
        <DataArray type="UInt8" Name="vtkGhostType" format="ascii" RangeMin="0" RangeMax="0">
          0 0 0 0 0 0
          0 0 0 0 0
        </DataArray>
        <DataArray type="Float64" Name="Gauss Stress" NumberOfComponents="6" format="ascii" RangeMin="10441.96858811535" RangeMax="105056.20749313003">
          -95631.17842530597 -5708.157629411406 0 5672.424927224683 0 0
          99093.82673009724 -4472.807065747715 0 -34600.783716234706 0 0
          -87457.52969941859 -666.6945417579464 0 2260.5281651335335 0 0
          83589.35779501527 13663.60346078152 0 -20634.303371894515 0 0
          -59144.24579548819 -414.14408119820564 0 4688.533020205608 0 0
          54876.58988334735 8765.159671236306 0 -22553.70647762209 0 0
          -38013.48048878252 338.8068053658144 0 2583.4314924816526 0 0
          34935.4097292724 8860.375985465016 0 -16228.473205659557 0 0
          -20041.88486266366 678.7338512353253 0 1065.641437491981 0 0
          17943.41734760202 5997.984636835685 0 -10896.919994666463 0 0
          7753.2890890167455 3668.3865565137726 0 -5955.178953592458 0 0
          <InformationKey name="L2_NORM_RANGE" location="vtkDataArray" length="2">
            <Value index="0">
              10441.968588
            </Value>
            <Value index="1">
              105056.20749
            </Value>
          </InformationKey>
        </DataArray>
        <DataArray type="Float64" Name="Gauss Strain" NumberOfComponents="6" format="ascii" RangeMin="0" RangeMax="0">
          0 0 0 0 0 0
          0 0 0 0 0 0
          0 0 0 0 0 0
          0 0 0 0 0 0
          0 0 0 0 0 0
          0 0 0 0 0 0
          0 0 0 0 0 0
          0 0 0 0 0 0
          0 0 0 0 0 0
          0 0 0 0 0 0
          0 0 0 0 0 0
          <InformationKey name="L2_NORM_RANGE" location="vtkDataArray" length="2">
            <Value index="0">
              0
            </Value>
            <Value index="1">
              0
            </Value>
          </InformationKey>
        </DataArray>
      </CellData>
      <Points>
        <DataArray type="Float32" Name="Points" NumberOfComponents="3" format="ascii" RangeMin="0" RangeMax="0.6020797527609908">
          0 0.05000000074505806 0 0 0 0
          0.10000000149011612 0.05000000074505806 0 0.10000000149011612 0 0
          0.20000000298023224 0.05000000074505806 0 0.20000000298023224 0 0
          0.30000001192092896 0.05000000074505806 0 0.30000001192092896 0 0
          0.4000000059604645 0.05000000074505806 0 0.4000000059604645 0 0
          0.5 0.05000000074505806 0 0.5 0 0
          0.6000000238418579 0.05000000074505806 0
          <InformationKey name="L2_NORM_RANGE" location="vtkDataArray" length="2">
            <Value index="0">
              0
            </Value>
            <Value index="1">
              0.60207975276
            </Value>
          </InformationKey>
        </DataArray>
      </Points>
      <Cells>
        <DataArray type="Int64" Name="connectivity" format="ascii" RangeMin="0" RangeMax="12">
          3 2 1 2 0 1
          5 4 3 4 2 3
          7 6 5 6 4 5
          9 8 7 8 6 7
          11 10 9 10 8 9
          12 10 11
        </DataArray>
        <DataArray type="Int64" Name="offsets" format="ascii" RangeMin="3" RangeMax="33">
          3 6 9 12 15 18
          21 24 27 30 33
        </DataArray>
        <DataArray type="UInt8" Name="types" format="ascii" RangeMin="5" RangeMax="5">
          5 5 5 5 5 5
          5 5 5 5 5
        </DataArray>
      </Cells>
    </Piece>
  </UnstructuredGrid>
</VTKFile>
