<?xml version="1.0"?>
<VTKFile type="UnstructuredGrid" version="0.1" byte_order="LittleEndian" header_type="UInt32" compressor="vtkZLibDataCompressor">
  <UnstructuredGrid>
    <Piece NumberOfPoints="13" NumberOfCells="11">
      <PointData>
        <DataArray type="Float64" Name="Disp" NumberOfComponents="3" format="ascii" RangeMin="0" RangeMax="0.05676084801249166">
          0 0 0 0 0 0
          -0.0008123154572167125 0.001555223727153013 0 0.0009969531608864134 0.0015836352263157434 0
          -0.0019525481202677481 0.007208450433060994 0 0.0016950700507358844 0.007340315297388872 0
          -0.0030238747855889847 0.015918333903812094 0 0.0020385302389025676 0.016176754394115315 0
          -0.004303566701981403 0.027320280424229217 0 0.0020001443161507494 0.027722150650602937 0
          -0.005732906175942984 0.04094600041355407 0 0.001554203529259907 0.04148389861175915 0
          -0.007286389052066265 0.0562912284612719 0
          <InformationKey name="L2_NORM_RANGE" location="vtkDataArray" length="2">
            <Value index="0">
              0
            </Value>
            <Value index="1">
              0.056760848012
            </Value>
          </InformationKey>
        </DataArray>
        <DataArray type="Float64" Name="Nodal Stress" NumberOfComponents="6" format="ascii" RangeMin="17258.882062039615" RangeMax="88025.90421705753">
          -84885.6495504693 -8856.270193959317 0 21553.48676843459 0 0
          43186.1239175042 -4833.02972128088 0 1241.3385562289375 0 0
          -57832.74910148706 -5381.405031806127 0 4033.802489914253 0 0
          57910.4537514492 1756.2481097130176 0 -1662.258375053445 0 0
          -47612.42165091306 -3131.477062204725 0 5456.050258477793 0 0
          49174.11500127275 969.0434966635638 0 1649.757364840183 0 0
          -40228.256398024954 -2962.501416268767 0 3429.2235629317356 0 0
          40376.060422800525 1015.5906820360623 0 2603.3439164733145 0 0
          -31721.224212639874 -2025.4957146122088 0 3061.325906571926 0 0
          31820.77215853133 813.5976682509908 0 3360.117695558794 0 0
          -24134.775969867143 -1485.2088537648067 0 2695.9962691565456 0 0
          23742.354141791573 683.1193748174493 0 3502.919036406792 0 0
          -17040.6809657401 -966.0241147546358 0 2559.4920716752285 0 0
          <InformationKey name="L2_NORM_RANGE" location="vtkDataArray" length="2">
            <Value index="0">
              17258.882062
            </Value>
            <Value index="1">
              88025.904217
            </Value>
          </InformationKey>
        </DataArray>
        <DataArray type="Float64" Name="Nodal Strain" NumberOfComponents="6" format="ascii" RangeMin="0" RangeMax="0">
          0 0 0 0 0 0
          0 0 0 0 0 0
          0 0 0 0 0 0
          0 0 0 0 0 0
          0 0 0 0 0 0
          0 0 0 0 0 0
          0 0 0 0 0 0
          0 0 0 0 0 0
          0 0 0 0 0 0
          0 0 0 0 0 0
          0 0 0 0 0 0
          0 0 0 0 0 0
          0 0 0 0 0 0
          <InformationKey name="L2_NORM_RANGE" location="vtkDataArray" length="2">
            <Value index="0">
              0
            </Value>
            <Value index="1">
              0
            </Value>
          </InformationKey>
        </DataArray>
        <DataArray type="Float64" Name="Sld_traction" NumberOfComponents="3" format="ascii" RangeMin="5843.7729918089335" RangeMax="43969.74742854188">
          40825.15949399875 -16329.269463736868 0 -12542.933171099989 -3095.050196830512 0
          18391.821259366825 -9576.710089956072 0 12335.622239313541 -6386.809389758711 0
          20299.024086163 -8849.962557459377 0 11839.732528497818 -5490.328935989669 0
          17721.018318201317 -7221.29931816996 0 9622.486972895596 -4156.106382967044 0
          15419.618143334841 -5382.7296065325645 0 7655.078238834894 -2892.2555414114818 0
          12956.187989971451 -3953.6494473420476 0 5523.16843911379 -1909.0031883087258 0
          10295.705231085385 -2785.578045075092 0
          <InformationKey name="L2_NORM_RANGE" location="vtkDataArray" length="2">
            <Value index="0">
              5843.7729918
            </Value>
            <Value index="1">
              43969.747429
            </Value>
          </InformationKey>
        </DataArray>
        <DataArray type="Float64" Name="Velocity" NumberOfComponents="3" format="ascii" RangeMin="0" RangeMax="6.930936205337973">
          0 0 0 0 0 0
          0.13895023672618723 -0.2895145470305156 0 -0.19154044805954806 -0.30190757291040415 0
          0.35308899279834627 -1.2845525265505957 0 -0.24143580069317871 -1.3275673440916442 0
          0.5139549571424484 -2.583917439804182 0 -0.18199706105534896 -2.6569737465850967 0
          0.7045555400574162 -4.033138882988162 0 -0.029870081958947692 -4.128368903607743 0
          0.8937452905326553 -5.487545821787766 0 0.18690460063866488 -5.593543607856873 0
          1.075969202429886 -6.846909299668511 0
          <InformationKey name="L2_NORM_RANGE" location="vtkDataArray" length="2">
            <Value index="0">
              0
            </Value>
            <Value index="1">
              6.9309362053
            </Value>
          </InformationKey>
        </DataArray>
        <DataArray type="Float64" Name="Acceleration" NumberOfComponents="3" format="ascii" RangeMin="0" RangeMax="274.08527010846433">
          0 0 0 0 0 0
          -2.0508140173233187 5.702285893795306 0 4.708559659964976 8.403874263517537 0
          -18.028048568569375 22.93946844774473 0 -12.325549057081389 31.30465528649438 0
          -28.638880183417314 18.27718061136693 0 -39.79212250437331 28.567898121051257 0
          -36.365264077717256 -23.67762903203402 0 -71.09527516279877 -16.307748503997573 0
          -30.450346540548708 -118.82429454280646 0 -94.82605950718016 -118.28680805884505 0
          -8.69994450467857 -273.9471596057265 0
          <InformationKey name="L2_NORM_RANGE" location="vtkDataArray" length="2">
            <Value index="0">
              0
            </Value>
            <Value index="1">
              274.08527011
            </Value>
          </InformationKey>
        </DataArray>
        <DataArray type="Float64" Name="Sigma" NumberOfComponents="6" format="ascii" RangeMin="36285.708621251826" RangeMax="126620.1555936668">
          -78250.83169031951 78250.83169032056 0 45708.43289531117 0 0
          89309.26450674154 -89309.26450674162 0 -8965.174236685401 0 0
          -84866.35983912146 84866.35983912142 0 3762.2555198014206 0 0
          81380.42790295595 -81380.42790295658 0 -6965.49380600295 0 0
          -70667.28966523538 70667.289665236 0 12426.9344206277 0 0
          68400.43873941808 -68400.43873941754 0 -1386.5804568495093 0 0
          -59263.02099829176 59263.02099829055 0 3935.414414995352 0 0
          55981.38488709517 -55981.38488709388 0 2460.828335867797 0 0
          -47237.537923991214 47237.53792399321 0 3031.044310534839 0 0
          43921.03858127516 -43921.038581276596 0 3950.2241700553013 0 0
          -36069.78958141302 36069.78958141354 0 1789.8487102542786 0 0
          32539.378718700307 -32539.378718699092 0 4510.410445621113 0 0
          -25631.350636215313 25631.35063621695 0 1649.3572302794332 0 0
          <InformationKey name="L2_NORM_RANGE" location="vtkDataArray" length="2">
            <Value index="0">
              36285.708621
            </Value>
            <Value index="1">
              126620.15559
            </Value>
          </InformationKey>
        </DataArray>
        <DataArray type="Float64" Name="Press" format="ascii" RangeMin="-93989.70493449751" RangeMax="90706.34400602573">
          -89005.40312783222 84516.67170130379 -93989.70493449751 90706.34400602573 -78950.82864699405 73023.85368137759
          -66080.82062072938 60600.87525227457 -52188.0836790562 47219.48069750364 -39764.5463475896 35126.89310146374
          -28149.176251033048
        </DataArray>
        <DataArray type="Float64" Name="Dev strain" NumberOfComponents="6" format="ascii" RangeMin="0" RangeMax="0">
          0 0 0 0 0 0
          0 0 0 0 0 0
          0 0 0 0 0 0
          0 0 0 0 0 0
          0 0 0 0 0 0
          0 0 0 0 0 0
          0 0 0 0 0 0
          0 0 0 0 0 0
          0 0 0 0 0 0
          0 0 0 0 0 0
          0 0 0 0 0 0
          0 0 0 0 0 0
          0 0 0 0 0 0
          <InformationKey name="L2_NORM_RANGE" location="vtkDataArray" length="2">
            <Value index="0">
              0
            </Value>
            <Value index="1">
              0
            </Value>
          </InformationKey>
        </DataArray>
        <DataArray type="Float64" Name="J2 Stresses" format="ascii" RangeMin="657646230.2549258" RangeMax="7996238314.008661">
          6645507869.663086 7996238314.008661 7205837673.9923115 6634903571.658628 5032473003.403975 4679100671.08568
          3515977529.4983373 3135429372.9016676 2233681796.523709 1932958697.8063467 1301830610.0488296 1063897117.995959
          657646230.2549258
        </DataArray>
      </PointData>
      <CellData>
        <DataArray type="UInt8" Name="vtkGhostType" format="ascii" RangeMin="0" RangeMax="0">
          0 0 0 0 0 0
          0 0 0 0 0
        </DataArray>
        <DataArray type="Float64" Name="Gauss Stress" NumberOfComponents="6" format="ascii" RangeMin="20853.897704104398" RangeMax="59565.017434602276">
          55685.54778113602 -1530.0072659149191 0 -4056.137507628977 0 0
          -57428.78779457514 -8223.503112775199 0 13501.83805947573 0 0
          54630.98200584931 1888.5973544237183 0 1358.2867192584122 0 0
          -52129.13705895561 -2693.655991354991 0 3074.5653781420583 0 0
          44220.9036470481 808.3685615672998 0 1669.8874313378797 0 0
          -44512.55583681832 -3492.641220745612 0 4991.9227929245135 0 0
          36099.052605033714 989.1289087815805 0 3147.3656054859794 0 0
          -36062.401027566266 -2382.951670773712 0 3142.4290204659965 0 0
          27657.485056646747 730.3999109385417 0 3416.8277753102307 0 0
          -28039.812751090412 -1782.2868016706718 0 2923.705730281473 0 0
          -20649.530332028975 -1208.3559994091725 0 2649.8721287182743 0 0
          <InformationKey name="L2_NORM_RANGE" location="vtkDataArray" length="2">
            <Value index="0">
              20853.897704
            </Value>
            <Value index="1">
              59565.017435
            </Value>
          </InformationKey>
        </DataArray>
        <DataArray type="Float64" Name="Gauss Strain" NumberOfComponents="6" format="ascii" RangeMin="0" RangeMax="0">
          0 0 0 0 0 0
          0 0 0 0 0 0
          0 0 0 0 0 0
          0 0 0 0 0 0
          0 0 0 0 0 0
          0 0 0 0 0 0
          0 0 0 0 0 0
          0 0 0 0 0 0
          0 0 0 0 0 0
          0 0 0 0 0 0
          0 0 0 0 0 0
          <InformationKey name="L2_NORM_RANGE" location="vtkDataArray" length="2">
            <Value index="0">
              0
            </Value>
            <Value index="1">
              0
            </Value>
          </InformationKey>
        </DataArray>
      </CellData>
      <Points>
        <DataArray type="Float32" Name="Points" NumberOfComponents="3" format="ascii" RangeMin="0" RangeMax="0.6020797527609908">
          0 0.05000000074505806 0 0 0 0
          0.10000000149011612 0.05000000074505806 0 0.10000000149011612 0 0
          0.20000000298023224 0.05000000074505806 0 0.20000000298023224 0 0
          0.30000001192092896 0.05000000074505806 0 0.30000001192092896 0 0
          0.4000000059604645 0.05000000074505806 0 0.4000000059604645 0 0
          0.5 0.05000000074505806 0 0.5 0 0
          0.6000000238418579 0.05000000074505806 0
          <InformationKey name="L2_NORM_RANGE" location="vtkDataArray" length="2">
            <Value index="0">
              0
            </Value>
            <Value index="1">
              0.60207975276
            </Value>
          </InformationKey>
        </DataArray>
      </Points>
      <Cells>
        <DataArray type="Int64" Name="connectivity" format="ascii" RangeMin="0" RangeMax="12">
          3 2 1 2 0 1
          5 4 3 4 2 3
          7 6 5 6 4 5
          9 8 7 8 6 7
          11 10 9 10 8 9
          12 10 11
        </DataArray>
        <DataArray type="Int64" Name="offsets" format="ascii" RangeMin="3" RangeMax="33">
          3 6 9 12 15 18
          21 24 27 30 33
        </DataArray>
        <DataArray type="UInt8" Name="types" format="ascii" RangeMin="5" RangeMax="5">
          5 5 5 5 5 5
          5 5 5 5 5
        </DataArray>
      </Cells>
    </Piece>
  </UnstructuredGrid>
</VTKFile>
