<?xml version="1.0"?>
<VTKFile type="UnstructuredGrid" version="0.1" byte_order="LittleEndian" header_type="UInt32" compressor="vtkZLibDataCompressor">
  <UnstructuredGrid>
    <Piece NumberOfPoints="13" NumberOfCells="11">
      <PointData>
        <DataArray type="Float64" Name="Disp" NumberOfComponents="3" format="ascii" RangeMin="0" RangeMax="0.07465570569272467">
          0 0 0 0 0 0
          -0.0011791862969078519 0.00231986590786578 0 0.001506009796442192 0.002388069057144322 0
          -0.002924036910016087 0.010608076434769246 0 0.002294901211753704 0.010876302706769396 0
          -0.004462593184308824 0.02272713376103696 0 0.0024172022900511795 0.02320940664931897 0
          -0.0062932234450268805 0.0378902026287798 0 0.0018995828716136239 0.03857227842655709 0
          -0.008249598709907274 0.05522274552772989 0 0.0008140529059883613 0.05605841286805267 0
          -0.010284159759487592 0.07394396831736892 0
          <InformationKey name="L2_NORM_RANGE" location="vtkDataArray" length="2">
            <Value index="0">
              0
            </Value>
            <Value index="1">
              0.074655705693
            </Value>
          </InformationKey>
        </DataArray>
        <DataArray type="Float64" Name="Nodal Stress" NumberOfComponents="6" format="ascii" RangeMin="13380.17403505484" RangeMax="123787.29670835355">
          -118270.3606155386 -17681.61403339717 0 31980.887282975524 0 0
          57624.743859137176 -12267.275055036735 0 4990.051317619066 0 0
          -75173.63231376468 -8286.760279823779 0 6372.29058734996 0 0
          77024.55181032335 2137.201462357828 0 -85.23583920304007 0 0
          -58840.48313124112 -4150.351405353965 0 8397.174800580613 0 0
          59540.46047215211 556.7365202698934 0 5301.805162969939 0 0
          -45344.41159965091 -3603.625726664359 0 5106.151205860852 0 0
          44421.255701047165 1195.4528496737394 0 5872.4834813080715 0 0
          -31910.585802619564 -1953.019812112956 0 4375.663938074813 0 0
          31112.38357621068 945.50517102168 0 5798.148914151394 0 0
          -21408.987121643982 -1203.0349443222806 0 3425.068408058438 0 0
          20502.84888137246 847.8677577594946 0 4806.17508151439 0 0
          -13091.658223951195 -617.5162825533523 0 2693.7364006873854 0 0
          <InformationKey name="L2_NORM_RANGE" location="vtkDataArray" length="2">
            <Value index="0">
              13380.174035
            </Value>
            <Value index="1">
              123787.29671
            </Value>
          </InformationKey>
        </DataArray>
        <DataArray type="Float64" Name="Nodal Strain" NumberOfComponents="6" format="ascii" RangeMin="0" RangeMax="0">
          0 0 0 0 0 0
          0 0 0 0 0 0
          0 0 0 0 0 0
          0 0 0 0 0 0
          0 0 0 0 0 0
          0 0 0 0 0 0
          0 0 0 0 0 0
          0 0 0 0 0 0
          0 0 0 0 0 0
          0 0 0 0 0 0
          0 0 0 0 0 0
          0 0 0 0 0 0
          0 0 0 0 0 0
          <InformationKey name="L2_NORM_RANGE" location="vtkDataArray" length="2">
            <Value index="0">
              0
            </Value>
            <Value index="1">
              0
            </Value>
          </InformationKey>
        </DataArray>
        <DataArray type="Float64" Name="Sld_traction" NumberOfComponents="3" format="ascii" RangeMin="4251.520050219538" RangeMax="65623.50008097378">
          60100.17988299882 -26351.700911112926 0 -17492.61091235264 -997.1649715382935 0
          27885.999912618907 -12557.590033552018 0 16045.721032728175 -6954.995543565758 0
          31163.515200158592 -11684.756194569325 0 14622.11287836644 -5649.120334555667 0
          24619.140357030912 -8489.367984804694 0 10165.457040891488 -3784.954008858709 0
          19080.08878441121 -5492.884015703504 0 6885.869685812425 -2229.9016888607434 0
          13892.192212415446 -3527.4222208667425 0 4039.686806513307 -1325.2747800743282 0
          9298.110651760231 -2185.3731472072523 0
          <InformationKey name="L2_NORM_RANGE" location="vtkDataArray" length="2">
            <Value index="0">
              4251.5200502
            </Value>
            <Value index="1">
              65623.500081
            </Value>
          </InformationKey>
        </DataArray>
        <DataArray type="Float64" Name="Velocity" NumberOfComponents="3" format="ascii" RangeMin="0" RangeMax="3.5064470476851652">
          0 0 0 0 0 0
          -0.009656806787824435 -0.001738393506764746 0 -0.000010720099952177264 -0.0033681679606440973 0
          -0.0495510458471915 0.06177311834287025 0 0.03742541553041612 0.0697943630951876 0
          -0.16372519641801753 0.3588846286626133 0 0.07039396474285442 0.3905385024001369 0
          -0.3540380889625001 0.9803807282777015 0 0.059639189622858524 1.0490047209293891 0
          -0.6330144570043212 1.9809971233851016 0 -0.02588337622446457 2.0932165098834155 0
          -0.9904205055208877 3.363664388797396 0
          <InformationKey name="L2_NORM_RANGE" location="vtkDataArray" length="2">
            <Value index="0">
              0
            </Value>
            <Value index="1">
              3.5064470477
            </Value>
          </InformationKey>
        </DataArray>
        <DataArray type="Float64" Name="Acceleration" NumberOfComponents="3" format="ascii" RangeMin="0" RangeMax="1073.8873097935">
          0 0 0 0 0 0
          34.35692951287956 -74.8430948417722 0 -49.829171984237064 -80.09986865284827 0
          93.60687954016294 -322.13713105353963 0 -45.1125494499438 -337.6276951515956 0
          125.06096966426594 -600.9809056351478 0 -8.567319027713438 -620.6509948207276 0
          146.75877190173924 -850.7677081509828 0 42.97476298981451 -865.6215779716367 0
          138.1475954215848 -1017.041469151678 0 86.60950018635663 -1018.9985329835035 0
          95.59556738666197 -1069.623972072215 0
          <InformationKey name="L2_NORM_RANGE" location="vtkDataArray" length="2">
            <Value index="0">
              0
            </Value>
            <Value index="1">
              1073.8873098
            </Value>
          </InformationKey>
        </DataArray>
        <DataArray type="Float64" Name="Sigma" NumberOfComponents="6" format="ascii" RangeMin="28013.680721072436" RangeMax="177615.20180234933">
          -107201.9293771652 107201.92937716405 0 65363.147116337575 0 0
          125515.33255036958 -125515.33255036923 0 -6241.99493989138 0 0
          -112288.96696032303 112288.9669603229 0 3439.249839118302 0 0
          106433.76446775763 -106433.7644677576 0 -6395.013723897965 0 0
          -88291.54267366532 88291.54267366487 0 16566.962845968737 0 0
          82603.28594255159 -82603.28594255101 0 3823.241981803596 0 0
          -67019.86750338037 67019.86750338142 0 3105.9528317580694 0 0
          60515.92536849227 -60515.92536849193 0 7841.143408471898 0 0
          -47774.79837481829 47774.79837481734 0 2788.8840703134742 0 0
          42077.14078541386 -42077.14078541549 0 7786.518076279214 0 0
          -32100.812222294346 32100.812222294302 0 1370.2739231190694 0 0
          27202.839936421322 -27202.839936424945 0 6662.390319858908 0 0
          -19791.468601970373 19791.468601969602 0 1166.9827319450367 0 0
          <InformationKey name="L2_NORM_RANGE" location="vtkDataArray" length="2">
            <Value index="0">
              28013.680721
            </Value>
            <Value index="1">
              177615.2018
            </Value>
          </InformationKey>
        </DataArray>
        <DataArray type="Float64" Name="Press" format="ascii" RangeMin="-128825.48649594335" RangeMax="119977.81447877761">
          -128825.48649594335 107730.51751687203 -121983.49382285579 119977.81447877761 -99677.03569831651 86897.7096233399
          -74736.06115543652 65856.73324195064 -52749.18829425466 45369.28408636452 -35322.725955581795 29793.64342915336
          -21723.980800882327
        </DataArray>
        <DataArray type="Float64" Name="Dev strain" NumberOfComponents="6" format="ascii" RangeMin="0" RangeMax="0">
          0 0 0 0 0 0
          0 0 0 0 0 0
          0 0 0 0 0 0
          0 0 0 0 0 0
          0 0 0 0 0 0
          0 0 0 0 0 0
          0 0 0 0 0 0
          0 0 0 0 0 0
          0 0 0 0 0 0
          0 0 0 0 0 0
          0 0 0 0 0 0
          0 0 0 0 0 0
          0 0 0 0 0 0
          <InformationKey name="L2_NORM_RANGE" location="vtkDataArray" length="2">
            <Value index="0">
              0
            </Value>
            <Value index="1">
              0
            </Value>
          </InformationKey>
        </DataArray>
        <DataArray type="Float64" Name="J2 Stresses" format="ascii" RangeMin="392042691.59692836" RangeMax="15763839330.43723">
          12560338912.424591 15763839330.43723 12611769210.88047 11338370268.910316 7864012572.180552 6826957143.319752
          4494074375.919008 3677548105.692961 2284375828.3439074 1785643242.6136627 1030931557.9870958 751091361.8001949
          392042691.59692836
        </DataArray>
      </PointData>
      <CellData>
        <DataArray type="UInt8" Name="vtkGhostType" format="ascii" RangeMin="0" RangeMax="0">
          0 0 0 0 0 0
          0 0 0 0 0
        </DataArray>
        <DataArray type="Float64" Name="Gauss Stress" NumberOfComponents="6" format="ascii" RangeMin="17604.385213212838" RangeMax="83346.33906116469">
          75128.32274353268 -4645.097295003353 0 -3065.9196082236813 0 0
          -79018.00886301526 -16367.633004936457 0 20853.4673385215 0 0
          69314.66538014833 2150.9935557190847 0 4665.063701291457 0 0
          -65276.48673620849 -2511.9899587215223 0 4537.0663203963595 0 0
          51372.57517250585 639.679300730839 0 4923.446074011188 0 0
          -53407.83715496908 -4935.754331972612 0 7832.0525531768 0 0
          37765.03227104946 1219.5204183234773 0 6138.848518354862 0 0
          -38635.75223914897 -2449.925232677902 0 4578.6601035144795 0 0
          25673.123353158975 887.0110201299831 0 5273.060773085731 0 0
          -26833.699991723573 -1634.7201172585922 0 3981.892023237252 0 0
          -17314.168071718053 -854.5408131572697 0 3066.5489916410047 0 0
          <InformationKey name="L2_NORM_RANGE" location="vtkDataArray" length="2">
            <Value index="0">
              17604.385213
            </Value>
            <Value index="1">
              83346.339061
            </Value>
          </InformationKey>
        </DataArray>
        <DataArray type="Float64" Name="Gauss Strain" NumberOfComponents="6" format="ascii" RangeMin="0" RangeMax="0">
          0 0 0 0 0 0
          0 0 0 0 0 0
          0 0 0 0 0 0
          0 0 0 0 0 0
          0 0 0 0 0 0
          0 0 0 0 0 0
          0 0 0 0 0 0
          0 0 0 0 0 0
          0 0 0 0 0 0
          0 0 0 0 0 0
          0 0 0 0 0 0
          <InformationKey name="L2_NORM_RANGE" location="vtkDataArray" length="2">
            <Value index="0">
              0
            </Value>
            <Value index="1">
              0
            </Value>
          </InformationKey>
        </DataArray>
      </CellData>
      <Points>
        <DataArray type="Float32" Name="Points" NumberOfComponents="3" format="ascii" RangeMin="0" RangeMax="0.6020797527609908">
          0 0.05000000074505806 0 0 0 0
          0.10000000149011612 0.05000000074505806 0 0.10000000149011612 0 0
          0.20000000298023224 0.05000000074505806 0 0.20000000298023224 0 0
          0.30000001192092896 0.05000000074505806 0 0.30000001192092896 0 0
          0.4000000059604645 0.05000000074505806 0 0.4000000059604645 0 0
          0.5 0.05000000074505806 0 0.5 0 0
          0.6000000238418579 0.05000000074505806 0
          <InformationKey name="L2_NORM_RANGE" location="vtkDataArray" length="2">
            <Value index="0">
              0
            </Value>
            <Value index="1">
              0.60207975276
            </Value>
          </InformationKey>
        </DataArray>
      </Points>
      <Cells>
        <DataArray type="Int64" Name="connectivity" format="ascii" RangeMin="0" RangeMax="12">
          3 2 1 2 0 1
          5 4 3 4 2 3
          7 6 5 6 4 5
          9 8 7 8 6 7
          11 10 9 10 8 9
          12 10 11
        </DataArray>
        <DataArray type="Int64" Name="offsets" format="ascii" RangeMin="3" RangeMax="33">
          3 6 9 12 15 18
          21 24 27 30 33
        </DataArray>
        <DataArray type="UInt8" Name="types" format="ascii" RangeMin="5" RangeMax="5">
          5 5 5 5 5 5
          5 5 5 5 5
        </DataArray>
      </Cells>
    </Piece>
  </UnstructuredGrid>
</VTKFile>
