<?xml version="1.0"?>
<VTKFile type="UnstructuredGrid" version="0.1" byte_order="LittleEndian" header_type="UInt32" compressor="vtkZLibDataCompressor">
  <UnstructuredGrid>
    <Piece NumberOfPoints="13" NumberOfCells="11">
      <PointData>
        <DataArray type="Float64" Name="Disp" NumberOfComponents="3" format="ascii" RangeMin="0" RangeMax="0.08431423285173092">
          0 0 0 0 0 0
          0.001367637115270589 -0.0026502363430743595 0 -0.001539679765549655 -0.0025841545922848483 0
          0.0023547876579706525 -0.011684055484498423 0 -0.003356850814244102 -0.011386137058854363 0
          0.0024564647873704603 -0.025471485174679218 0 -0.005299158315586633 -0.024873573802235815 0
          0.0017239139559869026 -0.0428225817865406 0 -0.007553227020994474 -0.04196408505014144 0
          0.0002840230271278312 -0.0627037243914984 0 -0.010056012704921029 -0.06162698706989393 0
          -0.0017078637888315006 -0.08429693388643919 0
          <InformationKey name="L2_NORM_RANGE" location="vtkDataArray" length="2">
            <Value index="0">
              0
            </Value>
            <Value index="1">
              0.084314232852
            </Value>
          </InformationKey>
        </DataArray>
        <DataArray type="Float64" Name="Nodal Stress" NumberOfComponents="6" format="ascii" RangeMin="27458.782995150726" RangeMax="159383.8225935061">
          153286.57978951116 -5239.211349954226 0 -43347.18013184445 0 0
          -82697.55855373338 -15337.295655718795 0 -242.26281136523403 0 0
          110340.79938564905 7114.652554227578 0 -18347.316051329723 0 0
          -101210.41101115357 -2900.156384175275 0 8278.569384364486 0 0
          83880.49008192647 9048.402844890403 0 -23915.111684407555 0 0
          -88597.30182458211 -4935.466829063025 0 9304.04660700549 0 0
          69520.8022118576 9977.607852981499 0 -22305.36589651729 0 0
          -71330.27928911311 -3523.450859937428 0 10463.368946974688 0 0
          51589.2974292831 9935.010272467553 0 -20049.64060550288 0 0
          -55366.51000098215 -2907.956879010249 0 9062.458971391026 0 0
          36641.89244476786 8957.309154042028 0 -16280.567667503665 0 0
          -40063.202291856884 -1747.438020855606 0 6958.132386288628 0 0
          23459.118782966238 7331.007339320005 0 -12243.8082675406 0 0
          <InformationKey name="L2_NORM_RANGE" location="vtkDataArray" length="2">
            <Value index="0">
              27458.782995
            </Value>
            <Value index="1">
              159383.82259
            </Value>
          </InformationKey>
        </DataArray>
        <DataArray type="Float64" Name="Nodal Strain" NumberOfComponents="6" format="ascii" RangeMin="0" RangeMax="0">
          0 0 0 0 0 0
          0 0 0 0 0 0
          0 0 0 0 0 0
          0 0 0 0 0 0
          0 0 0 0 0 0
          0 0 0 0 0 0
          0 0 0 0 0 0
          0 0 0 0 0 0
          0 0 0 0 0 0
          0 0 0 0 0 0
          0 0 0 0 0 0
          0 0 0 0 0 0
          0 0 0 0 0 0
          <InformationKey name="L2_NORM_RANGE" location="vtkDataArray" length="2">
            <Value index="0">
              0
            </Value>
            <Value index="1">
              0
            </Value>
          </InformationKey>
        </DataArray>
        <DataArray type="Float64" Name="Sld_traction" NumberOfComponents="3" format="ascii" RangeMin="7528.695893147753" RangeMax="72311.62229937543">
          -69856.96911114764 18680.861494366207 0 26260.898434616625 23276.947641450864 0
          -28346.42921996332 19486.37623737534 0 -18930.407002339718 16071.456879132164 0
          -24482.358908013513 15782.515393575854 0 -13823.397317051533 13295.122896793082 0
          -21061.82749908229 15160.982627717933 0 -10353.332865550617 10798.182680456504 0
          -18158.729631804108 13496.95773100871 0 -7316.234489350496 8255.921815794285 0
          -14930.171751883381 11373.52505460921 0 -4923.872962866149 5695.325881550201 0
          -11773.891963672304 8850.24766443192 0
          <InformationKey name="L2_NORM_RANGE" location="vtkDataArray" length="2">
            <Value index="0">
              7528.6958931
            </Value>
            <Value index="1">
              72311.622299
            </Value>
          </InformationKey>
        </DataArray>
        <DataArray type="Float64" Name="Velocity" NumberOfComponents="3" format="ascii" RangeMin="0" RangeMax="0.48692779352873844">
          0 0 0 0 0 0
          0.022580025598586073 -0.06466037314366813 0 -0.04086111241989754 -0.06160459774260141 0
          0.017913834777162352 -0.2315868046775087 0 -0.05202636005679784 -0.2230031095743117 0
          -0.023745935807915508 -0.3198532270693004 0 -0.02971021642288152 -0.3177795111661865 0
          -0.054646041730595285 -0.2451047846987109 0 0.028177022899905868 -0.25987066684647786 0
          -0.0488754595126141 0.025425822319281366 0 0.1303756663586313 -0.011832218516648396 0
          0.007762652621670751 0.4868659130962456 0
          <InformationKey name="L2_NORM_RANGE" location="vtkDataArray" length="2">
            <Value index="0">
              0
            </Value>
            <Value index="1">
              0.48692779353
            </Value>
          </InformationKey>
        </DataArray>
        <DataArray type="Float64" Name="Acceleration" NumberOfComponents="3" format="ascii" RangeMin="0" RangeMax="875.5406796089546">
          0 0 0 0 0 0
          -19.69459510918159 40.98229682442343 0 22.838712264323703 39.07583984132452 0
          -25.643775351299155 168.88309453494549 0 49.615512557845705 160.7941248646148 0
          -10.334457354159895 340.14745299008064 0 78.14231510677291 325.9384512621036 0
          20.34834747427226 524.7532380024859 0 110.84035756266167 507.2338124597154 0
          58.25970058092366 704.012442820007 0 144.28815294432025 685.711069310637 0
          96.73948574528367 870.1798397732782 0
          <InformationKey name="L2_NORM_RANGE" location="vtkDataArray" length="2">
            <Value index="0">
              0
            </Value>
            <Value index="1">
              875.54067961
            </Value>
          </InformationKey>
        </DataArray>
        <DataArray type="Float64" Name="Sigma" NumberOfComponents="6" format="ascii" RangeMin="53876.349950675314" RangeMax="235038.04256316528">
          155165.6631417356 -155165.66314173417 0 -84202.82308507 0 0
          -147923.3755242754 147923.37552427655 0 29088.598152246755 0 0
          154643.63151973704 -154643.63151973695 0 -34071.67250948452 0 0
          -146559.47004535203 146559.4700453511 0 35787.15685882161 0 0
          119828.03678460466 -119828.03678460325 0 -59287.17585645379 0 0
          -116646.44397295991 116646.44397296052 0 43836.09220181392 0 0
          97258.10656309288 -97258.1065630929 0 -54980.8240132121 0 0
          -93266.2246644331 93266.22466443293 0 42838.53443654391 0 0
          71072.26987101955 -71072.26987101977 0 -50556.553741824515 0 0
          -69257.0340230394 69257.03402303903 0 36807.38363444503 0 0
          49787.0969250869 -49787.09692508408 0 -40726.87720051679 0 0
          -48746.6429049644 48746.642904966335 0 28293.025310489735 0 0
          31570.108179732448 -31570.108179733917 0 -30154.893849050764 0 0
          <InformationKey name="L2_NORM_RANGE" location="vtkDataArray" length="2">
            <Value index="0">
              53876.349951
            </Value>
            <Value index="1">
              235038.04256
            </Value>
          </InformationKey>
        </DataArray>
        <DataArray type="Float64" Name="Press" format="ascii" RangeMin="-189160.21617608264" RangeMax="184038.71036414706">
          150608.1213455237 -189160.21617608264 184038.71036414706 -158651.9450414541 139390.31281750524 -136625.66730296984
          122439.72089378591 -110581.09229495157 94231.06254219839 -84820.77298377808 70254.43916513908 -60493.10942855221
          47491.96378136886
        </DataArray>
        <DataArray type="Float64" Name="Dev strain" NumberOfComponents="6" format="ascii" RangeMin="0" RangeMax="0">
          0 0 0 0 0 0
          0 0 0 0 0 0
          0 0 0 0 0 0
          0 0 0 0 0 0
          0 0 0 0 0 0
          0 0 0 0 0 0
          0 0 0 0 0 0
          0 0 0 0 0 0
          0 0 0 0 0 0
          0 0 0 0 0 0
          0 0 0 0 0 0
          0 0 0 0 0 0
          0 0 0 0 0 0
          <InformationKey name="L2_NORM_RANGE" location="vtkDataArray" length="2">
            <Value index="0">
              0
            </Value>
            <Value index="1">
              0
            </Value>
          </InformationKey>
        </DataArray>
        <DataArray type="Float64" Name="J2 Stresses" format="ascii" RangeMin="1224001136.2419357" RangeMax="25848911872.08825">
          25848911872.08825 22092861662.111702 24204872486.51059 21799858408.983784 15237500704.91092 14086793636.41843
          10214862044.53088 9157373671.324234 5690258826.181547 5135232634.171715 2893424651.8543506 2576359014.8092136
          1224001136.2419357
        </DataArray>
      </PointData>
      <CellData>
        <DataArray type="UInt8" Name="vtkGhostType" format="ascii" RangeMin="0" RangeMax="0">
          0 0 0 0 0 0
          0 0 0 0 0
        </DataArray>
        <DataArray type="Float64" Name="Gauss Stress" NumberOfComponents="6" format="ascii" RangeMin="34150.93627302119" RangeMax="106823.28945569474">
          -101204.22163442674 -7978.078934499665 0 10268.02750052795 0 0
          102457.51155692848 -5466.4345345354795 0 -29728.632480769258 0 0
          -99755.0589202087 -4169.80743107011 0 6778.691068060589 0 0
          97563.09213306266 12288.29329373637 0 -19190.563835705572 0 0
          -79140.53359281187 -4037.492209944986 0 10564.600875048582 0 0
          75214.68859435304 8254.889011195235 0 -23477.30255595066 0 0
          -64207.26385099475 -3239.937973359696 0 9696.454776388147 0 0
          60384.61430357069 10341.846457117663 0 -20899.614439497567 0 0
          -47758.674416702714 -2280.9544147566476 0 8124.510581472659 0 0
          43755.68716554216 9354.131983498184 0 -18158.682435965424 0 0
          29954.61857260357 8214.243772701353 0 -14196.248579692612 0 0
          <InformationKey name="L2_NORM_RANGE" location="vtkDataArray" length="2">
            <Value index="0">
              34150.936273
            </Value>
            <Value index="1">
              106823.28946
            </Value>
          </InformationKey>
        </DataArray>
        <DataArray type="Float64" Name="Gauss Strain" NumberOfComponents="6" format="ascii" RangeMin="0" RangeMax="0">
          0 0 0 0 0 0
          0 0 0 0 0 0
          0 0 0 0 0 0
          0 0 0 0 0 0
          0 0 0 0 0 0
          0 0 0 0 0 0
          0 0 0 0 0 0
          0 0 0 0 0 0
          0 0 0 0 0 0
          0 0 0 0 0 0
          0 0 0 0 0 0
          <InformationKey name="L2_NORM_RANGE" location="vtkDataArray" length="2">
            <Value index="0">
              0
            </Value>
            <Value index="1">
              0
            </Value>
          </InformationKey>
        </DataArray>
      </CellData>
      <Points>
        <DataArray type="Float32" Name="Points" NumberOfComponents="3" format="ascii" RangeMin="0" RangeMax="0.6020797527609908">
          0 0.05000000074505806 0 0 0 0
          0.10000000149011612 0.05000000074505806 0 0.10000000149011612 0 0
          0.20000000298023224 0.05000000074505806 0 0.20000000298023224 0 0
          0.30000001192092896 0.05000000074505806 0 0.30000001192092896 0 0
          0.4000000059604645 0.05000000074505806 0 0.4000000059604645 0 0
          0.5 0.05000000074505806 0 0.5 0 0
          0.6000000238418579 0.05000000074505806 0
          <InformationKey name="L2_NORM_RANGE" location="vtkDataArray" length="2">
            <Value index="0">
              0
            </Value>
            <Value index="1">
              0.60207975276
            </Value>
          </InformationKey>
        </DataArray>
      </Points>
      <Cells>
        <DataArray type="Int64" Name="connectivity" format="ascii" RangeMin="0" RangeMax="12">
          3 2 1 2 0 1
          5 4 3 4 2 3
          7 6 5 6 4 5
          9 8 7 8 6 7
          11 10 9 10 8 9
          12 10 11
        </DataArray>
        <DataArray type="Int64" Name="offsets" format="ascii" RangeMin="3" RangeMax="33">
          3 6 9 12 15 18
          21 24 27 30 33
        </DataArray>
        <DataArray type="UInt8" Name="types" format="ascii" RangeMin="5" RangeMax="5">
          5 5 5 5 5 5
          5 5 5 5 5
        </DataArray>
      </Cells>
    </Piece>
  </UnstructuredGrid>
</VTKFile>
