<?xml version="1.0"?>
<VTKFile type="UnstructuredGrid" version="0.1" byte_order="LittleEndian" header_type="UInt32" compressor="vtkZLibDataCompressor">
  <UnstructuredGrid>
    <Piece NumberOfPoints="13" NumberOfCells="11">
      <PointData>
        <DataArray type="Float64" Name="Disp" NumberOfComponents="3" format="ascii" RangeMin="0" RangeMax="0.08659141135282045">
          0 0 0 0 0 0
          -0.0012949993328643713 0.0025139408626847787 0 0.0016381346821894816 0.0025901704020767735 0
          -0.0032967181715609015 0.011621453899921653 0 0.0025152418725223865 0.01194954526967606 0
          -0.005220828876987532 0.02524760135369767 0 0.002622038429774235 0.0258696711664655 0
          -0.0076371279966316805 0.04268390821400759 0 0.001911895455264418 0.04360760733947479 0
          -0.010381528958600688 0.06306548622829147 0 0.0004137873930018358 0.0642510161612955 0
          -0.013384657301162 0.08555070700469876 0
          <InformationKey name="L2_NORM_RANGE" location="vtkDataArray" length="2">
            <Value index="0">
              0
            </Value>
            <Value index="1">
              0.086591411353
            </Value>
          </InformationKey>
        </DataArray>
        <DataArray type="Float64" Name="Nodal Stress" NumberOfComponents="6" format="ascii" RangeMin="19463.89759108294" RangeMax="136972.91089821377">
          -131137.38136022724 -20102.300125496684 0 34065.57000222939 0 0
          63562.17470425865 -14136.180372096005 0 4380.004515434139 0 0
          -84868.70177409252 -9247.5237721566 0 5635.88546694392 0 0
          86103.15849370413 2648.680886300958 0 -617.1437290974595 0 0
          -68257.91975867098 -4620.204074495624 0 7579.771882352627 0 0
          68312.47243775974 777.832436943635 0 5779.435564076338 0 0
          -54585.17045550397 -4195.40916434691 0 3929.6132492030515 0 0
          52773.98975675621 1626.4220763763688 0 6895.557848306922 0 0
          -40506.13994341049 -2353.56859860803 0 3339.2779840618255 0 0
          38529.62672169932 1458.3554804192681 0 7234.840999750828 0 0
          -28986.032827733496 -1457.66944973399 0 2728.3753247285426 0 0
          26639.230111796045 1414.230901544153 0 6413.254063934652 0 0
          -19294.61424870475 -717.8428608331432 0 2458.8355083239435 0 0
          <InformationKey name="L2_NORM_RANGE" location="vtkDataArray" length="2">
            <Value index="0">
              19463.897591
            </Value>
            <Value index="1">
              136972.9109
            </Value>
          </InformationKey>
        </DataArray>
        <DataArray type="Float64" Name="Nodal Strain" NumberOfComponents="6" format="ascii" RangeMin="0" RangeMax="0">
          0 0 0 0 0 0
          0 0 0 0 0 0
          0 0 0 0 0 0
          0 0 0 0 0 0
          0 0 0 0 0 0
          0 0 0 0 0 0
          0 0 0 0 0 0
          0 0 0 0 0 0
          0 0 0 0 0 0
          0 0 0 0 0 0
          0 0 0 0 0 0
          0 0 0 0 0 0
          0 0 0 0 0 0
          <InformationKey name="L2_NORM_RANGE" location="vtkDataArray" length="2">
            <Value index="0">
              0
            </Value>
            <Value index="1">
              0
            </Value>
          </InformationKey>
        </DataArray>
        <DataArray type="Float64" Name="Sld_traction" NumberOfComponents="3" format="ascii" RangeMin="6776.800548119575" RangeMax="71777.23062928388">
          65650.31470612541 -29017.357146992224 0 -18711.662244687737 -333.88190940174053 0
          30419.10104845626 -13869.358452536759 0 18801.876153893758 -8044.269134312213 0
          34791.879598232816 -13040.084732072635 0 17839.6812570139 -6527.7477962048 0
          28563.17961780064 -9518.504324624617 0 13441.816549491767 -4415.387279757915 0
          23301.350779461744 -6175.775546599192 0 9972.830267167761 -2630.4636989393116 0
          18087.90150101533 -3960.1273052837228 0 6594.723200533389 -1560.3370076174033 0
          13109.995243921197 -2474.055797703075 0
          <InformationKey name="L2_NORM_RANGE" location="vtkDataArray" length="2">
            <Value index="0">
              6776.8005481
            </Value>
            <Value index="1">
              71777.230629
            </Value>
          </InformationKey>
        </DataArray>
        <DataArray type="Float64" Name="Velocity" NumberOfComponents="3" format="ascii" RangeMin="0" RangeMax="0.8745623244175859">
          0 0 0 0 0 0
          -0.031813140728831346 0.08384044516206623 0 0.056031930219309745 0.0914360732032582 0
          -0.0725784042185218 0.3203999095767651 0 0.02996872171511278 0.3337945765603916 0
          -0.04168461612671548 0.4561465145557726 0 -0.028762343953926184 0.46120748178790194 0
          0.042321841008219785 0.3767072519954944 0 -0.07912231215564014 0.35511472109342535 0
          0.21272854423638776 -0.008271966255364305 0 -0.0761604687796098 -0.0711071933267391 0
          0.4726486245012822 -0.7358413803583872 0
          <InformationKey name="L2_NORM_RANGE" location="vtkDataArray" length="2">
            <Value index="0">
              0
            </Value>
            <Value index="1">
              0.87456232442
            </Value>
          </InformationKey>
        </DataArray>
        <DataArray type="Float64" Name="Acceleration" NumberOfComponents="3" format="ascii" RangeMin="0" RangeMax="868.3266848122206">
          0 0 0 0 0 0
          19.43987568816965 -42.423502397268294 0 -29.221405840507032 -45.60458526416187 0
          52.78263827080991 -186.47520509999958 0 -30.994289614909576 -195.9490903171445 0
          78.85344895326307 -362.6907431441614 0 -12.88484696266869 -378.1882948831262 0
          110.54298100013239 -547.636798550433 0 21.022009910269844 -565.9233142624871 0
          137.1073336024965 -717.3351746667613 0 61.03154917517554 -733.583252109398 0
          151.86003812830313 -854.9443024996726 0
          <InformationKey name="L2_NORM_RANGE" location="vtkDataArray" length="2">
            <Value index="0">
              0
            </Value>
            <Value index="1">
              868.32668481
            </Value>
          </InformationKey>
        </DataArray>
        <DataArray type="Float64" Name="Sigma" NumberOfComponents="6" format="ascii" RangeMin="40135.15150691578" RangeMax="197457.7150235214">
          -117683.57369658748 117683.57369658834 0 71226.11367580493 0 0
          139506.35330363436 -139506.35330363383 0 -8093.454031093192 0 0
          -126209.36837991932 126209.36837991935 0 1903.5066884008972 0 0
          119402.75314402598 -119402.75314402666 0 -6482.7250651393315 0 0
          -101559.6298413779 101559.6298413787 0 15091.716228123192 0 0
          95569.90933887422 -95569.90933887573 0 5835.633987985255 0 0
          -79946.22158598115 79946.22158598239 0 -214.42654537988943 0 0
          72690.15198703027 -72690.15198702832 0 11143.698900076279 0 0
          -59816.57685221895 59816.5768522175 0 -620.4879958512149 0 0
          52916.07287799489 -52916.07287799288 0 11612.366179678615 0 0
          -42643.25912885242 42643.25912885392 0 -1635.0463239966891 0 0
          36168.74679532926 -36168.746795331506 0 10400.008419428957 0 0
          -28371.983645586526 28371.983645585642 0 -944.1792797322175 0 0
          <InformationKey name="L2_NORM_RANGE" location="vtkDataArray" length="2">
            <Value index="0">
              40135.151507
            </Value>
            <Value index="1">
              197457.71502
            </Value>
          </InformationKey>
        </DataArray>
        <DataArray type="Float64" Name="Press" format="ascii" RangeMin="-142116.86532409574" RangeMax="135182.11552035096">
          -142116.86532409574 118537.14365551037 -136782.77597876784 135182.11552035096 -114531.92284229776 100698.7741984267
          -89122.9072125676 79442.9115899904 -66102.56442668656 57561.25969933197 -46926.95650474727 40086.01746552301
          -31072.283616139757
        </DataArray>
        <DataArray type="Float64" Name="Dev strain" NumberOfComponents="6" format="ascii" RangeMin="0" RangeMax="0">
          0 0 0 0 0 0
          0 0 0 0 0 0
          0 0 0 0 0 0
          0 0 0 0 0 0
          0 0 0 0 0 0
          0 0 0 0 0 0
          0 0 0 0 0 0
          0 0 0 0 0 0
          0 0 0 0 0 0
          0 0 0 0 0 0
          0 0 0 0 0 0
          0 0 0 0 0 0
          0 0 0 0 0 0
          <InformationKey name="L2_NORM_RANGE" location="vtkDataArray" length="2">
            <Value index="0">
              0
            </Value>
            <Value index="1">
              0
            </Value>
          </InformationKey>
        </DataArray>
        <DataArray type="Float64" Name="J2 Stresses" format="ascii" RangeMin="805192324.6134734" RangeMax="19478398611.61673">
          15117713335.33991 19478398611.61673 15929710501.28638 14267523889.440836 10371298388.195328 9142121227.051214
          6391409840.56074 5314903702.191308 3578119117.6555767 2833822530.901896 1819115893.250923 1335218288.5257707
          805192324.6134734
        </DataArray>
      </PointData>
      <CellData>
        <DataArray type="UInt8" Name="vtkGhostType" format="ascii" RangeMin="0" RangeMax="0">
          0 0 0 0 0 0
          0 0 0 0 0
        </DataArray>
        <DataArray type="Float64" Name="Gauss Stress" NumberOfComponents="6" format="ascii" RangeMin="24414.35395674028" RangeMax="92769.17835022128">
          83212.07375494484 -5254.418290215877 0 -4224.224135943876 0 0
          -88249.69547340859 -18658.636291493112 0 21678.722111037543 0 0
          78253.99983933408 2645.3114116520737 0 4814.87505032304 0 0
          -74832.942792662 -2588.779407814417 0 3504.1659504615877 0 0
          59777.53943859097 901.6462786426127 0 5588.3021142272155 0 0
          -62963.99931497449 -5673.3712559844225 0 6904.3078902428515 0 0
          45563.751625147335 1703.9862832773704 0 7378.52569463456 0 0
          -47618.402166811204 -2903.3045326973975 0 3436.261452948391 0 0
          32387.293734859813 1426.2533718790746 0 6792.4427583702945 0 0
          -35004.00811172611 -1974.8327096744433 0 3118.943953276903 0 0
          -24253.239544824588 -1022.2422254186597 0 2606.92760523335 0 0
          <InformationKey name="L2_NORM_RANGE" location="vtkDataArray" length="2">
            <Value index="0">
              24414.353957
            </Value>
            <Value index="1">
              92769.17835
            </Value>
          </InformationKey>
        </DataArray>
        <DataArray type="Float64" Name="Gauss Strain" NumberOfComponents="6" format="ascii" RangeMin="0" RangeMax="0">
          0 0 0 0 0 0
          0 0 0 0 0 0
          0 0 0 0 0 0
          0 0 0 0 0 0
          0 0 0 0 0 0
          0 0 0 0 0 0
          0 0 0 0 0 0
          0 0 0 0 0 0
          0 0 0 0 0 0
          0 0 0 0 0 0
          0 0 0 0 0 0
          <InformationKey name="L2_NORM_RANGE" location="vtkDataArray" length="2">
            <Value index="0">
              0
            </Value>
            <Value index="1">
              0
            </Value>
          </InformationKey>
        </DataArray>
      </CellData>
      <Points>
        <DataArray type="Float32" Name="Points" NumberOfComponents="3" format="ascii" RangeMin="0" RangeMax="0.6020797527609908">
          0 0.05000000074505806 0 0 0 0
          0.10000000149011612 0.05000000074505806 0 0.10000000149011612 0 0
          0.20000000298023224 0.05000000074505806 0 0.20000000298023224 0 0
          0.30000001192092896 0.05000000074505806 0 0.30000001192092896 0 0
          0.4000000059604645 0.05000000074505806 0 0.4000000059604645 0 0
          0.5 0.05000000074505806 0 0.5 0 0
          0.6000000238418579 0.05000000074505806 0
          <InformationKey name="L2_NORM_RANGE" location="vtkDataArray" length="2">
            <Value index="0">
              0
            </Value>
            <Value index="1">
              0.60207975276
            </Value>
          </InformationKey>
        </DataArray>
      </Points>
      <Cells>
        <DataArray type="Int64" Name="connectivity" format="ascii" RangeMin="0" RangeMax="12">
          3 2 1 2 0 1
          5 4 3 4 2 3
          7 6 5 6 4 5
          9 8 7 8 6 7
          11 10 9 10 8 9
          12 10 11
        </DataArray>
        <DataArray type="Int64" Name="offsets" format="ascii" RangeMin="3" RangeMax="33">
          3 6 9 12 15 18
          21 24 27 30 33
        </DataArray>
        <DataArray type="UInt8" Name="types" format="ascii" RangeMin="5" RangeMax="5">
          5 5 5 5 5 5
          5 5 5 5 5
        </DataArray>
      </Cells>
    </Piece>
  </UnstructuredGrid>
</VTKFile>
