<?xml version="1.0"?>
<VTKFile type="UnstructuredGrid" version="0.1" byte_order="LittleEndian" header_type="UInt32" compressor="vtkZLibDataCompressor">
  <UnstructuredGrid>
    <Piece NumberOfPoints="13" NumberOfCells="11">
      <PointData>
        <DataArray type="Float64" Name="Disp" NumberOfComponents="3" format="ascii" RangeMin="0" RangeMax="0.027565951686613323">
          0 0 0 0 0 0
          -0.00032312974439973994 0.0005743620264863149 0 0.00035817189619131496 0.0005763658872739499 0
          -0.0007563191886687448 0.0027723517028760414 0 0.0007487695077457921 0.002796404276183873 0
          -0.0012310186737826924 0.0065835266845921695 0 0.001089939243494941 0.006637360018923289 0
          -0.0017778373527389086 0.012029149423592444 0 0.0013470057469477925 0.012128310663130927 0
          -0.0023889282188653787 0.01902798910583384 0 0.0014721917173874408 0.019179402225929006 0
          -0.0030471019017652584 0.02739702287455625 0
          <InformationKey name="L2_NORM_RANGE" location="vtkDataArray" length="2">
            <Value index="0">
              0
            </Value>
            <Value index="1">
              0.027565951687
            </Value>
          </InformationKey>
        </DataArray>
        <DataArray type="Float64" Name="Nodal Stress" NumberOfComponents="6" format="ascii" RangeMin="14814.535022859567" RangeMax="37213.279548911574">
          -36343.645234522926 -1219.2094397111202 0 7904.50214717529 0 0
          20378.929527471908 632.6461969448148 0 -1462.7609199411615 0 0
          -27859.17235357612 -1836.2546220323466 0 1052.9432379995123 0 0
          27519.04476552143 1183.909681814579 0 -2108.6046215176834 0 0
          -25287.40232350256 -1293.163760425978 0 1839.8904054382879 0 0
          27083.791189685384 1136.1682019763286 0 -1161.6540253084286 0 0
          -24520.577428612472 -1455.68084424276 0 1502.8067007068792 0 0
          25581.494886154796 887.690706234434 0 -570.7058491388146 0 0
          -22104.639975190054 -1324.2333342557342 0 1760.6090267462992 0 0
          23164.96589692789 689.0391869396614 0 242.20757151340118 0 0
          -18824.050041108872 -1219.7108701030224 0 2017.590915796931 0 0
          19544.09223856706 444.50686104210365 0 964.1474262513515 0 0
          -14597.762799951463 -1033.166265010183 0 2303.9827796081518 0 0
          <InformationKey name="L2_NORM_RANGE" location="vtkDataArray" length="2">
            <Value index="0">
              14814.535023
            </Value>
            <Value index="1">
              37213.279549
            </Value>
          </InformationKey>
        </DataArray>
        <DataArray type="Float64" Name="Nodal Strain" NumberOfComponents="6" format="ascii" RangeMin="0" RangeMax="0">
          0 0 0 0 0 0
          0 0 0 0 0 0
          0 0 0 0 0 0
          0 0 0 0 0 0
          0 0 0 0 0 0
          0 0 0 0 0 0
          0 0 0 0 0 0
          0 0 0 0 0 0
          0 0 0 0 0 0
          0 0 0 0 0 0
          0 0 0 0 0 0
          0 0 0 0 0 0
          0 0 0 0 0 0
          <InformationKey name="L2_NORM_RANGE" location="vtkDataArray" length="2">
            <Value index="0">
              0
            </Value>
            <Value index="1">
              0
            </Value>
          </InformationKey>
        </DataArray>
        <DataArray type="Float64" Name="Sld_traction" NumberOfComponents="3" format="ascii" RangeMin="4956.259467871213" RangeMax="16422.971481860284">
          15603.996301393778 -5121.454063065054 0 -5335.080530546531 -2796.7277944638445 0
          6633.82202438354 -4439.364250067299 0 6348.898131141853 -4008.201369966525 0
          7176.813790722196 -4123.1205889247 0 6442.814037038367 -3738.1527553876367 0
          7540.572596811272 -4027.4996961786887 0 6158.798985842902 -3297.479493773101 0
          7915.722214241605 -3684.4221076909826 0 5550.207197137433 -2723.46676414729 0
          7953.208524420751 -3250.677739474539 0 4519.2866752867485 -2034.8355853578646 0
          7451.293592696462 -2686.893648801871 0
          <InformationKey name="L2_NORM_RANGE" location="vtkDataArray" length="2">
            <Value index="0">
              4956.2594679
            </Value>
            <Value index="1">
              16422.971482
            </Value>
          </InformationKey>
        </DataArray>
        <DataArray type="Float64" Name="Velocity" NumberOfComponents="3" format="ascii" RangeMin="0" RangeMax="8.447807049256738">
          0 0 0 0 0 0
          -0.1686369108458137 0.35295722196622226 0 0.22775868816314562 0.3593801152073986 0
          -0.37165273062111426 1.5456524622420638 0 0.33927600680352854 1.5665353533900788 0
          -0.4903408639371373 3.120556409459694 0 0.3521336855441302 3.159834218380234 0
          -0.6139651987103585 4.886591609574824 0 0.284842290705923 4.943735964757943 0
          -0.7334253510254338 6.684027751605731 0 0.15057822797680875 6.754450064790238 0
          -0.854871763706306 8.404441576279147 0
          <InformationKey name="L2_NORM_RANGE" location="vtkDataArray" length="2">
            <Value index="0">
              0
            </Value>
            <Value index="1">
              8.4478070493
            </Value>
          </InformationKey>
        </DataArray>
        <DataArray type="Float64" Name="Acceleration" NumberOfComponents="3" format="ascii" RangeMin="0" RangeMax="563.0407030359611">
          0 0 0 0 0 0
          -25.149093569911663 61.793298434769554 0 43.80415510850801 67.41457336161744 0
          -65.35612124149566 256.7015820244479 0 34.84913615160438 270.46986437510765 0
          -79.42786111430495 435.46329705832255 0 -6.73164445733876 455.09320144807003 0
          -90.1965457804319 539.3192043718834 0 -69.07461900929974 558.7875538019341 0
          -82.89168974154171 515.7119440375686 0 -135.47169135565275 528.7528804519256 0
          -54.70849781670154 335.39385921310986 0
          <InformationKey name="L2_NORM_RANGE" location="vtkDataArray" length="2">
            <Value index="0">
              0
            </Value>
            <Value index="1">
              563.04070304
            </Value>
          </InformationKey>
        </DataArray>
        <DataArray type="Float64" Name="Sigma" NumberOfComponents="6" format="ascii" RangeMin="31568.82843824973" RangeMax="56782.12980349707">
          -34314.28588054254 34314.28588054281 0 18396.89983691119 0 0
          38500.70596643122 -38500.705966431866 0 -7371.253000343569 0 0
          -40121.00579496971 40121.00579496987 0 2195.461915222345 0 0
          39286.52415151036 -39286.52415151022 0 -4925.021444805924 0 0
          -37034.40189113757 37034.401891137655 0 5742.324711098214 0 0
          37696.4703585096 -37696.47035851 0 -4207.513328773159 0 0
          -36021.404967607516 36021.404967607356 0 3735.4131152318614 0 0
          35928.23719724672 -35928.237197246635 0 -2678.706200128756 0 0
          -32866.9114101178 32866.911410117646 0 3695.7899451334365 0 0
          32300.118214676066 -32300.11821467708 0 -1395.948751393972 0 0
          -28265.122309179158 28265.12230917993 0 3395.7686358188826 0 0
          27078.046927900676 -27078.046927899402 0 -196.80521605314297 0 0
          -22196.765782006594 22196.76578200385 0 3346.357213635292 0 0
          <InformationKey name="L2_NORM_RANGE" location="vtkDataArray" length="2">
            <Value index="0">
              31568.828438
            </Value>
            <Value index="1">
              56782.129803
            </Value>
          </InformationKey>
        </DataArray>
        <DataArray type="Float64" Name="Press" format="ascii" RangeMin="-45436.512191788184" RangeMax="43500.867317337805">
          -35700.56909569162 41711.94103470333 -45436.512191788184 43500.867317337805 -40672.03172789666 41270.344283669474
          -40021.13962510703 39138.39459563146 -36304.84501111472 34956.16747616829 -31294.94958701569 29106.040269327543
          -24609.496435972
        </DataArray>
        <DataArray type="Float64" Name="Dev strain" NumberOfComponents="6" format="ascii" RangeMin="0" RangeMax="0">
          0 0 0 0 0 0
          0 0 0 0 0 0
          0 0 0 0 0 0
          0 0 0 0 0 0
          0 0 0 0 0 0
          0 0 0 0 0 0
          0 0 0 0 0 0
          0 0 0 0 0 0
          0 0 0 0 0 0
          0 0 0 0 0 0
          0 0 0 0 0 0
          0 0 0 0 0 0
          0 0 0 0 0 0
          <InformationKey name="L2_NORM_RANGE" location="vtkDataArray" length="2">
            <Value index="0">
              0
            </Value>
            <Value index="1">
              0
            </Value>
          </InformationKey>
        </DataArray>
        <DataArray type="Float64" Name="J2 Stresses" format="ascii" RangeMin="495495937.8315102" RangeMax="1610900119.255297">
          1262081696.3939462 1495888202.6123862 1610900119.255297 1549494938.965151 1379790496.7062197 1425449669.592959
          1301029943.6257353 1292632094.828272 1083648581.4701643 1043784804.9112108 801799950.3098819 733230308.5028231
          495495937.8315102
        </DataArray>
      </PointData>
      <CellData>
        <DataArray type="UInt8" Name="vtkGhostType" format="ascii" RangeMin="0" RangeMax="0">
          0 0 0 0 0 0
          0 0 0 0 0
        </DataArray>
        <DataArray type="Float64" Name="Gauss Stress" NumberOfComponents="6" format="ascii" RangeMin="16907.455223359415" RangeMax="28072.81991078149">
          25814.173494408282 703.3572790935775 0 -3366.937509975716 0 0
          -25119.908653952512 -1163.5181812318892 0 4407.036250596655 0 0
          28015.92416399768 1383.529084742684 0 -1130.070020826957 0 0
          -26825.520045647994 -1579.5976892499116 0 1004.2550605048793 0 0
          25996.967280780915 928.0988886815405 0 -1050.2688045566847 0 0
          -24927.387856523248 -1354.4968563664054 0 1756.741499185639 0 0
          24383.720354163346 809.4243529596531 0 -126.28833546309716 0 0
          -23382.55640702297 -1409.170286703971 0 1584.1656200788477 0 0
          21293.43366395925 551.4051083611934 0 601.0048894572556 0 0
          -20491.847542194337 -1270.570539113875 0 1898.5366098527818 0 0
          -16727.415638981744 -1138.1881967919235 0 2181.77354446701 0 0
          <InformationKey name="L2_NORM_RANGE" location="vtkDataArray" length="2">
            <Value index="0">
              16907.455223
            </Value>
            <Value index="1">
              28072.819911
            </Value>
          </InformationKey>
        </DataArray>
        <DataArray type="Float64" Name="Gauss Strain" NumberOfComponents="6" format="ascii" RangeMin="0" RangeMax="0">
          0 0 0 0 0 0
          0 0 0 0 0 0
          0 0 0 0 0 0
          0 0 0 0 0 0
          0 0 0 0 0 0
          0 0 0 0 0 0
          0 0 0 0 0 0
          0 0 0 0 0 0
          0 0 0 0 0 0
          0 0 0 0 0 0
          0 0 0 0 0 0
          <InformationKey name="L2_NORM_RANGE" location="vtkDataArray" length="2">
            <Value index="0">
              0
            </Value>
            <Value index="1">
              0
            </Value>
          </InformationKey>
        </DataArray>
      </CellData>
      <Points>
        <DataArray type="Float32" Name="Points" NumberOfComponents="3" format="ascii" RangeMin="0" RangeMax="0.6020797527609908">
          0 0.05000000074505806 0 0 0 0
          0.10000000149011612 0.05000000074505806 0 0.10000000149011612 0 0
          0.20000000298023224 0.05000000074505806 0 0.20000000298023224 0 0
          0.30000001192092896 0.05000000074505806 0 0.30000001192092896 0 0
          0.4000000059604645 0.05000000074505806 0 0.4000000059604645 0 0
          0.5 0.05000000074505806 0 0.5 0 0
          0.6000000238418579 0.05000000074505806 0
          <InformationKey name="L2_NORM_RANGE" location="vtkDataArray" length="2">
            <Value index="0">
              0
            </Value>
            <Value index="1">
              0.60207975276
            </Value>
          </InformationKey>
        </DataArray>
      </Points>
      <Cells>
        <DataArray type="Int64" Name="connectivity" format="ascii" RangeMin="0" RangeMax="12">
          3 2 1 2 0 1
          5 4 3 4 2 3
          7 6 5 6 4 5
          9 8 7 8 6 7
          11 10 9 10 8 9
          12 10 11
        </DataArray>
        <DataArray type="Int64" Name="offsets" format="ascii" RangeMin="3" RangeMax="33">
          3 6 9 12 15 18
          21 24 27 30 33
        </DataArray>
        <DataArray type="UInt8" Name="types" format="ascii" RangeMin="5" RangeMax="5">
          5 5 5 5 5 5
          5 5 5 5 5
        </DataArray>
      </Cells>
    </Piece>
  </UnstructuredGrid>
</VTKFile>
