<?xml version="1.0"?>
<VTKFile type="UnstructuredGrid" version="0.1" byte_order="LittleEndian" header_type="UInt32" compressor="vtkZLibDataCompressor">
  <UnstructuredGrid>
    <Piece NumberOfPoints="13" NumberOfCells="11">
      <PointData>
        <DataArray type="Float64" Name="Disp" NumberOfComponents="3" format="ascii" RangeMin="0" RangeMax="0.06966826458975071">
          0 0 0 0 0 0
          0.0011295293052724505 -0.0021933858391843786 0 -0.00128933975323254 -0.002146630726180611 0
          0.002016243818334387 -0.009701056822452994 0 -0.002722925432393875 -0.009496894560534066 0
          0.0022228580522733105 -0.021094122447840695 0 -0.004188592394388892 -0.020685976986504418 0
          0.0018341151910212627 -0.035418441626871536 0 -0.005833338451113912 -0.03483390154669232 0
          0.0009321283766838823 -0.051835586337173854 0 -0.007613481828647761 -0.051102723618547015 0
          -0.00037195119333924444 -0.06966727167944275 0
          <InformationKey name="L2_NORM_RANGE" location="vtkDataArray" length="2">
            <Value index="0">
              0
            </Value>
            <Value index="1">
              0.06966826459
            </Value>
          </InformationKey>
        </DataArray>
        <DataArray type="Float64" Name="Nodal Stress" NumberOfComponents="6" format="ascii" RangeMin="21820.86244095511" RangeMax="130657.86934282532">
          125801.71788177404 -2067.46887523931 0 -35229.70581272662 0 0
          -66620.65104643258 -10128.116549023254 0 -674.9380279448877 0 0
          89754.82944486776 6073.426759463855 0 -14226.844857392656 0 0
          -82359.95688389492 -2227.3922679710463 0 6052.974824135837 0 0
          68607.71054296577 6945.610199064352 0 -18441.796352707563 0 0
          -71469.09199769014 -3474.1259700648197 0 6284.737528916987 0 0
          56562.232923772615 7429.267100197808 0 -16847.182770529125 0 0
          -57132.97429931401 -2309.059484932943 0 6894.134555408689 0 0
          41953.03558953151 7160.923475330749 0 -15059.547689871852 0 0
          -43999.74586115935 -1765.7354505331805 0 5769.293270882912 0 0
          29783.353992427015 6352.933166475398 0 -12191.977551808295 0 0
          -31598.412171367047 -926.7464901712875 0 4284.234791154227 0 0
          19113.768870805725 5136.4415277107955 0 -9188.62588491399 0 0
          <InformationKey name="L2_NORM_RANGE" location="vtkDataArray" length="2">
            <Value index="0">
              21820.862441
            </Value>
            <Value index="1">
              130657.86934
            </Value>
          </InformationKey>
        </DataArray>
        <DataArray type="Float64" Name="Nodal Strain" NumberOfComponents="6" format="ascii" RangeMin="0" RangeMax="0">
          0 0 0 0 0 0
          0 0 0 0 0 0
          0 0 0 0 0 0
          0 0 0 0 0 0
          0 0 0 0 0 0
          0 0 0 0 0 0
          0 0 0 0 0 0
          0 0 0 0 0 0
          0 0 0 0 0 0
          0 0 0 0 0 0
          0 0 0 0 0 0
          0 0 0 0 0 0
          0 0 0 0 0 0
          <InformationKey name="L2_NORM_RANGE" location="vtkDataArray" length="2">
            <Value index="0">
              0
            </Value>
            <Value index="1">
              0
            </Value>
          </InformationKey>
        </DataArray>
        <DataArray type="Float64" Name="Sld_traction" NumberOfComponents="3" format="ascii" RangeMin="5923.382915916801" RangeMax="60114.74440796989">
          -57799.46437250066 16522.84519952824 0 21083.972869727328 17357.64404965952 0
          -23708.078575170195 15797.652064390242 0 -15394.60173651187 12489.440546766986 0
          -21049.89440566405 12942.169772572928 0 -11618.566327596129 10400.808150786204 0
          -18089.506670414292 12214.055641922998 0 -8691.609020123002 8361.200151411615 0
          -15401.550246000696 10629.21176963672 0 -6135.830386961908 6297.393248068309 0
          -12512.99799867257 8781.205721610022 0 -4089.477926135458 4285.164577962655 0
          -9725.08535577613 6709.7548241794875 0
          <InformationKey name="L2_NORM_RANGE" location="vtkDataArray" length="2">
            <Value index="0">
              5923.3829159
            </Value>
            <Value index="1">
              60114.744408
            </Value>
          </InformationKey>
        </DataArray>
        <DataArray type="Float64" Name="Velocity" NumberOfComponents="3" format="ascii" RangeMin="0" RangeMax="5.247444712168667">
          0 0 0 0 0 0
          -0.11173294716312698 0.23344997727058314 0 0.13448569399701216 0.22460666169043497 0
          -0.15285776870168521 0.9749349434481749 0 0.28723677328792663 0.9354164418809718 0
          -0.08514561154293365 1.981624856977712 0 0.44187509557881643 1.913055921254248 0
          0.06238451237478404 3.089211209694387 0 0.6129041067088346 3.0035404059271436 0
          0.2536101112834688 4.189525867269008 0 0.7870895953806043 4.096346093615317 0
          0.4599355788776893 5.227249302505989 0
          <InformationKey name="L2_NORM_RANGE" location="vtkDataArray" length="2">
            <Value index="0">
              0
            </Value>
            <Value index="1">
              5.2474447122
            </Value>
          </InformationKey>
        </DataArray>
        <DataArray type="Float64" Name="Acceleration" NumberOfComponents="3" format="ascii" RangeMin="0" RangeMax="759.2106000484666">
          0 0 0 0 0 0
          -17.305396708433364 36.7014872486543 0 22.511803562087607 36.363464418089734 0
          -29.68606112381576 155.79613214922028 0 39.76987920217198 153.4378244257532 0
          -27.078238024035727 309.75727129595543 0 52.41777312272825 305.20653575459437 0
          -15.752888121310207 473.2885533802473 0 63.70826433750517 467.1748633219395 0
          1.568950476838836 626.9190934146754 0 73.05356883794047 620.2230791209513 0
          20.74382408275801 758.9271565758972 0
          <InformationKey name="L2_NORM_RANGE" location="vtkDataArray" length="2">
            <Value index="0">
              0
            </Value>
            <Value index="1">
              759.21060005
            </Value>
          </InformationKey>
        </DataArray>
        <DataArray type="Float64" Name="Sigma" NumberOfComponents="6" format="ascii" RangeMin="43080.68908357751" RangeMax="190672.67859918778">
          125753.0281842626 -125753.02818426459 0 -68763.52353657257 0 0
          -121888.62994149048 121888.62994149019 0 22201.56808630063 0 0
          126120.94708698972 -126120.94708698985 0 -25593.34426406197 0 0
          -119363.10063963954 119363.10063963875 0 26896.716272096706 0 0
          98374.35773146099 -98374.3577314603 0 -45286.923231347064 0 0
          -95212.73503495962 95212.73503495974 0 31809.74610261164 0 0
          79714.17479071161 -79714.17479071218 0 -40519.191913229224 0 0
          -75874.13459847399 75874.13459847671 0 30152.80568810677 0 0
          58551.3277051975 -58551.32770519798 0 -36918.088809367466 0 0
          -56358.04858232208 56358.048582320276 0 25495.2514415662 0 0
          41191.46444428042 -41191.46444427985 0 -29487.58656783128 0 0
          -39595.87196721317 39595.871967216284 0 19304.536774914974 0 0
          26286.478494299823 -26286.478494300947 0 -21771.262449689064 0 0
          <InformationKey name="L2_NORM_RANGE" location="vtkDataArray" length="2">
            <Value index="0">
              43080.689084
            </Value>
            <Value index="1">
              190672.6786
            </Value>
          </InformationKey>
        </DataArray>
        <DataArray type="Float64" Name="Press" format="ascii" RangeMin="-150765.348717356" RangeMax="148781.61812521875">
          124726.11430260442 -150765.348717356 148781.61812521875 -129282.70350637267 113481.28528557638 -109729.32678885403
          98149.889246766 -87978.15807484066 74919.51563142773 -66808.66161131213 55369.65615754318 -47238.03129255355
          37144.549188466364
        </DataArray>
        <DataArray type="Float64" Name="Dev strain" NumberOfComponents="6" format="ascii" RangeMin="0" RangeMax="0">
          0 0 0 0 0 0
          0 0 0 0 0 0
          0 0 0 0 0 0
          0 0 0 0 0 0
          0 0 0 0 0 0
          0 0 0 0 0 0
          0 0 0 0 0 0
          0 0 0 0 0 0
          0 0 0 0 0 0
          0 0 0 0 0 0
          0 0 0 0 0 0
          0 0 0 0 0 0
          0 0 0 0 0 0
          <InformationKey name="L2_NORM_RANGE" location="vtkDataArray" length="2">
            <Value index="0">
              0
            </Value>
            <Value index="1">
              0
            </Value>
          </InformationKey>
        </DataArray>
        <DataArray type="Float64" Name="J2 Stresses" format="ascii" RangeMin="809475918.7946267" RangeMax="16995929639.803385">
          16995929639.803385 14980065515.386234 16070248111.77398 14428408130.86404 10190240613.017876 9318429899.615593
          6764800890.889444 5984182223.783737 3768994296.3755426 3338731601.5244446 1914116183.4632306 1660999361.8675723
          809475918.7946267
        </DataArray>
      </PointData>
      <CellData>
        <DataArray type="UInt8" Name="vtkGhostType" format="ascii" RangeMin="0" RangeMax="0">
          0 0 0 0 0 0
          0 0 0 0 0
        </DataArray>
        <DataArray type="Float64" Name="Gauss Stress" NumberOfComponents="6" format="ascii" RangeMin="27235.11154545502" RangeMax="87642.04520897959">
          -82132.40586421677 -5378.550201456945 0 7834.980031445126 0 0
          84242.57634674301 -2414.320539765693 0 -24051.766571444634 0 0
          -80577.40765092951 -3109.7556888373756 0 4473.179714453763 0 0
          79370.8013610779 9282.665241870352 0 -14661.183741104114 0 0
          -63643.430153216905 -2728.3002580681386 0 7147.786625829733 0 0
          61592.548410233794 6342.016752091876 0 -17998.78968065489 0 0
          -51182.71984344122 -2062.1495263753527 0 6243.322773435173 0 0
          49160.871566929425 7566.62630197321 0 -15761.491678163311 0 0
          -37813.16428385912 -1304.8602136885993 0 5104.067216216635 0 0
          35621.751248271554 6698.58887016707 0 -13636.807978544182 0 0
          24386.08167494103 5798.034360697158 0 -10651.43741420179 0 0
          <InformationKey name="L2_NORM_RANGE" location="vtkDataArray" length="2">
            <Value index="0">
              27235.111545
            </Value>
            <Value index="1">
              87642.045209
            </Value>
          </InformationKey>
        </DataArray>
        <DataArray type="Float64" Name="Gauss Strain" NumberOfComponents="6" format="ascii" RangeMin="0" RangeMax="0">
          0 0 0 0 0 0
          0 0 0 0 0 0
          0 0 0 0 0 0
          0 0 0 0 0 0
          0 0 0 0 0 0
          0 0 0 0 0 0
          0 0 0 0 0 0
          0 0 0 0 0 0
          0 0 0 0 0 0
          0 0 0 0 0 0
          0 0 0 0 0 0
          <InformationKey name="L2_NORM_RANGE" location="vtkDataArray" length="2">
            <Value index="0">
              0
            </Value>
            <Value index="1">
              0
            </Value>
          </InformationKey>
        </DataArray>
      </CellData>
      <Points>
        <DataArray type="Float32" Name="Points" NumberOfComponents="3" format="ascii" RangeMin="0" RangeMax="0.6020797527609908">
          0 0.05000000074505806 0 0 0 0
          0.10000000149011612 0.05000000074505806 0 0.10000000149011612 0 0
          0.20000000298023224 0.05000000074505806 0 0.20000000298023224 0 0
          0.30000001192092896 0.05000000074505806 0 0.30000001192092896 0 0
          0.4000000059604645 0.05000000074505806 0 0.4000000059604645 0 0
          0.5 0.05000000074505806 0 0.5 0 0
          0.6000000238418579 0.05000000074505806 0
          <InformationKey name="L2_NORM_RANGE" location="vtkDataArray" length="2">
            <Value index="0">
              0
            </Value>
            <Value index="1">
              0.60207975276
            </Value>
          </InformationKey>
        </DataArray>
      </Points>
      <Cells>
        <DataArray type="Int64" Name="connectivity" format="ascii" RangeMin="0" RangeMax="12">
          3 2 1 2 0 1
          5 4 3 4 2 3
          7 6 5 6 4 5
          9 8 7 8 6 7
          11 10 9 10 8 9
          12 10 11
        </DataArray>
        <DataArray type="Int64" Name="offsets" format="ascii" RangeMin="3" RangeMax="33">
          3 6 9 12 15 18
          21 24 27 30 33
        </DataArray>
        <DataArray type="UInt8" Name="types" format="ascii" RangeMin="5" RangeMax="5">
          5 5 5 5 5 5
          5 5 5 5 5
        </DataArray>
      </Cells>
    </Piece>
  </UnstructuredGrid>
</VTKFile>
