<?xml version="1.0"?>
<VTKFile type="UnstructuredGrid" version="0.1" byte_order="LittleEndian" header_type="UInt32" compressor="vtkZLibDataCompressor">
  <UnstructuredGrid>
    <Piece NumberOfPoints="13" NumberOfCells="11">
      <PointData>
        <DataArray type="Float64" Name="Disp" NumberOfComponents="3" format="ascii" RangeMin="0" RangeMax="0.011547652951271407">
          0 0 0 0 0 0
          -0.00004581717806874681 0.000015319197793021826 0 0.000003517335487668361 0.00001278353653211323 0
          -0.0001482446303590219 0.0002823524313608193 0 0.00016842533133547069 0.0002844421662268883 0
          -0.00039665451609530254 0.0013654459155843354 0 0.00041160373844327416 0.0013718500636935162 0
          -0.0007011149212868751 0.003527726595830099 0 0.0006833431645879987 0.003547989436335741 0
          -0.001056181410394347 0.006898512120536597 0 0.000935347092360958 0.0069402545315554055 0
          -0.0014341632942781388 0.011458248746137104 0
          <InformationKey name="L2_NORM_RANGE" location="vtkDataArray" length="2">
            <Value index="0">
              0
            </Value>
            <Value index="1">
              0.011547652951
            </Value>
          </InformationKey>
        </DataArray>
        <DataArray type="Float64" Name="Nodal Stress" NumberOfComponents="6" format="ascii" RangeMin="7690.030287042936" RangeMax="18005.446243169077">
          -7881.360365399751 1654.342950931066 0 -282.20906687883667 0 0
          6837.4332892038265 2093.13914435213 0 -2829.2826570892194 0 0
          -9635.423002802618 50.52956536969562 0 -1317.0196493985397 0 0
          9937.40699002143 984.2764995332001 0 -2048.223040250536 0 0
          -11993.998955022158 -45.55241491727216 0 -933.0124924547227 0 0
          13916.49483183002 1193.3578138353428 0 -2075.987373867754 0 0
          -15093.024125541613 -415.96640792312536 0 -264.44573980971427 0 0
          16768.784916970002 970.7247758987713 0 -1726.094046793356 0 0
          -16245.301299423592 -716.5071007095169 0 572.4279715097149 0 0
          17958.56249477506 790.2083936765248 0 -1030.3874181457857 0 0
          -15419.399643608915 -911.8988043688626 0 1381.5313751416963 0 0
          17028.514859940016 486.45164672000806 0 -164.1953847572879 0 0
          -12806.994533915866 -970.7572855130388 0 2041.996680382697 0 0
          <InformationKey name="L2_NORM_RANGE" location="vtkDataArray" length="2">
            <Value index="0">
              7690.030287
            </Value>
            <Value index="1">
              18005.446243
            </Value>
          </InformationKey>
        </DataArray>
        <DataArray type="Float64" Name="Nodal Strain" NumberOfComponents="6" format="ascii" RangeMin="0" RangeMax="0">
          0 0 0 0 0 0
          0 0 0 0 0 0
          0 0 0 0 0 0
          0 0 0 0 0 0
          0 0 0 0 0 0
          0 0 0 0 0 0
          0 0 0 0 0 0
          0 0 0 0 0 0
          0 0 0 0 0 0
          0 0 0 0 0 0
          0 0 0 0 0 0
          0 0 0 0 0 0
          0 0 0 0 0 0
          <InformationKey name="L2_NORM_RANGE" location="vtkDataArray" length="2">
            <Value index="0">
              0
            </Value>
            <Value index="1">
              0
            </Value>
          </InformationKey>
        </DataArray>
        <DataArray type="Float64" Name="Sld_traction" NumberOfComponents="3" format="ascii" RangeMin="1217.3916007860712" RangeMax="6366.264856736179">
          1199.6937067547826 610.4320971832095 0 -915.4414537418551 -1344.9165807284435 0
          169.74632060736965 -1205.4992726272103 0 3188.394799741317 -2371.7630591090083 0
          420.5752634137579 -1286.8061074521293 0 3723.456633008717 -2502.717664470258 0
          2166.036842681531 -1909.6295402685346 0 4387.612427574187 -2601.549481352698 0
          3932.3946117809774 -2391.4208793847565 0 4460.35776437069 -2463.0891610357207 0
          5267.529683093371 -2586.651107918465 0 3957.9147534707677 -2009.7955178561417 0
          5871.727512604635 -2460.110616178857 0
          <InformationKey name="L2_NORM_RANGE" location="vtkDataArray" length="2">
            <Value index="0">
              1217.3916008
            </Value>
            <Value index="1">
              6366.2648567
            </Value>
          </InformationKey>
        </DataArray>
        <DataArray type="Float64" Name="Velocity" NumberOfComponents="3" format="ascii" RangeMin="0" RangeMax="7.5016384652452">
          0 0 0 0 0 0
          -0.10490586493666662 0.19654275109138597 0 0.1203639240996124 0.19445784078210776 0
          -0.23070353481128406 0.9058053811721194 0 0.2317889495209946 0.9069060534501301 0
          -0.3406128118148915 2.030656950758705 0 0.31760085932581555 2.0385305457397354 0
          -0.462791512951678 3.5293413252460355 0 0.373210392819527 3.5506072435454876 0
          -0.6039172117940673 5.3571684008318154 0 0.38499422217336915 5.396149427582991 0
          -0.7684309440968852 7.462177533897243 0
          <InformationKey name="L2_NORM_RANGE" location="vtkDataArray" length="2">
            <Value index="0">
              0
            </Value>
            <Value index="1">
              7.5016384652
            </Value>
          </InformationKey>
        </DataArray>
        <DataArray type="Float64" Name="Acceleration" NumberOfComponents="3" format="ascii" RangeMin="0" RangeMax="913.1526052874241">
          0 0 0 0 0 0
          -42.96725696389342 104.9957070306564 0 69.65397882823598 107.28019819657933 0
          -81.5947347171001 422.9079580571067 0 81.33129332149474 427.5097263556943 0
          -71.97360638203838 720.800118671988 0 49.72468181276446 731.0066444291106 0
          -57.24457657096673 897.585455171673 0 -12.98990814207798 913.0602076696096 0
          -39.13842981810399 886.7585097665769 0 -97.31326702384229 905.633023406931 0
          -24.633863081675827 661.7676888057631 0
          <InformationKey name="L2_NORM_RANGE" location="vtkDataArray" length="2">
            <Value index="0">
              0
            </Value>
            <Value index="1">
              913.15260529
            </Value>
          </InformationKey>
        </DataArray>
        <DataArray type="Float64" Name="Sigma" NumberOfComponents="6" format="ascii" RangeMin="11102.425487796863" RangeMax="35687.13023804109">
          -7672.630619425694 7672.630619424909 0 2350.6021500449674 0 0
          9877.398096617595 -9877.398096617713 0 -5437.623246820171 0 0
          -13603.543490428885 13603.543490428481 0 -392.4173207851108 0 0
          14341.310835992344 -14341.310835992363 0 -2448.2298056428435 0 0
          -17273.685695617296 17273.685695616638 0 -25.74457210180011 0 0
          19506.72152732056 -19506.721527320387 0 -3611.7838672317694 0 0
          -22221.2343027498 22221.234302749654 0 1479.2467554919501 0 0
          23828.41741253407 -23828.41741253357 0 -3688.6308304163963 0 0
          -24277.00635152428 24277.006351524487 0 2595.067273241325 0 0
          25139.304045802586 -25139.3040458015 0 -3098.7172849985755 0 0
          -23409.113719508703 23409.1137195088 0 3417.1817518211838 0 0
          23528.344723029397 -23528.344723028516 0 -2084.829680652074 0 0
          -19832.8810980303 19832.881098028924 0 3870.1496155423156 0 0
          <InformationKey name="L2_NORM_RANGE" location="vtkDataArray" length="2">
            <Value index="0">
              11102.425488
            </Value>
            <Value index="1">
              35687.130238
            </Value>
          </InformationKey>
        </DataArray>
        <DataArray type="Float64" Name="Press" format="ascii" RangeMin="-26623.005799753773" RangeMax="27587.419984526983">
          -5405.28523522846 14115.123604786962 -15758.58796326636 16178.382615896557 -18156.680233516112 22128.20275872587
          -24240.886851242372 26377.27895952063 -26623.005799753773 27587.419984526983 -25924.122733227883 25476.66882262413
          -22150.402929917665
        </DataArray>
        <DataArray type="Float64" Name="Dev strain" NumberOfComponents="6" format="ascii" RangeMin="0" RangeMax="0">
          0 0 0 0 0 0
          0 0 0 0 0 0
          0 0 0 0 0 0
          0 0 0 0 0 0
          0 0 0 0 0 0
          0 0 0 0 0 0
          0 0 0 0 0 0
          0 0 0 0 0 0
          0 0 0 0 0 0
          0 0 0 0 0 0
          0 0 0 0 0 0
          0 0 0 0 0 0
          0 0 0 0 0 0
          <InformationKey name="L2_NORM_RANGE" location="vtkDataArray" length="2">
            <Value index="0">
              0
            </Value>
            <Value index="1">
              0
            </Value>
          </InformationKey>
        </DataArray>
        <DataArray type="Float64" Name="J2 Stresses" format="ascii" RangeMin="60250593.239091694" RangeMax="634385120.1103662">
          60250593.239091694 104954929.80265585 185094893.3343976 207171653.7898612 298380383.2067102 383773430.4203268
          494330296.6786095 571194975.7367196 591056630.9301171 634385120.1103662 550905887.9141377 554669634.1050165
          397087687.16025084
        </DataArray>
      </PointData>
      <CellData>
        <DataArray type="UInt8" Name="vtkGhostType" format="ascii" RangeMin="0" RangeMax="0">
          0 0 0 0 0 0
          0 0 0 0 0
        </DataArray>
        <DataArray type="Float64" Name="Gauss Stress" NumberOfComponents="6" format="ascii" RangeMin="6423.398395891477" RangeMax="17487.337478338843">
          8383.361233199406 1306.5842717451887 0 -2759.4234577493753 0 0
          -6149.175202314952 1450.0088065092716 0 -1159.812805853438 0 0
          12241.417269600643 1191.8528244700672 0 -2028.5860816588047 0 0
          -11424.267976979922 -400.32241027771965 0 -955.4638995099178 0 0
          15126.166501369658 1050.2300766332762 0 -1940.3893140520718 0 0
          -13419.187599026394 -93.72195166223787 0 -719.4272279472061 0 0
          17344.13608370208 883.6593458277554 0 -1397.4269473912157 0 0
          -15718.812311071855 -605.596816578315 0 128.56106610562688 0 0
          17466.167041082175 627.1436748673401 0 -588.788404609822 0 0
          -15835.50819122836 -804.2975077409626 0 971.1772466879784 0 0
          -14103.835645010344 -961.402248670736 0 1734.167228903809 0 0
          <InformationKey name="L2_NORM_RANGE" location="vtkDataArray" length="2">
            <Value index="0">
              6423.3983959
            </Value>
            <Value index="1">
              17487.337478
            </Value>
          </InformationKey>
        </DataArray>
        <DataArray type="Float64" Name="Gauss Strain" NumberOfComponents="6" format="ascii" RangeMin="0" RangeMax="0">
          0 0 0 0 0 0
          0 0 0 0 0 0
          0 0 0 0 0 0
          0 0 0 0 0 0
          0 0 0 0 0 0
          0 0 0 0 0 0
          0 0 0 0 0 0
          0 0 0 0 0 0
          0 0 0 0 0 0
          0 0 0 0 0 0
          0 0 0 0 0 0
          <InformationKey name="L2_NORM_RANGE" location="vtkDataArray" length="2">
            <Value index="0">
              0
            </Value>
            <Value index="1">
              0
            </Value>
          </InformationKey>
        </DataArray>
      </CellData>
      <Points>
        <DataArray type="Float32" Name="Points" NumberOfComponents="3" format="ascii" RangeMin="0" RangeMax="0.6020797527609908">
          0 0.05000000074505806 0 0 0 0
          0.10000000149011612 0.05000000074505806 0 0.10000000149011612 0 0
          0.20000000298023224 0.05000000074505806 0 0.20000000298023224 0 0
          0.30000001192092896 0.05000000074505806 0 0.30000001192092896 0 0
          0.4000000059604645 0.05000000074505806 0 0.4000000059604645 0 0
          0.5 0.05000000074505806 0 0.5 0 0
          0.6000000238418579 0.05000000074505806 0
          <InformationKey name="L2_NORM_RANGE" location="vtkDataArray" length="2">
            <Value index="0">
              0
            </Value>
            <Value index="1">
              0.60207975276
            </Value>
          </InformationKey>
        </DataArray>
      </Points>
      <Cells>
        <DataArray type="Int64" Name="connectivity" format="ascii" RangeMin="0" RangeMax="12">
          3 2 1 2 0 1
          5 4 3 4 2 3
          7 6 5 6 4 5
          9 8 7 8 6 7
          11 10 9 10 8 9
          12 10 11
        </DataArray>
        <DataArray type="Int64" Name="offsets" format="ascii" RangeMin="3" RangeMax="33">
          3 6 9 12 15 18
          21 24 27 30 33
        </DataArray>
        <DataArray type="UInt8" Name="types" format="ascii" RangeMin="5" RangeMax="5">
          5 5 5 5 5 5
          5 5 5 5 5
        </DataArray>
      </Cells>
    </Piece>
  </UnstructuredGrid>
</VTKFile>
