<?xml version="1.0"?>
<VTKFile type="UnstructuredGrid" version="0.1" byte_order="LittleEndian" header_type="UInt32" compressor="vtkZLibDataCompressor">
  <UnstructuredGrid>
    <Piece NumberOfPoints="13" NumberOfCells="11">
      <PointData>
        <DataArray type="Float64" Name="Disp" NumberOfComponents="3" format="ascii" RangeMin="0.04276412288788054" RangeMax="0.15893674578849107">
          -0.00921430479398598 -0.060374610546025366 0 -0.0015341516476721048 -0.08047944779475288 0
          -0.011222162775309207 -0.07953236057971227 0 -0.0034111314947256246 -0.1000367118025301 0
          -0.013198344808587123 -0.09906872740631677 0 -0.005353194250643084 -0.11964216254507083 0
          -0.015137271790696483 -0.1186746043947446 0 -0.007298811249602146 -0.13918444449707407 0
          -0.01705164604999112 -0.1382233337825993 0 -0.009226256545571548 -0.15866872833671647 0
          -0.018964783348237244 -0.15771084348213033 0 0.0001652671574218414 -0.061261460405067594 0
          -0.007218115868487279 -0.04215055171262697 0
          <InformationKey name="L2_NORM_RANGE" location="vtkDataArray" length="2">
            <Value index="0">
              0.042764122888
            </Value>
            <Value index="1">
              0.15893674579
            </Value>
          </InformationKey>
        </DataArray>
        <DataArray type="Float64" Name="Nodal Stress" NumberOfComponents="6" format="ascii" RangeMin="192.7346572765737" RangeMax="40164.348862504434">
          -24079.544476478553 39.63744028029836 0 2704.5792039750067 0 0
          11874.813530716723 4580.138358383889 0 -7472.033294935394 0 0
          -12718.657131509179 329.2074475315472 0 1085.3868146487773 0 0
          5377.755155735952 2623.742355017954 0 -4057.0705812100623 0 0
          -5422.370606134066 359.91039288742724 0 216.54294827802363 0 0
          1977.614096477283 1211.134627750337 0 -1811.9388450213705 0 0
          -1594.6675245889392 195.5235214210446 0 -76.96741789040188 0 0
          584.668107738219 375.40820568635445 0 -578.4583554099936 0 0
          -229.6039773366537 26.094381650378356 0 -60.99238236094673 0 0
          100.84759073795381 77.62231517401169 0 -144.74525119980584 0 0
          234.77567537852897 -6.169516261411014 0 51.903405902537756 0 0
          22589.10690854728 6848.115699355096 0 -11892.88920119995 0 0
          -39878.70616862767 -745.9392496945824 0 4723.05923115343 0 0
          <InformationKey name="L2_NORM_RANGE" location="vtkDataArray" length="2">
            <Value index="0">
              192.73465728
            </Value>
            <Value index="1">
              40164.348863
            </Value>
          </InformationKey>
        </DataArray>
        <DataArray type="Float64" Name="Nodal Strain" NumberOfComponents="6" format="ascii" RangeMin="0" RangeMax="0">
          0 0 0 0 0 0
          0 0 0 0 0 0
          0 0 0 0 0 0
          0 0 0 0 0 0
          0 0 0 0 0 0
          0 0 0 0 0 0
          0 0 0 0 0 0
          0 0 0 0 0 0
          0 0 0 0 0 0
          0 0 0 0 0 0
          0 0 0 0 0 0
          0 0 0 0 0 0
          0 0 0 0 0 0
          <InformationKey name="L2_NORM_RANGE" location="vtkDataArray" length="2">
            <Value index="0">
              0
            </Value>
            <Value index="1">
              0
            </Value>
          </InformationKey>
        </DataArray>
        <DataArray type="Float64" Name="Sld_traction" NumberOfComponents="3" format="ascii" RangeMin="32.31809946585554" RangeMax="15362.076045650787">
          -2581.964840597935 2800.4870197943405 0 -8389.29334649817 5553.967590274247 0
          -1180.9242664266083 1335.2483549290325 0 -4781.39093622586 3109.5084711458935 0
          -404.12272203964295 497.9022999469979 0 -2219.474403425713 1411.4583543883161 0
          -74.40917236883851 155.89261970259875 0 -729.5855522213532 459.048598340704 0
          -35.96456276602367 75.35586012520218 0 -137.78960916359608 80.47402131632664 0
          24.816264309356182 20.702960629173464 0 -12734.977565918904 8591.491536857842 0
          -4659.68350870615 5032.650066605461 0
          <InformationKey name="L2_NORM_RANGE" location="vtkDataArray" length="2">
            <Value index="0">
              32.318099466
            </Value>
            <Value index="1">
              15362.076046
            </Value>
          </InformationKey>
        </DataArray>
        <DataArray type="Float64" Name="Velocity" NumberOfComponents="3" format="ascii" RangeMin="0.19775142216170724" RangeMax="9.054757917794246">
          0.42846005034056667 0.8291139327088572 0 0.0766561842580209 2.1142248776174597 0
          0.7477972046388004 1.9814423048252223 0 0.30431090990312315 3.6299640160410434 0
          1.1139453634495329 3.468918019965514 0 0.6040331159140884 5.360873752671679 0
          1.494365233280197 5.1846926292271505 0 0.9536215891573079 7.180306647517455 0
          1.8543849261946956 7.003088515654241 0 1.3194977797722078 8.957937019745998 0
          2.2011776047815204 8.783134867578084 0 -0.06052318692392181 0.9232733710224892 0
          0.18308874585224144 0.07472707748354068 0
          <InformationKey name="L2_NORM_RANGE" location="vtkDataArray" length="2">
            <Value index="0">
              0.19775142216
            </Value>
            <Value index="1">
              9.0547579178
            </Value>
          </InformationKey>
        </DataArray>
        <DataArray type="Float64" Name="Acceleration" NumberOfComponents="3" format="ascii" RangeMin="243.76797960107342" RangeMax="1668.2838648402353">
          202.4411077586101 1655.9555101438382 0 194.93815745633697 1598.793255142402 0
          118.64954279780977 1625.1357853515656 0 152.0872326461813 1337.7900755552691 0
          -11.403597920645552 1389.8750576077437 0 51.144061604953095 935.7931561401201 0
          -166.1124219673111 1004.1682676086639 0 -90.56882790277086 474.1273472099856 0
          -315.164808146852 544.8433371149295 0 -240.13391761039384 41.93482433340978 0
          -451.9713760891209 110.4497336820059 0 172.08494912427852 1658.278723064439 0
          232.57884827350063 1467.1575218473517 0
          <InformationKey name="L2_NORM_RANGE" location="vtkDataArray" length="2">
            <Value index="0">
              243.7679796
            </Value>
            <Value index="1">
              1668.2838648
            </Value>
          </InformationKey>
        </DataArray>
        <DataArray type="Float64" Name="Sigma" NumberOfComponents="6" format="ascii" RangeMin="206.83943683550922" RangeMax="73354.47521076737">
          -28899.8630518536 28899.863051851928 0 14728.21155555067 0 0
          15606.57848858366 -15606.57848858385 0 -16417.969471500175 0 0
          -14668.80181150024 14668.801811496944 0 7466.26743838798 0 0
          6688.905468376777 -6688.905468375068 0 -8289.98129076535 0 0
          -6002.139153024804 6002.139153027473 0 2938.4608908630057 0 0
          2114.948041250845 -2114.948041249501 0 -3326.457529716217 0 0
          -1623.7134800623774 1623.713480051775 0 736.2604975416089 0 0
          472.37565788268506 -472.3756578933921 0 -844.0213950112752 0 0
          -170.90319889974222 170.9031989070309 0 60.73783180613516 0 0
          -104.01648751330508 104.01648752357289 0 -145.40871115267979 0 0
          378.4050348459216 -378.40503485578404 0 146.14225147834782 0 0
          30501.84493444206 -30501.844934440833 0 -27199.274260963477 0 0
          -49025.02006208338 49025.020062084266 0 23957.75134004947 0 0
          <InformationKey name="L2_NORM_RANGE" location="vtkDataArray" length="2">
            <Value index="0">
              206.83943684
            </Value>
            <Value index="1">
              73354.475211
            </Value>
          </InformationKey>
        </DataArray>
        <DataArray type="Float64" Name="Press" format="ascii" RangeMin="-58503.23241440289" RangeMax="44570.60721452871">
          -34405.952554336545 24386.33731578382 -17422.982024375277 11396.785916657844 -7006.294433030075 4084.413327641602
          -1881.0223897461635 1004.20483022418 -278.8558615176133 -28.742756988958604 382.40546837094604 44570.60721452871
          -58503.23241440289
        </DataArray>
        <DataArray type="Float64" Name="Dev strain" NumberOfComponents="6" format="ascii" RangeMin="0" RangeMax="0">
          0 0 0 0 0 0
          0 0 0 0 0 0
          0 0 0 0 0 0
          0 0 0 0 0 0
          0 0 0 0 0 0
          0 0 0 0 0 0
          0 0 0 0 0 0
          0 0 0 0 0 0
          0 0 0 0 0 0
          0 0 0 0 0 0
          0 0 0 0 0 0
          0 0 0 0 0 0
          0 0 0 0 0 0
          <InformationKey name="L2_NORM_RANGE" location="vtkDataArray" length="2">
            <Value index="0">
              0
            </Value>
            <Value index="1">
              0
            </Value>
          </InformationKey>
        </DataArray>
        <DataArray type="Float64" Name="J2 Stresses" format="ascii" RangeMin="16105.352995444442" RangeMax="2546946054.405632">
          889432138.3221085 310952722.51210314 229110033.9504075 61922403.815179214 38184312.51407218 7239335.141439373
          2771965.345379115 401231.79097435204 30130.174448538106 16105.352995444442 148529.75981726532 1115312674.485489
          2546946054.405632
        </DataArray>
      </PointData>
      <CellData>
        <DataArray type="UInt8" Name="vtkGhostType" format="ascii" RangeMin="0" RangeMax="1">
          1 1 0 0 0 0
          0 0 0 0 0
        </DataArray>
        <DataArray type="Float64" Name="Gauss Stress" NumberOfComponents="6" format="ascii" RangeMin="63.586593490150015" RangeMax="32150.806650907794">
          -31920.538644568554 -305.1798582384572 0 3828.896211545557 0 0
          17253.184115716034 5780.810534934411 0 -9629.67739230433 0 0
          -18468.227879232727 173.16303727900754 0 1925.503174146159 0 0
          -9004.842012298592 316.5149851339461 0 704.9156794952121 0 0
          8662.274451175532 3577.819687534805 0 -5747.227774625848 0 0
          -3437.9360289903234 236.00036556503704 0 116.08795289613295 0 0
          3758.873055957398 1891.0634848907584 0 -2892.659309872854 0 0
          -825.9714807063438 55.522533341938924 0 -15.674355221177052 0 0
          1390.4019957302569 747.9951830095001 0 -1144.7394757286274 0 0
          59.43073276574961 -9.559499520268687 0 20.49045737726775 0 0
          298.02072772908195 166.38341341827325 0 -309.5640914526066 0 0
          <InformationKey name="L2_NORM_RANGE" location="vtkDataArray" length="2">
            <Value index="0">
              63.58659349
            </Value>
            <Value index="1">
              32150.806651
            </Value>
          </InformationKey>
        </DataArray>
        <DataArray type="Float64" Name="Gauss Strain" NumberOfComponents="6" format="ascii" RangeMin="0" RangeMax="0">
          0 0 0 0 0 0
          0 0 0 0 0 0
          0 0 0 0 0 0
          0 0 0 0 0 0
          0 0 0 0 0 0
          0 0 0 0 0 0
          0 0 0 0 0 0
          0 0 0 0 0 0
          0 0 0 0 0 0
          0 0 0 0 0 0
          0 0 0 0 0 0
          <InformationKey name="L2_NORM_RANGE" location="vtkDataArray" length="2">
            <Value index="0">
              0
            </Value>
            <Value index="1">
              0
            </Value>
          </InformationKey>
        </DataArray>
      </CellData>
      <Points>
        <DataArray type="Float32" Name="Points" NumberOfComponents="3" format="ascii" RangeMin="0.4000000059604645" RangeMax="1.0012492197622458">
          0.5 0 0 0.6000000238418579 0.05000000074505806 0
          0.6000000238418579 0 0 0.699999988079071 0.05000000074505806 0
          0.699999988079071 0 0 0.800000011920929 0.05000000074505806 0
          0.800000011920929 0 0 0.8999999761581421 0.05000000074505806 0
          0.8999999761581421 0 0 1 0.05000000074505806 0
          1 0 0 0.5 0.05000000074505806 0
          0.4000000059604645 0 0
          <InformationKey name="L2_NORM_RANGE" location="vtkDataArray" length="2">
            <Value index="0">
              0.40000000596
            </Value>
            <Value index="1">
              1.0012492198
            </Value>
          </InformationKey>
        </DataArray>
      </Points>
      <Cells>
        <DataArray type="Int64" Name="connectivity" format="ascii" RangeMin="0" RangeMax="12">
          0 11 12 1 11 0
          2 1 0 4 3 2
          3 1 2 6 5 4
          5 3 4 8 7 6
          7 5 6 10 9 8
          9 7 8
        </DataArray>
        <DataArray type="Int64" Name="offsets" format="ascii" RangeMin="3" RangeMax="33">
          3 6 9 12 15 18
          21 24 27 30 33
        </DataArray>
        <DataArray type="UInt8" Name="types" format="ascii" RangeMin="5" RangeMax="5">
          5 5 5 5 5 5
          5 5 5 5 5
        </DataArray>
      </Cells>
    </Piece>
  </UnstructuredGrid>
</VTKFile>
