<?xml version="1.0"?>
<VTKFile type="UnstructuredGrid" version="0.1" byte_order="LittleEndian" header_type="UInt32" compressor="vtkZLibDataCompressor">
  <UnstructuredGrid>
    <Piece NumberOfPoints="13" NumberOfCells="11">
      <PointData>
        <DataArray type="Float64" Name="Disp" NumberOfComponents="3" format="ascii" RangeMin="0.043137005567696396" RangeMax="0.19071297517983962">
          0.0005050631316745419 0.0640805064047897 0 -0.013778931333901663 0.08596577028683895 0
          -0.0017293283014942573 0.08744541697153915 0 -0.017232005681441648 0.11074591005462547 0
          -0.004556902532841236 0.1123850306286873 0 -0.020753812410291585 0.1364621773247368 0
          -0.007779713087822127 0.13817960448539351 0 -0.024234375540917376 0.16251779431247856 0
          -0.011233872509086978 0.1642397359590869 0 -0.027598767902566147 0.18844763330285375 0
          -0.014674214824225505 0.1901475908899153 0 -0.010537065808550353 0.06284136921522843 0
          0.001992770258788678 0.04309095167251655 0
          <InformationKey name="L2_NORM_RANGE" location="vtkDataArray" length="2">
            <Value index="0">
              0.043137005568
            </Value>
            <Value index="1">
              0.19071297518
            </Value>
          </InformationKey>
        </DataArray>
        <DataArray type="Float64" Name="Nodal Stress" NumberOfComponents="6" format="ascii" RangeMin="2168.2707700107726" RangeMax="41980.1768099548">
          29406.88139730646 1544.9269385479524 0 6753.720085117756 0 0
          -22285.766978492924 -840.925240630002 0 2255.4514694662143 0 0
          19451.50659430588 1318.8624785586971 0 5715.909052994116 0 0
          -14070.72235846344 -342.5821707439996 0 2177.345000924499 0 0
          11494.882893005268 963.6960443627361 0 4309.255149596744 0 0
          -7815.925453605557 -145.25509570761122 0 1832.8439818242923 0 0
          6050.806315717666 779.7438817783752 0 3059.798677044125 0 0
          -3627.1322765070545 -144.98892878167487 0 910.4288064147145 0 0
          2576.9586716512113 244.08497259526598 0 1257.0999277966691 0 0
          -2150.0718925039228 -70.80249795111573 0 271.2489547105935 0 0
          3311.546702570614 1725.5787521153065 0 2097.485438960601 0 0
          -32261.516808642005 -1654.6617952849854 0 2258.906707394333 0 0
          41323.113869506764 1551.3923319220144 0 7233.856990243703 0 0
          <InformationKey name="L2_NORM_RANGE" location="vtkDataArray" length="2">
            <Value index="0">
              2168.27077
            </Value>
            <Value index="1">
              41980.17681
            </Value>
          </InformationKey>
        </DataArray>
        <DataArray type="Float64" Name="Nodal Strain" NumberOfComponents="6" format="ascii" RangeMin="0" RangeMax="0">
          0 0 0 0 0 0
          0 0 0 0 0 0
          0 0 0 0 0 0
          0 0 0 0 0 0
          0 0 0 0 0 0
          0 0 0 0 0 0
          0 0 0 0 0 0
          0 0 0 0 0 0
          0 0 0 0 0 0
          0 0 0 0 0 0
          0 0 0 0 0 0
          0 0 0 0 0 0
          0 0 0 0 0 0
          <InformationKey name="L2_NORM_RANGE" location="vtkDataArray" length="2">
            <Value index="0">
              0
            </Value>
            <Value index="1">
              0
            </Value>
          </InformationKey>
        </DataArray>
        <DataArray type="Float64" Name="Sld_traction" NumberOfComponents="3" format="ascii" RangeMin="208.01999266907944" RangeMax="19941.269261277674">
          7890.224727892265 -1699.4133274522558 0 14797.596019198392 -2640.1580034028802 0
          4765.566676046719 -898.1246476223959 0 10339.245965567554 -1629.617818147697 0
          2138.6821269834054 -456.50929086887027 0 6200.096851741094 -1110.0552674415087 0
          200.59940593831507 -317.245906562397 0 2819.0209977198306 -635.8878165685819 0
          -155.02795742455774 -317.2544726169886 0 128.10102713936462 -174.05084132822617 0
          -17.29084509108315 -207.30013030888338 0 19495.0655246346 -4194.834912244025 0
          11279.41192722392 -2880.8156984057705 0
          <InformationKey name="L2_NORM_RANGE" location="vtkDataArray" length="2">
            <Value index="0">
              208.01999267
            </Value>
            <Value index="1">
              19941.269261
            </Value>
          </InformationKey>
        </DataArray>
        <DataArray type="Float64" Name="Velocity" NumberOfComponents="3" format="ascii" RangeMin="0.10374477450240183" RangeMax="4.879180469504019">
          -0.12179151326029375 0.5373013825604858 0 0.3183440136755147 0.012408869109670206 0
          -0.06328938018401575 -0.0822036044980834 0 0.6313247623946392 -0.8870705999804969 0
          0.1056217841499989 -1.0261765043688413 0 0.9912828897407167 -2.034714507960416 0
          0.3744794363041102 -2.2027797304725283 0 1.3564709098903762 -3.3091381668639883 0
          0.7169966975530198 -3.4836063990385497 0 1.6900243787954565 -4.5771409911719445 0
          1.0645135764565357 -4.746683685503953 0 0.08698318314841647 0.5827846003964154 0
          -0.09138580847939393 0.7996173240894642 0
          <InformationKey name="L2_NORM_RANGE" location="vtkDataArray" length="2">
            <Value index="0">
              0.1037447745
            </Value>
            <Value index="1">
              4.8791804695
            </Value>
          </InformationKey>
        </DataArray>
        <DataArray type="Float64" Name="Acceleration" NumberOfComponents="3" format="ascii" RangeMin="283.2345125520841" RangeMax="1516.5015821520421">
          23.311138108202726 -443.776407272846 0 157.58139383059824 -609.8774862196005 0
          58.56037493096551 -632.2874542608915 0 206.39153982276184 -817.4856410362408 0
          99.37272311427841 -840.2465494329226 0 252.19762659005573 -1037.0079273117008 0
          141.62810343749697 -1058.7571094468294 0 294.4513124580262 -1259.6307504196884 0
          184.1028403925211 -1280.5825388532248 0 334.9766503574683 -1478.8814693317981 0
          225.98534915861273 -1499.5691616712138 0 109.73972067913019 -424.29115369660576 0
          -1.7481632216899925 -283.22911754614324 0
          <InformationKey name="L2_NORM_RANGE" location="vtkDataArray" length="2">
            <Value index="0">
              283.23451255
            </Value>
            <Value index="1">
              1516.5015822
            </Value>
          </InformationKey>
        </DataArray>
        <DataArray type="Float64" Name="Sigma" NumberOfComponents="6" format="ascii" RangeMin="4327.100215130868" RangeMax="81842.35572352931">
          40381.85662337391 -40381.856623379244 0 11454.839295206133 0 0
          -32522.938302711707 32522.938302715425 0 -1840.0404071450916 0 0
          26443.758840755843 -26443.758840753108 0 9243.995119527355 0 0
          -20429.432335037432 20429.432335031488 0 -580.8351412598548 0 0
          15374.323515318634 -15374.323515312806 0 6459.842320611618 0 0
          -11074.293418992142 11074.293418998759 0 13.516056553132719 0 0
          7411.427768899474 -7411.427768906988 0 4820.378932345889 0 0
          -4764.782728083489 4764.782728081148 0 -75.64291444985331 0 0
          3445.14679050898 -3445.1467905037553 0 1453.0868905384227 0 0
          -2943.904789638176 2943.904789659859 0 -1179.2563125753225 0 0
          1335.3469500169924 -1335.346950036273 0 4058.0555889396505 0 0
          -47186.95979162929 47186.95979163188 0 -2786.5764896570336 0 0
          57222.12784526386 -57222.12784526205 0 12224.048433210455 0 0
          <InformationKey name="L2_NORM_RANGE" location="vtkDataArray" length="2">
            <Value index="0">
              4327.1002151
            </Value>
            <Value index="1">
              81842.355724
            </Value>
          </InformationKey>
        </DataArray>
        <DataArray type="Float64" Name="Press" format="ascii" RangeMin="-51994.532941724625" RangeMax="62283.163406547545">
          44727.80118160477 -35630.69064856938 29615.53796678344 -22147.76437453035 17447.503191101074 -12276.030596877707
          9194.041923614974 -5296.278241065859 3497.2966360075243 -3961.7936987336966 5269.373986051919 -51994.532941724625
          62283.163406547545
        </DataArray>
        <DataArray type="Float64" Name="Dev strain" NumberOfComponents="6" format="ascii" RangeMin="0" RangeMax="0">
          0 0 0 0 0 0
          0 0 0 0 0 0
          0 0 0 0 0 0
          0 0 0 0 0 0
          0 0 0 0 0 0
          0 0 0 0 0 0
          0 0 0 0 0 0
          0 0 0 0 0 0
          0 0 0 0 0 0
          0 0 0 0 0 0
          0 0 0 0 0 0
          0 0 0 0 0 0
          0 0 0 0 0 0
          <InformationKey name="L2_NORM_RANGE" location="vtkDataArray" length="2">
            <Value index="0">
              0
            </Value>
            <Value index="1">
              0
            </Value>
          </InformationKey>
        </DataArray>
        <DataArray type="Float64" Name="J2 Stresses" format="ascii" RangeMin="5900105.267676515" RangeMax="3311728755.1639867">
          1663497680.170692 1058587953.0170949 720635243.070442 417446047.8970821 246802214.2553811 122640020.4009521
          60738274.83652095 22704584.908458203 12396901.785999976 9014236.773205614 5900105.267676515 2228550426.5101385
          3311728755.1639867
        </DataArray>
      </PointData>
      <CellData>
        <DataArray type="UInt8" Name="vtkGhostType" format="ascii" RangeMin="0" RangeMax="1">
          1 1 0 0 0 0
          0 0 0 0 0
        </DataArray>
        <DataArray type="Float64" Name="Gauss Stress" NumberOfComponents="6" format="ascii" RangeMin="2822.233949840909" RangeMax="35860.62050289435">
          35144.4854411454 1533.1356564727619 0 6964.103746253188 0 0
          -27408.487959885442 -1189.7936459070556 0 2276.0741328013346 0 0
          24338.44188707896 1469.9904461339668 0 6286.264669196133 0 0
          15434.642268130405 1175.54225410658 0 5041.000766293039 0 0
          -18223.842951103205 -551.4350864408304 0 2274.373190374136 0 0
          8692.324127688104 884.6855508724353 0 3764.5791031702133 0 0
          -11035.231339672646 -282.2965138631806 0 1964.1744119682976 0 0
          4495.617383293868 434.42282907568097 0 2065.9409694781525 0 0
          -5601.97176416825 16.460487948108835 0 1586.084024816389 0 0
          2213.821958071181 989.4293241485265 0 1443.9620556342506 0 0
          -3341.438677001574 -499.07819218492676 0 66.06255450441546 0 0
          <InformationKey name="L2_NORM_RANGE" location="vtkDataArray" length="2">
            <Value index="0">
              2822.2339498
            </Value>
            <Value index="1">
              35860.620503
            </Value>
          </InformationKey>
        </DataArray>
        <DataArray type="Float64" Name="Gauss Strain" NumberOfComponents="6" format="ascii" RangeMin="0" RangeMax="0">
          0 0 0 0 0 0
          0 0 0 0 0 0
          0 0 0 0 0 0
          0 0 0 0 0 0
          0 0 0 0 0 0
          0 0 0 0 0 0
          0 0 0 0 0 0
          0 0 0 0 0 0
          0 0 0 0 0 0
          0 0 0 0 0 0
          0 0 0 0 0 0
          <InformationKey name="L2_NORM_RANGE" location="vtkDataArray" length="2">
            <Value index="0">
              0
            </Value>
            <Value index="1">
              0
            </Value>
          </InformationKey>
        </DataArray>
      </CellData>
      <Points>
        <DataArray type="Float32" Name="Points" NumberOfComponents="3" format="ascii" RangeMin="0.4000000059604645" RangeMax="1.0012492197622458">
          0.5 0 0 0.6000000238418579 0.05000000074505806 0
          0.6000000238418579 0 0 0.699999988079071 0.05000000074505806 0
          0.699999988079071 0 0 0.800000011920929 0.05000000074505806 0
          0.800000011920929 0 0 0.8999999761581421 0.05000000074505806 0
          0.8999999761581421 0 0 1 0.05000000074505806 0
          1 0 0 0.5 0.05000000074505806 0
          0.4000000059604645 0 0
          <InformationKey name="L2_NORM_RANGE" location="vtkDataArray" length="2">
            <Value index="0">
              0.40000000596
            </Value>
            <Value index="1">
              1.0012492198
            </Value>
          </InformationKey>
        </DataArray>
      </Points>
      <Cells>
        <DataArray type="Int64" Name="connectivity" format="ascii" RangeMin="0" RangeMax="12">
          0 11 12 1 11 0
          2 1 0 4 3 2
          3 1 2 6 5 4
          5 3 4 8 7 6
          7 5 6 10 9 8
          9 7 8
        </DataArray>
        <DataArray type="Int64" Name="offsets" format="ascii" RangeMin="3" RangeMax="33">
          3 6 9 12 15 18
          21 24 27 30 33
        </DataArray>
        <DataArray type="UInt8" Name="types" format="ascii" RangeMin="5" RangeMax="5">
          5 5 5 5 5 5
          5 5 5 5 5
        </DataArray>
      </Cells>
    </Piece>
  </UnstructuredGrid>
</VTKFile>
