<?xml version="1.0"?>
<VTKFile type="UnstructuredGrid" version="0.1" byte_order="LittleEndian" header_type="UInt32" compressor="vtkZLibDataCompressor">
  <UnstructuredGrid>
    <Piece NumberOfPoints="13" NumberOfCells="11">
      <PointData>
        <DataArray type="Float64" Name="Disp" NumberOfComponents="3" format="ascii" RangeMin="0.04579821687609711" RangeMax="0.17519772318142018">
          -0.00601584812807422 -0.0674488775967525 0 0.005145680040401312 -0.08985177790173249 0
          -0.005980925354329456 -0.08990048702552217 0 0.004967669325527571 -0.1118094580956222 0
          -0.005815797805561868 -0.11180917642371654 0 0.004852545526398736 -0.13308910507079616 0
          -0.005691833190603367 -0.1330740718013952 0 0.004832667805886565 -0.1540919233980163 0
          -0.005664680648604877 -0.15408150815305954 0 0.004840523775894102 -0.17510149392991936 0
          -0.0056792156937933444 -0.17510565015743185 0 0.005182610464684335 -0.06735253866753571 0
          -0.005628379893953029 -0.045451050689718615 0
          <InformationKey name="L2_NORM_RANGE" location="vtkDataArray" length="2">
            <Value index="0">
              0.045798216876
            </Value>
            <Value index="1">
              0.17519772318
            </Value>
          </InformationKey>
        </DataArray>
        <DataArray type="Float64" Name="Nodal Stress" NumberOfComponents="6" format="ascii" RangeMin="516.1475614434192" RangeMax="46058.09412811227">
          -4003.434928027959 22447.0641863066 0 -2921.062303300681 0 0
          14998.327369879345 15390.722099054634 0 -4781.724459770194 0 0
          1733.5083451596015 10397.639342670584 0 -3731.753159191792 0 0
          559.8108545589218 3884.6566921977264 0 1044.3034654992925 0 0
          1706.2223884644386 334.8635164393261 0 -2249.9326532629475 0 0
          -5035.34881421381 -3188.385758109865 0 2723.8722618024117 0 0
          52.46880655888563 -4107.269401491912 0 -211.48288972761767 0 0
          -4446.787968941131 -3550.372672840735 0 1309.7209395135146 0 0
          -113.26427803410165 -2432.6098040022057 0 427.6416064531708 0 0
          -1807.5172188883882 -962.0493070403188 0 316.9407842080074 0 0
          398.04052301400606 -201.9013205823309 0 259.24487260085914 0 0
          35584.189917640586 25960.65901647826 0 -13459.481641188202 0 0
          -20254.369535969938 27688.997093742313 0 2966.0509441323115 0 0
          <InformationKey name="L2_NORM_RANGE" location="vtkDataArray" length="2">
            <Value index="0">
              516.14756144
            </Value>
            <Value index="1">
              46058.094128
            </Value>
          </InformationKey>
        </DataArray>
        <DataArray type="Float64" Name="Nodal Strain" NumberOfComponents="6" format="ascii" RangeMin="0.00005349747752652666" RangeMax="0.0036509648543628687">
          -0.0010876405015129472 0.00174634154645147 0 -0.0003129709610679301 0 0
          0.0005216404514537167 0.0005636827438653543 0 -0.0005123276206896637 0 0
          -0.0002475222375839779 0.0006807775121493417 0 -0.0003998306956276919 0 0
          -0.00009875124939571009 0.0002574822332084475 0 0.0001118896570177814 0 0
          0.00010991361644605542 -0.00003701769127092093 0 -0.00024106421284960142 0 0
          -0.0002457968525113484 -0.00004790795364306858 0 0.00029184345662168693 0 0
          0.00015043596480748868 -0.0002952502717693825 0 -0.000022658881042244768 0 0
          -0.00019082868803719746 -0.00009478419202644073 0 0.0001403272435193051 0 0
          0.00007878861599764291 -0.0001697126903560825 0 0.00004581874354855402 0 0
          -0.0000947494689548735 -0.000004163621256866069 0 0.00003395794116514365 0 0
          0.000035642227378940826 -0.000028637255863523853 0 0.00002777623635009205 0 0
          0.0016145614578143902 0.000583468861261284 0 -0.001442087318698736 0 0
          -0.00243563343448865 0.002701155847266235 0 0.0003177911725856047 0 0
          <InformationKey name="L2_NORM_RANGE" location="vtkDataArray" length="2">
            <Value index="0">
              5.3497477527e-05
            </Value>
            <Value index="1">
              0.0036509648544
            </Value>
          </InformationKey>
        </DataArray>
        <DataArray type="Float64" Name="Sld_traction" NumberOfComponents="3" format="ascii" RangeMin="505.1837559967311" RangeMax="37222.26539264417">
          -4290.70952899841 -22759.131508431503 0 -6230.09272507087 14287.546690109992 0
          5853.256881704119 -11652.625761591207 0 4844.507060556075 3098.670934818544 0
          6596.012096405694 -1297.6488190207137 0 6300.311646012831 -3298.19524077376 0
          2746.2412769419175 3779.82204993311 0 2537.156714507077 -3183.671054516136 0
          -62.07782557689155 2708.631715903312 0 -215.29978879891752 -715.4240231264374 0
          -413.4973725649645 290.2249992761404 0 -27423.008034258808 25168.942594265118 0
          -22515.298369848595 -28629.392982348218 0
          <InformationKey name="L2_NORM_RANGE" location="vtkDataArray" length="2">
            <Value index="0">
              505.183756
            </Value>
            <Value index="1">
              37222.265393
            </Value>
          </InformationKey>
        </DataArray>
        <DataArray type="Float64" Name="Velocity" NumberOfComponents="3" format="ascii" RangeMin="0.7974287334586206" RangeMax="13.436363458962854">
          -0.5905405448167547 0.535867940702698 0 0.9197180109509034 -2.6688391234711055 0
          -0.7299403041798522 -2.714932048394291 0 0.7891453724709856 -5.7881047462810855 0
          -0.61158299530833 -5.773493497984006 0 0.7771410208685345 -8.400820812821948 0
          -0.5028872326468153 -8.405057272440152 0 0.7683910853202549 -10.943556746090744 0
          -0.4763455922303232 -10.937775763458866 0 0.7368114831844359 -13.416145938368432 0
          -0.4949514325327393 -13.396202956871573 0 0.8058692680308448 0.5977006302937449 0
          -0.21529836750399617 2.627480137101763 0
          <InformationKey name="L2_NORM_RANGE" location="vtkDataArray" length="2">
            <Value index="0">
              0.79742873346
            </Value>
            <Value index="1">
              13.436363459
            </Value>
          </InformationKey>
        </DataArray>
        <DataArray type="Float64" Name="Acceleration" NumberOfComponents="3" format="ascii" RangeMin="263.2186928748181" RangeMax="3666.2976054240585">
          361.5550084498831 3113.936631898716 0 205.23602477495092 3617.3646004087195 0
          81.65718551481734 3665.388142556254 0 873.4689843746551 2212.5663871329607 0
          -205.38642556107402 2241.9525930072914 0 688.2841279328461 -299.22053941089916 0
          -283.4671338457963 -1189.2287527169628 0 -138.89757096899962 -223.58789112480918 0
          212.5396427316798 -1100.855786100818 0 -612.9330422001248 -1387.881605072409 0
          1210.8188539937264 2037.0997770827971 0 71.8623347128555 3100.933620228291 0
          543.8733061047734 2286.9837427858483 0
          <InformationKey name="L2_NORM_RANGE" location="vtkDataArray" length="2">
            <Value index="0">
              263.21869287
            </Value>
            <Value index="1">
              3666.2976054
            </Value>
          </InformationKey>
        </DataArray>
        <DataArray type="Float64" Name="Sigma" NumberOfComponents="6" format="ascii" RangeMin="432.4194675229584" RangeMax="101814.2748236587">
          -15224.606166093778 39844.44956694323 0 1277.8963649841644 0 0
          34791.156250787346 20721.88614650076 0 -4050.4580723320196 0 0
          5488.986742114932 17529.675660946312 0 -7227.5068760606955 0 0
          -214.1970952906704 6027.867610299625 0 6447.216638354323 0 0
          9169.859291379806 1480.6528128788905 0 -7487.410150966094 0 0
          -11983.447736625596 -4171.3806948760575 0 7328.633882251172 0 0
          4077.8550768404784 -6392.164929966422 0 -2398.9250985090966 0 0
          -9852.924721564581 -4485.38203378913 0 2040.117708717973 0 0
          1540.5941096501338 -4226.157326667082 0 605.662883350979 0 0
          -3748.035410599299 -534.8321395485564 0 -266.16443008060014 0 0
          138.20499354381627 215.0953889843786 0 348.74051856652886 0 0
          90031.63149280881 38694.43485930465 0 -27625.94069945147 0 0
          -61603.4146550744 44160.484875468406 0 27860.1785901145 0 0
          <InformationKey name="L2_NORM_RANGE" location="vtkDataArray" length="2">
            <Value index="0">
              432.41946752
            </Value>
            <Value index="1">
              101814.27482
            </Value>
          </InformationKey>
        </DataArray>
        <DataArray type="Float64" Name="Press" format="ascii" RangeMin="-16517.008051651697" RangeMax="1393.4546436607952">
          -15437.462632589206 -6930.545046213176 -6246.311171590114 -3674.614428693524 -1105.3431351104591 -440.94752292465864
          1393.4546436607952 792.2702787433351 1166.7564945224985 817.5810504356368 769.427930479711 -10487.772301401137
          -16517.008051651697
        </DataArray>
        <DataArray type="Float64" Name="Dev strain" NumberOfComponents="6" format="ascii" RangeMin="0.00006633524261229556" RangeMax="0.003767972765702519">
          -0.0006405430916498349 0.002193438956314583 0 -0.0003129709610679301 0 0
          0.0008166202270957774 0.0008586625195074149 0 -0.0005123276206896637 0 0
          -0.00002362047643203211 0.0009046792733012872 0 -0.0003998306956276919 0 0
          0.00003256567844565937 0.00038879916104981693 0 0.0001118896570177814 0 0
          0.0001685923046657829 0.00002166099694880654 0 -0.00024106421284960142 0 0
          -0.00023105933384945124 -0.00003317043498117133 0 0.00029184345662168693 0 0
          0.0001232788614354227 -0.00032240737514144843 0 -0.000022658881042244768 0 0
          -0.00022133665671677358 -0.00012529216070601685 0 0.0001403272435193051 0 0
          0.00004193407968921006 -0.00020656722666451534 0 0.00004581874354855402 0 0
          -0.00012673846627634934 -0.00003615261857834191 0 0.00003395794116514365 0 0
          0.0000041851433975340565 -0.000060094339844930617 0 0.00002777623635009205 0 0
          0.0020208978455724743 0.0009898052490193681 0 -0.001442087318698736 0 0
          -0.001896336060422351 0.0032404532213325334 0 0.0003177911725856047 0 0
          <InformationKey name="L2_NORM_RANGE" location="vtkDataArray" length="2">
            <Value index="0">
              6.6335242612e-05
            </Value>
            <Value index="1">
              0.0037679727657
            </Value>
          </InformationKey>
        </DataArray>
        <DataArray type="Float64" Name="J2 Stresses" format="ascii" RangeMin="63088.3106239066" RangeMax="4992275129.05135">
          910092651.8825816 824012112.0165498 181768466.0274197 28582184.756933335 57154653.780192874 93928936.92403087
          30183047.666867368 59639908.84528456 10208624.86228253 7184618.304260204 63088.3106239066 4992275129.05135
          3066611948.569023
        </DataArray>
      </PointData>
      <CellData>
        <DataArray type="UInt8" Name="vtkGhostType" format="ascii" RangeMin="0" RangeMax="1">
          1 1 0 0 0 0
          0 0 0 0 0
        </DataArray>
        <DataArray type="Float64" Name="Gauss Stress" NumberOfComponents="6" format="ascii" RangeMin="679.3770013449739" RangeMax="35313.02549594175">
          -9746.210771333801 26752.375438691415 0 504.0447518824003 0 0
          25580.800532432957 22134.996864181703 0 -10132.83413559977 0 0
          -1186.2606745279973 16493.897507999267 0 -3333.356194469517 0 0
          1139.460067603324 4670.642449576908 0 -2755.90012955749 0 0
          7738.158417038261 9142.65292374996 0 -1610.249436679463 0 0
          370.4768724067899 -3078.576275445971 0 -852.567122408007 0 0
          -2749.5635424217026 -627.9217861420622 0 2096.1467898798005 0 0
          -293.998039382446 -3917.074291165335 0 82.28516451995165 0 0
          -5337.913327290076 -4434.716753050712 0 2323.275497486682 0 0
          228.17638934416573 -597.3762005978042 0 229.41299061230256 0 0
          -3094.5860662707582 -2156.587892101099 0 793.2053873294503 0 0
          <InformationKey name="L2_NORM_RANGE" location="vtkDataArray" length="2">
            <Value index="0">
              679.37700134
            </Value>
            <Value index="1">
              35313.025496
            </Value>
          </InformationKey>
        </DataArray>
        <DataArray type="Float64" Name="Gauss Strain" NumberOfComponents="6" format="ascii" RangeMin="0.00006784533719756211" RangeMax="0.0027988590850079754">
          -0.0016515998921913934 0.0022589629160255946 0 0.0000540047948445428 0 0
          0.001036664435738722 0.0006674711855689452 0 -0.0010856608002428325 0 0
          -0.0006738006734662592 0.0012205019889473764 0 -0.00035714530655030544 0 0
          -0.00008541865408465215 0.00029292231541251765 0 -0.0002952750138811596 0 0
          0.00022620228251166307 0.00037668383680220213 0 -0.00017252672535851383 0 0
          0.00013641178643784103 -0.00023312962226066901 0 -0.00009134647740085788 0 0
          -0.00017397161781076227 0.00005334714179062777 0 0.00022458715605855008 0 0
          0.00011889565044287296 -0.00026929109081957946 0 0.000008816267627137687 0 0
          -0.00022289678219748003 -0.00012612572067183394 0 0.0002489223747307159 0 0
          0.00003763317783164769 -0.00005081888537642051 0 0.00002457996327988956 0 0
          -0.00014402086573001496 -0.00004352106135469431 0 0.00008498629149958397 0 0
          <InformationKey name="L2_NORM_RANGE" location="vtkDataArray" length="2">
            <Value index="0">
              6.7845337198e-05
            </Value>
            <Value index="1">
              0.002798859085
            </Value>
          </InformationKey>
        </DataArray>
      </CellData>
      <Points>
        <DataArray type="Float32" Name="Points" NumberOfComponents="3" format="ascii" RangeMin="0.4000000059604645" RangeMax="1.0012492197622458">
          0.5 0 0 0.6000000238418579 0.05000000074505806 0
          0.6000000238418579 0 0 0.699999988079071 0.05000000074505806 0
          0.699999988079071 0 0 0.800000011920929 0.05000000074505806 0
          0.800000011920929 0 0 0.8999999761581421 0.05000000074505806 0
          0.8999999761581421 0 0 1 0.05000000074505806 0
          1 0 0 0.5 0.05000000074505806 0
          0.4000000059604645 0 0
          <InformationKey name="L2_NORM_RANGE" location="vtkDataArray" length="2">
            <Value index="0">
              0.40000000596
            </Value>
            <Value index="1">
              1.0012492198
            </Value>
          </InformationKey>
        </DataArray>
      </Points>
      <Cells>
        <DataArray type="Int64" Name="connectivity" format="ascii" RangeMin="0" RangeMax="12">
          0 11 12 1 11 0
          2 1 0 4 3 2
          3 1 2 6 5 4
          5 3 4 8 7 6
          7 5 6 10 9 8
          9 7 8
        </DataArray>
        <DataArray type="Int64" Name="offsets" format="ascii" RangeMin="3" RangeMax="33">
          3 6 9 12 15 18
          21 24 27 30 33
        </DataArray>
        <DataArray type="UInt8" Name="types" format="ascii" RangeMin="5" RangeMax="5">
          5 5 5 5 5 5
          5 5 5 5 5
        </DataArray>
      </Cells>
    </Piece>
  </UnstructuredGrid>
</VTKFile>
