<?xml version="1.0"?>
<VTKFile type="UnstructuredGrid" version="0.1" byte_order="LittleEndian" header_type="UInt32" compressor="vtkZLibDataCompressor">
  <UnstructuredGrid>
    <Piece NumberOfPoints="13" NumberOfCells="11">
      <PointData>
        <DataArray type="Float64" Name="Disp" NumberOfComponents="3" format="ascii" RangeMin="0.0020173024613015737" RangeMax="0.04803983841951459">
          -0.0009761233904655962 0.0017654156300880922 0 0.001733929830165096 -0.0036629615234530163 0
          -0.00164386021697476 -0.0036606482373661778 0 0.0024061322128840308 -0.01175647741888905 0
          -0.0022843711555491255 -0.011788771008404836 0 0.0029290118806208853 -0.022313585571266066 0
          -0.0028476010763888275 -0.02234085465051603 0 0.003330251193476764 -0.03472532988208783 0
          -0.0031667874995219888 -0.0348253297919793 0 0.003339214362206344 -0.04792364471548784 0
          -0.003179612471682287 -0.047907622984051206 0 0.0010789447553548423 0.0017624167479367396 0
          -0.00033664223441351795 0.00457540425956483 0
          <InformationKey name="L2_NORM_RANGE" location="vtkDataArray" length="2">
            <Value index="0">
              0.0020173024613
            </Value>
            <Value index="1">
              0.04803983842
            </Value>
          </InformationKey>
        </DataArray>
        <DataArray type="Float64" Name="Nodal Stress" NumberOfComponents="6" format="ascii" RangeMin="7124.664190976908" RangeMax="32028.74926317232">
          -29926.223368393392 -2405.6643783475033 0 10135.623558533442 0 0
          28804.41644849902 -520.3973448469145 0 -9957.8487314388 0 0
          -28019.079400403676 826.6544902610464 0 9453.807588514024 0 0
          29822.6527674253 3970.135291296564 0 -10985.817541063709 0 0
          -23198.329124244345 5332.616801633758 0 7535.36021602527 0 0
          27425.75715835629 7511.511046019583 0 -11111.908348272467 0 0
          -13996.900190531178 9958.468552666442 0 4536.076374956577 0 0
          25329.22324170172 15883.168664074372 0 -9124.517910832905 0 0
          -3450.6586515260374 15485.867405910494 0 764.2466785687924 0 0
          19503.463924966167 12352.972501350732 0 -6855.955211483591 0 0
          -2026.1170508075586 6395.440358028416 0 -2398.7563772748763 0 0
          25042.83807271969 -3324.1651179824953 0 -8659.186647589062 0 0
          -28006.665458120915 -5495.009692202321 0 10333.799215010938 0 0
          <InformationKey name="L2_NORM_RANGE" location="vtkDataArray" length="2">
            <Value index="0">
              7124.664191
            </Value>
            <Value index="1">
              32028.749263
            </Value>
          </InformationKey>
        </DataArray>
        <DataArray type="Float64" Name="Nodal Strain" NumberOfComponents="6" format="ascii" RangeMin="0.0006966424706825438" RangeMax="0.002566009368624407">
          -0.002051670798515689 0.0008969605218463707 0 0.001085959666985726 0 0
          0.0020760439372087495 -0.0010659003977926016 0 -0.0010669123640827283 0 0
          -0.0020308861889667285 0.0010597281564616345 0 0.001012907955912217 0 0
          0.001988398937269788 -0.000781513649458292 0 -0.0011770518793996832 0 0
          -0.0018474741089329447 0.001209412954553995 0 0.0008073600231455648 0 0
          0.0016907144025247501 -0.0004429548237970401 0 -0.0011905616087434787 0 0
          -0.0013554381762046 0.001211208474852288 0 0.0004860081830310617 0 0
          0.001241974207833181 0.0002298969316588227 0 -0.0009776269190178114 0 0
          -0.0007995423110343774 0.0012293711951195368 0 0.00008188357270379913 0 0
          0.0009519269767350573 0.00018580289563340383 0 -0.0007345666298018134 0 0
          -0.00037313123070155477 0.0005291784916737283 0 -0.00025700961185087963 0 0
          0.001907494330836496 -0.0011318274395958814 0 -0.0009277699979559708 0 0
          -0.0018042257580014112 0.000607737359775581 0 0.0011071927730368861 0 0
          <InformationKey name="L2_NORM_RANGE" location="vtkDataArray" length="2">
            <Value index="0">
              0.00069664247068
            </Value>
            <Value index="1">
              0.0025660093686
            </Value>
          </InformationKey>
        </DataArray>
        <DataArray type="Float64" Name="Sld_traction" NumberOfComponents="3" format="ascii" RangeMin="5871.027238770559" RangeMax="30843.422309864487">
          -29515.45188696369 2667.7029038126593 0 -29811.241226338087 103.70599073117123 0
          -29329.275206466853 -185.8126750211817 0 -30514.43596408519 4492.87186311724 0
          -26132.679512311384 -4826.8119146496265 0 -28052.106914639422 8657.123383941622 0
          -19270.38313225746 -8784.505841888378 0 -21094.985527188957 16140.448599055548 0
          -9427.031366641342 -14175.725904445802 0 -2187.468421396751 5792.565455602474 0
          1750.7109048416003 -5603.924710955222 0 -27260.369093563288 -3022.5657620684915 0
          -28381.43618687124 6923.901140133159 0
          <InformationKey name="L2_NORM_RANGE" location="vtkDataArray" length="2">
            <Value index="0">
              5871.0272388
            </Value>
            <Value index="1">
              30843.42231
            </Value>
          </InformationKey>
        </DataArray>
        <DataArray type="Float64" Name="Velocity" NumberOfComponents="3" format="ascii" RangeMin="0.6177733844858805" RangeMax="13.142703845346505">
          -0.2933084439318435 -1.6768575866125406 0 0.5542447737316974 -3.340103396525948 0
          -0.4773889495856834 -3.348797534087746 0 0.6756174252004309 -5.7503402515254045 0
          -0.5999024507853052 -5.800265640217267 0 0.5725685718280537 -8.22493339875545 0
          -0.5893457002168497 -8.19891435583715 0 0.6422618614830953 -10.558747627274931 0
          -0.5796151247890613 -10.548744905567272 0 0.6678486062270568 -13.0717635480658 0
          -0.6371140458694136 -13.127252189968841 0 0.3673456631143085 -1.6933082198647766 0
          -0.21658407816155936 -0.5785631267770588 0
          <InformationKey name="L2_NORM_RANGE" location="vtkDataArray" length="2">
            <Value index="0">
              0.61777338449
            </Value>
            <Value index="1">
              13.142703845
            </Value>
          </InformationKey>
        </DataArray>
        <DataArray type="Float64" Name="Acceleration" NumberOfComponents="3" format="ascii" RangeMin="232.32458495511855" RangeMax="1857.9675030916203">
          116.1300268378917 -357.77555616226164 0 310.10008346322 -1039.9748269187285 0
          -317.50715557549825 -1234.6024576898253 0 -288.4953502007029 -1835.4328305489917 0
          10.533613225174179 -1772.18951137792 0 -158.73501437949085 -475.1664703638721 0
          45.66362823114048 -227.79276948870938 0 442.02207885059784 -1604.9200467386454 0
          119.69089497909079 -1407.5997646370865 0 -192.97133791568626 -618.8868429722243 0
          -338.89176112260384 -1681.6649756923225 0 -66.54890659300446 -389.9827711250225 0
          442.82359473180753 -1638.2540932806837 0
          <InformationKey name="L2_NORM_RANGE" location="vtkDataArray" length="2">
            <Value index="0">
              232.32458496
            </Value>
            <Value index="1">
              1857.9675031
            </Value>
          </InformationKey>
        </DataArray>
        <DataArray type="Float64" Name="Sigma" NumberOfComponents="6" format="ascii" RangeMin="11029.65052273383" RangeMax="89923.36653530467">
          -84783.27230193262 1027.8304946248245 0 29949.159442184915 0 0
          82703.14011572982 -5541.901720707441 0 -30061.073889880077 0 0
          -80809.41040522685 5613.008439839007 0 29798.545738076635 0 0
          83588.79117847199 1628.887449605692 0 -31002.451936512967 0 0
          -69221.93800819252 12991.143943438678 0 26832.30884430967 0 0
          74706.06524133726 7209.31814403339 0 -29015.734148579213 0 0
          -45593.64799428747 15990.094213737124 0 19668.295958552982 0 0
          61035.12767216729 21410.9123175047 0 -21247.252957006698 0 0
          -23525.165917828046 26465.648704697473 0 10116.806115023133 0 0
          51573.24810552469 20313.51873817582 0 -12565.16718652771 0 0
          2622.3240509464877 10099.896241030114 0 -3573.3322187974645 0 0
          74365.93339345475 -10568.720662453248 0 -27620.699861995246 0 0
          -78009.83931174889 -2692.775270918257 0 27497.527814965837 0 0
          <InformationKey name="L2_NORM_RANGE" location="vtkDataArray" length="2">
            <Value index="0">
              11029.650523
            </Value>
            <Value index="1">
              89923.366535
            </Value>
          </InformationKey>
        </DataArray>
        <DataArray type="Float64" Name="Press" format="ascii" RangeMin="-12513.856007843762" RangeMax="7107.568761573595">
          -3736.5970008109916 5280.94256912622 -6076.78482334662 3498.337001985872 -7312.395853094966 -500.0256201149967
          -9280.438703706604 -1432.5665611200993 -6275.983783832991 -10093.502693299328 -12513.856007843762 7107.568761573595
          -2014.5997437054189
        </DataArray>
        <DataArray type="Float64" Name="Dev strain" NumberOfComponents="6" format="ascii" RangeMin="0.0009348267951486757" RangeMax="0.002541107317423174">
          -0.0020346054892581935 0.0009140258311038658 0 0.001085959666985726 0 0
          0.002008589182655173 -0.0011333551523461782 0 -0.0010669123640827283 0 0
          -0.0019417458834555341 0.0011488684619728295 0 0.001012907955912217 0 0
          0.0019913972181982305 -0.0007785153685298493 0 -0.0011770518793996832 0 0
          -0.0016890366807130596 0.0013678503827738795 0 0.0008073600231455648 0 0
          0.001792262177505189 -0.00034140704881660154 0 -0.0011905616087434787 0 0
          -0.0011377709255449636 0.0014288757255119244 0 0.0004860081830310617 0 0
          0.0013916818645451278 0.0003796045883707696 0 -0.0009776269190178114 0 0
          -0.0005539996445957251 0.0014749138615581892 0 0.00008188357270379913 0 0
          0.0012504644807967856 0.00048434039969513223 0 -0.0007345666298018134 0 0
          -0.000003513387015663114 0.0008987963353596198 0 -0.00025700961185087963 0 0
          0.0017756343618229157 -0.001263687408609462 0 -0.0009277699979559708 0 0
          -0.0018716394627838 0.000540323654993192 0 0.0011071927730368861 0 0
          <InformationKey name="L2_NORM_RANGE" location="vtkDataArray" length="2">
            <Value index="0">
              0.00093482679515
            </Value>
            <Value index="1">
              0.0025411073174
            </Value>
          </InformationKey>
        </DataArray>
        <DataArray type="Float64" Name="J2 Stresses" format="ascii" RangeMin="57634419.54034732" RangeMax="3818867886.6980224">
          3818867886.6980224 3661178070.6952176 3502821668.919107 3735157649.0197887 2660216460.7637005 3026963433.0176706
          1263942391.6738997 2204718427.6675754 652519437.9031389 1575690338.446461 57634419.54034732 3011720718.176963
          3235421543.035981
        </DataArray>
      </PointData>
      <CellData>
        <DataArray type="UInt8" Name="vtkGhostType" format="ascii" RangeMin="0" RangeMax="1">
          1 1 0 0 0 0
          0 0 0 0 0
        </DataArray>
        <DataArray type="Float64" Name="Gauss Stress" NumberOfComponents="6" format="ascii" RangeMin="9563.90664245415" RangeMax="31222.28170079629">
          -29023.602067723208 -3625.7644738964987 0 9941.995798385171 0 0
          26979.238512380267 -2143.6258528823464 0 -9244.204769896807 0 0
          -29140.660615487024 -1144.5006804250002 0 9895.543763460491 0 0
          -25444.466969801033 3447.3987194758874 0 8542.800881957783 0 0
          29395.00521224682 1467.4963055009105 0 -10421.660029438806 0 0
          -19067.460312686435 6365.898708097542 0 5828.290218094483 0 0
          28252.94464679756 5838.421688617891 0 -11061.95908026084 0 0
          -8357.558429535971 15625.888729093203 0 2845.94970552314 0 0
          26311.5046780918 11132.431263444505 0 -10198.23038234431 0 0
          595.6879178890158 9331.907066309106 0 -2007.2310967673475 0 0
          23760.385607203847 16796.008907375188 0 -7898.538009503756 0 0
          <InformationKey name="L2_NORM_RANGE" location="vtkDataArray" length="2">
            <Value index="0">
              9563.9066425
            </Value>
            <Value index="1">
              31222.281701
            </Value>
          </InformationKey>
        </DataArray>
        <DataArray type="Float64" Name="Gauss Strain" NumberOfComponents="6" format="ascii" RangeMin="0.000739713664705073" RangeMax="0.002516147309943407">
          -0.0019436228450553546 0.0007775740399975074 0 0.0010652138355412683 0 0
          0.0020036465313443886 -0.0011166603649337484 0 -0.0009904505110603721 0 0
          -0.0020406007339481805 0.0009589878305227505 0 0.0010602368317993384 0 0
          -0.001940583309252784 0.0011549737288840283 0 0.0009153000944954764 0 0
          0.0020472326471068837 -0.0009450004500444638 0 -0.0011166064317255865 0 0
          -0.0015893149761953722 0.0011356877760314828 0 0.0006244596662244089 0 0
          0.0018095524144634719 -0.0005920036167700634 0 -0.0011852099014565182 0 0
          -0.001155035913863041 0.0014146191388472278 0 0.00030492318273462216 0 0
          0.0014818063604549673 -0.00014452293397152795 0 -0.001092667540965462 0 0
          -0.00029073325823325265 0.0006452902219546142 0 -0.00021506047465364434 0 0
          0.0010973129395368752 0.00035112972169809055 0 -0.0008462719295896885 0 0
          <InformationKey name="L2_NORM_RANGE" location="vtkDataArray" length="2">
            <Value index="0">
              0.00073971366471
            </Value>
            <Value index="1">
              0.0025161473099
            </Value>
          </InformationKey>
        </DataArray>
      </CellData>
      <Points>
        <DataArray type="Float32" Name="Points" NumberOfComponents="3" format="ascii" RangeMin="0.4000000059604645" RangeMax="1.0012492197622458">
          0.5 0 0 0.6000000238418579 0.05000000074505806 0
          0.6000000238418579 0 0 0.699999988079071 0.05000000074505806 0
          0.699999988079071 0 0 0.800000011920929 0.05000000074505806 0
          0.800000011920929 0 0 0.8999999761581421 0.05000000074505806 0
          0.8999999761581421 0 0 1 0.05000000074505806 0
          1 0 0 0.5 0.05000000074505806 0
          0.4000000059604645 0 0
          <InformationKey name="L2_NORM_RANGE" location="vtkDataArray" length="2">
            <Value index="0">
              0.40000000596
            </Value>
            <Value index="1">
              1.0012492198
            </Value>
          </InformationKey>
        </DataArray>
      </Points>
      <Cells>
        <DataArray type="Int64" Name="connectivity" format="ascii" RangeMin="0" RangeMax="12">
          0 11 12 1 11 0
          2 1 0 4 3 2
          3 1 2 6 5 4
          5 3 4 8 7 6
          7 5 6 10 9 8
          9 7 8
        </DataArray>
        <DataArray type="Int64" Name="offsets" format="ascii" RangeMin="3" RangeMax="33">
          3 6 9 12 15 18
          21 24 27 30 33
        </DataArray>
        <DataArray type="UInt8" Name="types" format="ascii" RangeMin="5" RangeMax="5">
          5 5 5 5 5 5
          5 5 5 5 5
        </DataArray>
      </Cells>
    </Piece>
  </UnstructuredGrid>
</VTKFile>
