<?xml version="1.0"?>
<VTKFile type="UnstructuredGrid" version="0.1" byte_order="LittleEndian" header_type="UInt32" compressor="vtkZLibDataCompressor">
  <UnstructuredGrid>
    <Piece NumberOfPoints="13" NumberOfCells="11">
      <PointData>
        <DataArray type="Float64" Name="Disp" NumberOfComponents="3" format="ascii" RangeMin="0.0014331860859386415" RangeMax="0.061651343447456694">
          -0.0012857926950766312 -0.0006330556865045099 0 0.002247651461082599 -0.007731163845649272 0
          -0.0021194549430616104 -0.007746764809613824 0 0.002991870889786924 -0.01801497695441525 0
          -0.002843992037624312 -0.018057364202698704 0 0.0035469125313353778 -0.030930961901342882 0
          -0.003436383554553239 -0.030959217075035662 0 0.003982645594757339 -0.04582054228406497 0
          -0.003767145280457981 -0.04592753968989713 0 0.003983183928602962 -0.0615225356651299 0
          -0.0037818582008075905 -0.06150725657992201 0 0.0014216378127392352 -0.0006425911913364758 0
          -0.0004995134057341234 0.0031426801394048437 0
          <InformationKey name="L2_NORM_RANGE" location="vtkDataArray" length="2">
            <Value index="0">
              0.0014331860859
            </Value>
            <Value index="1">
              0.061651343447
            </Value>
          </InformationKey>
        </DataArray>
        <DataArray type="Float64" Name="Nodal Stress" NumberOfComponents="6" format="ascii" RangeMin="7951.612427469598" RangeMax="39232.26372112089">
          -35802.88881112575 -3800.2808212321816 0 12749.752028637246 0 0
          34860.12902318569 1379.897329404369 0 -13041.451810327771 0 0
          -31207.062630745968 4151.386196102571 0 10661.99319422377 0 0
          36036.044744230974 7704.847044422519 0 -13461.401409118414 0 0
          -24483.50152580351 8397.71245614588 0 7625.126419263925 0 0
          31649.14245904658 9098.725536504688 0 -12004.285928569563 0 0
          -14570.660617100122 10961.175920832822 0 4703.79287293301 0 0
          27767.13238513104 17026.96557473985 0 -9960.585415830737 0 0
          -3338.7147773914453 16701.41061357536 0 645.1669161872627 0 0
          20786.472341333876 13424.427231758007 0 -7016.600042008083 0 0
          -2458.0285128484716 7142.0513399851925 0 -2485.425252090393 0 0
          28977.462671902205 -6355.004877938274 0 -9936.406381573366 0 0
          -33992.334566785794 -9619.038145964201 0 12650.213899258833 0 0
          <InformationKey name="L2_NORM_RANGE" location="vtkDataArray" length="2">
            <Value index="0">
              7951.6124275
            </Value>
            <Value index="1">
              39232.263721
            </Value>
          </InformationKey>
        </DataArray>
        <DataArray type="Float64" Name="Nodal Strain" NumberOfComponents="6" format="ascii" RangeMin="0.0007835139502209767" RangeMax="0.0030370903513805493">
          -0.0024216248857506896 0.0010072259703093347 0 0.0013660448602111335 0 0
          0.002440727168463108 -0.0011464405130134625 0 -0.0013972984082494038 0 0
          -0.00237733969491409 0.0014110655365339683 0 0.0011423564136668325 0 0
          0.0022988300872871232 -0.0007366553805494975 0 -0.0014422930081198302 0 0
          -0.002048739839562604 0.0014742473727891168 0 0.0008169778306354206 0 0
          0.0019356985493424455 -0.0004804175495013284 0 -0.0012861734923467387 0 0
          -0.0014322320412511814 0.001303321873527349 0 0.0005039778078142511 0 0
          0.0013752606855543656 0.00022452852729816665 0 -0.001067205580267579 0 0
          -0.0008349585774413661 0.0013121977144479346 0 0.00006912502673434958 0 0
          0.0010053041946753482 0.00021651364722079092 0 -0.0007517785759294374 0 0
          -0.00043064672734579055 0.000597933256886388 0 -0.00026629556272397066 0 0
          0.0022967832222050965 -0.0014888383009920981 0 -0.0010646149694542892 0 0
          -0.002084486820985978 0.0005269377955306208 0 0.0013553800606348752 0 0
          <InformationKey name="L2_NORM_RANGE" location="vtkDataArray" length="2">
            <Value index="0">
              0.00078351395022
            </Value>
            <Value index="1">
              0.0030370903514
            </Value>
          </InformationKey>
        </DataArray>
        <DataArray type="Float64" Name="Sld_traction" NumberOfComponents="3" format="ascii" RangeMin="6373.405559612504" RangeMax="37694.9292393424">
          -36812.518958964225 4563.829848323195 0 -37619.68351786452 2380.5676580897566 0
          -34698.97175108184 -3035.2437453371867 0 -35948.628532321076 7988.158950497388 0
          -28175.97708450845 -8020.866997773766 0 -30221.12971013158 10174.279239902273 0
          -20317.265715197733 -9921.501770258721 0 -22589.33988475663 17334.857604386223 0
          -9712.297468448016 -15319.502198201957 0 -2198.455476392007 6511.859157504725 0
          1798.7973434088592 -6114.296896998444 0 -32483.48184458963 -5475.5297248604675 0
          -33254.67563610429 10799.890991437307 0
          <InformationKey name="L2_NORM_RANGE" location="vtkDataArray" length="2">
            <Value index="0">
              6373.4055596
            </Value>
            <Value index="1">
              37694.929239
            </Value>
          </InformationKey>
        </DataArray>
        <DataArray type="Float64" Name="Velocity" NumberOfComponents="3" format="ascii" RangeMin="2.28948881832788" RangeMax="14.139621873306726">
          -0.3260301652902265 -3.120085046572663 0 0.4731984881033088 -4.796301247866564 0
          -0.4738005025880173 -4.823435610407545 0 0.4958599286053556 -6.766658819526997 0
          -0.5193393133650679 -6.736920748370471 0 0.6632327296009313 -9.009819261398185 0
          -0.5882192561119735 -9.037810493202112 0 0.6625269410780547 -11.631677176679347 0
          -0.6211004370829232 -11.655674890268394 0 0.6200905265661798 -14.126018351218326 0
          -0.5673774123811934 -14.072015001772765 0 0.3180404516544772 -3.116707658681654 0
          -0.10915826447965155 -2.286885113542913 0
          <InformationKey name="L2_NORM_RANGE" location="vtkDataArray" length="2">
            <Value index="0">
              2.2894888183
            </Value>
            <Value index="1">
              14.139621873
            </Value>
          </InformationKey>
        </DataArray>
        <DataArray type="Float64" Name="Acceleration" NumberOfComponents="3" format="ascii" RangeMin="181.3933479971481" RangeMax="2535.189982928616">
          -181.57346955465766 -2528.679363757983 0 -472.19265471999734 -1872.4208757625029 0
          324.68404957083044 -1714.6736949497736 0 -71.01964298944768 -197.20430545419276 0
          150.59266161530053 -101.1207049284867 0 340.0633299252461 -1094.6052549215988 0
          -43.410740021387824 -1449.9995052412141 0 -401.49191966067906 -540.9390520701872 0
          -202.6615195668145 -806.2602047651549 0 97.45517859393226 -1489.6227633328272 0
          478.36502809904414 -207.8606479155269 0 -32.061516326658136 -2456.8161065087324 0
          -227.9719673679919 -1778.3898802510248 0
          <InformationKey name="L2_NORM_RANGE" location="vtkDataArray" length="2">
            <Value index="0">
              181.393348
            </Value>
            <Value index="1">
              2535.1899829
            </Value>
          </InformationKey>
        </DataArray>
        <DataArray type="Float64" Name="Sigma" NumberOfComponents="6" format="ascii" RangeMin="12023.636025430229" RangeMax="108741.72987722716">
          -101819.59508914343 -999.5804641293071 0 38164.57403758683 0 0
          99378.3154454504 -3120.79667688059 0 -39014.58687419603 0 0
          -91955.00591278408 11388.971979204573 0 35460.352528236144 0 0
          99061.00917903363 6459.085056252648 0 -36570.72174194301 0 0
          -74960.68065596934 18658.89577949098 0 28187.846355959606 0 0
          84186.31140357151 8395.487209989016 0 -30394.29735195839 0 0
          -49084.551359617166 17214.076551751932 0 20844.124554976137 0 0
          65589.85706588824 22495.31458600267 0 -23178.8671110129 0 0
          -24679.53707773626 28061.89082072024 0 10339.24971532224 0 0
          54800.478871565385 22196.444600115836 0 -12426.273512529813 0 0
          2046.833391924784 11178.296284088636 0 -3927.3386055769997 0 0
          86750.19226653173 -15743.976236082935 0 -33089.03186846 0 0
          -94454.45748148755 -8700.66599494703 0 32756.465075201857 0 0
          <InformationKey name="L2_NORM_RANGE" location="vtkDataArray" length="2">
            <Value index="0">
              12023.636025
            </Value>
            <Value index="1">
              108741.72988
            </Value>
          </InformationKey>
        </DataArray>
        <DataArray type="Float64" Name="Press" format="ascii" RangeMin="-13366.862320786287" RangeMax="9033.353849978186">
          -4309.557996361151 6030.362141052294 -7851.717980728874 2896.681421703822 -9287.310840880204 -799.1648830022806
          -10112.46831802814 -1190.6949324924367 -6310.898072673839 -11002.099914826165 -13366.862320786287 9033.353849978186
          -983.0132515060077
        </DataArray>
        <DataArray type="Float64" Name="Dev strain" NumberOfComponents="6" format="ascii" RangeMin="0.001027035765399059" RangeMax="0.0030084325183911322">
          -0.0024080396261425326 0.001020811229917492 0 0.0013660448602111335 0 0
          0.002369924620356514 -0.001217243061120057 0 -0.0013972984082494038 0 0
          -0.002249800737782833 0.0015386044936652255 0 0.0011423564136668325 0 0
          0.0023335526225696976 -0.0007019328452669227 0 -0.0014422930081198302 0 0
          -0.001841915380435713 0.0016810718319160071 0 0.0008169778306354206 0 0
          0.002060366886028811 -0.00035574921281496236 0 -0.0012861734923467387 0 0
          -0.0011933846053800135 0.0015421693093985167 0 0.0005039778078142511 0 0
          0.0015294040402394462 0.0003786718819832472 0 -0.001067205580267579 0 0
          -0.0005798088489607273 0.0015673474429285736 0 0.00006912502673434958 0 0
          0.0013231066636839688 0.0005343161162294118 0 -0.0007517785759294374 0 0
          -0.00003737241815764246 0.0009912075660745358 0 -0.00026629556272397066 0 0
          0.0021188963102559584 -0.0016667252129412356 0 -0.0010646149694542892 0 0
          -0.002194230514681245 0.0004171941018353542 0 0.0013553800606348752 0 0
          <InformationKey name="L2_NORM_RANGE" location="vtkDataArray" length="2">
            <Value index="0">
              0.0010270357654
            </Value>
            <Value index="1">
              0.0030084325184
            </Value>
          </InformationKey>
        </DataArray>
        <DataArray type="Float64" Name="J2 Stresses" format="ascii" RangeMin="68427914.50529793" RangeMax="5548248230.478308">
          5548248230.478308 5323428973.577983 4607075047.938327 5261756081.847901 3182267688.604857 3809862944.4959183
          1461428188.9680753 2538349234.2609363 724999654.5716386 1786490387.071498 68427914.50529793 4160455330.4992733
          4766919564.494613
        </DataArray>
      </PointData>
      <CellData>
        <DataArray type="UInt8" Name="vtkGhostType" format="ascii" RangeMin="0" RangeMax="1">
          1 1 0 0 0 0
          0 0 0 0 0
        </DataArray>
        <DataArray type="Float64" Name="Gauss Stress" NumberOfComponents="6" format="ascii" RangeMin="10458.199507986772" RangeMax="38627.58212017738">
          -35261.02590066276 -7234.480031016081 0 12610.6690814429 0 0
          31687.690205836014 -3036.7317941411666 0 -11313.014901689741 0 0
          -33509.06646417163 379.2270007189818 0 11536.779897208986 0 0
          -27365.674929875015 7421.53513834765 0 9025.825714084249 0 0
          35853.21476457573 5267.528646867959 0 -13374.9853626343 0 0
          -20019.28821797521 8023.1718331071015 0 6212.5578529924505 0 0
          33698.94854148572 8774.557914517995 0 -12925.724245980602 0 0
          -8596.097564886539 16719.073545093477 0 2668.169053095159 0 0
          29529.76299210658 12000.850071406925 0 -10909.679969331717 0 0
          495.97162582253804 10252.257132212804 0 -2004.7874675948574 0 0
          25735.701979908317 18083.31902894877 0 -8421.963636073491 0 0
          <InformationKey name="L2_NORM_RANGE" location="vtkDataArray" length="2">
            <Value index="0">
              10458.199508
            </Value>
            <Value index="1">
              38627.58212
            </Value>
          </InformationKey>
        </DataArray>
        <DataArray type="Float64" Name="Gauss Strain" NumberOfComponents="6" format="ascii" RangeMin="0.0008161849302121641" RangeMax="0.002985580170217764">
          -0.002260270420368194 0.0007425737799510924 0 0.0013511431158688822 0 0
          0.002371861150207614 -0.0013486126355042268 0 -0.0012121087394667577 0 0
          -0.00240704856889508 0.0012238400166289139 0 0.0012360835604152485 0 0
          -0.002219745892789203 0.00150745518594894 0 0.0009670527550804556 0 0
          0.0023728178886529825 -0.0009042199096728504 0 -0.0014330341459965327 0 0
          -0.0017164910096091977 0.0012880582815781936 0 0.0006656311985349055 0 0
          0.002093690684587624 -0.0005767797397303472 0 -0.0013848990263550644 0 0
          -0.0012111167383880913 0.001501223023395482 0 0.0002858752556887671 0 0
          0.0016806669968859374 -0.00019743081604616896 0 -0.0011688942824283983 0 0
          -0.0003307254957345617 0.0007145908085215383 0 -0.0002147986572423062 0 0
          0.0011924316046738523 0.000372533431356758 0 -0.0009023532467221599 0 0
          <InformationKey name="L2_NORM_RANGE" location="vtkDataArray" length="2">
            <Value index="0">
              0.00081618493021
            </Value>
            <Value index="1">
              0.0029855801702
            </Value>
          </InformationKey>
        </DataArray>
      </CellData>
      <Points>
        <DataArray type="Float32" Name="Points" NumberOfComponents="3" format="ascii" RangeMin="0.4000000059604645" RangeMax="1.0012492197622458">
          0.5 0 0 0.6000000238418579 0.05000000074505806 0
          0.6000000238418579 0 0 0.699999988079071 0.05000000074505806 0
          0.699999988079071 0 0 0.800000011920929 0.05000000074505806 0
          0.800000011920929 0 0 0.8999999761581421 0.05000000074505806 0
          0.8999999761581421 0 0 1 0.05000000074505806 0
          1 0 0 0.5 0.05000000074505806 0
          0.4000000059604645 0 0
          <InformationKey name="L2_NORM_RANGE" location="vtkDataArray" length="2">
            <Value index="0">
              0.40000000596
            </Value>
            <Value index="1">
              1.0012492198
            </Value>
          </InformationKey>
        </DataArray>
      </Points>
      <Cells>
        <DataArray type="Int64" Name="connectivity" format="ascii" RangeMin="0" RangeMax="12">
          0 11 12 1 11 0
          2 1 0 4 3 2
          3 1 2 6 5 4
          5 3 4 8 7 6
          7 5 6 10 9 8
          9 7 8
        </DataArray>
        <DataArray type="Int64" Name="offsets" format="ascii" RangeMin="3" RangeMax="33">
          3 6 9 12 15 18
          21 24 27 30 33
        </DataArray>
        <DataArray type="UInt8" Name="types" format="ascii" RangeMin="5" RangeMax="5">
          5 5 5 5 5 5
          5 5 5 5 5
        </DataArray>
      </Cells>
    </Piece>
  </UnstructuredGrid>
</VTKFile>
