<?xml version="1.0"?>
<VTKFile type="UnstructuredGrid" version="0.1" byte_order="LittleEndian" header_type="UInt32" compressor="vtkZLibDataCompressor">
  <UnstructuredGrid>
    <Piece NumberOfPoints="13" NumberOfCells="11">
      <PointData>
        <DataArray type="Float64" Name="Disp" NumberOfComponents="3" format="ascii" RangeMin="0.040311078672703206" RangeMax="0.20547440046451348">
          -0.006425231512427487 -0.06296757501700635 0 0.006754043130721888 -0.08941903384262168 0
          -0.0071066149995530434 -0.08949965255878493 0 0.007102835320536172 -0.11805323941760469 0
          -0.00743893862038132 -0.11812178770779444 0 0.007139645746124718 -0.14735296490923983 0
          -0.007468374692039169 -0.14738388773689037 0 0.007075931324264274 -0.17645077452853247 0
          -0.007396314280029511 -0.17644264081619726 0 0.007071975655874263 -0.20534259409204042 0
          -0.007370917195375698 -0.2053421506314526 0 0.006021872489524752 -0.06289870397737667 0
          -0.005373028609838581 -0.03995139080576199 0
          <InformationKey name="L2_NORM_RANGE" location="vtkDataArray" length="2">
            <Value index="0">
              0.040311078673
            </Value>
            <Value index="1">
              0.20547440046
            </Value>
          </InformationKey>
        </DataArray>
        <DataArray type="Float64" Name="Nodal Stress" NumberOfComponents="6" format="ascii" RangeMin="897.9986331048307" RangeMax="65902.7410649642">
          -26831.299115749032 18589.219980575795 0 8383.123056114737 0 0
          47719.212043308675 20192.722372629956 0 -17280.160933402876 0 0
          -12674.81635373482 20129.398126040367 0 3251.2585055070394 0 0
          32438.45436378811 19690.900491886103 0 -11571.817646958412 0 0
          -2321.2883353273223 17573.536229691512 0 -1053.503796680747 0 0
          17109.765609353675 12505.26634782003 0 -4648.932771149475 0 0
          887.1234731708145 8265.073376310182 0 -2193.209645694263 0 0
          4701.880093256174 2210.4311312595605 0 78.11733178062626 0 0
          -146.2328655888707 -335.4633866302215 0 -820.0498828183528 0 0
          -625.77174617075 -1574.4733179435245 0 696.4091331490514 0 0
          -578.3731769236259 -1270.7753243712523 0 7.774648449863158 0 0
          60073.58217313239 16964.784881158725 0 -21131.30565534552 0 0
          -43035.86968300792 11894.219555170972 0 14598.561570850567 0 0
          <InformationKey name="L2_NORM_RANGE" location="vtkDataArray" length="2">
            <Value index="0">
              897.9986331
            </Value>
            <Value index="1">
              65902.741065
            </Value>
          </InformationKey>
        </DataArray>
        <DataArray type="Float64" Name="Nodal Strain" NumberOfComponents="6" format="ascii" RangeMin="0.00007023659359333392" RangeMax="0.004514839386324669">
          -0.002580422079002638 0.002286062109889308 0 0.0008981917560122932 0 0
          0.002687346489785265 -0.0002619202606445984 0 -0.0018514458142931654 0 0
          -0.001624251101196786 0.001890486164493413 0 0.00034834912559003996 0 0
          0.0016137860084175042 0.0002479766649994325 0 -0.0012398376050312587 0 0
          -0.0007934326035837911 0.0013381557426682266 0 -0.0001128754067872229 0 0
          0.0007755094596745473 0.00028217025308165686 0 -0.0004980999397660152 0 0
          -0.00023181522964173392 0.0005586794028374839 0 -0.00023498674775295677 0 0
          0.0002569046091161711 -0.000010036351097751882 0 0.000008369714119352803 0 0
          0.0000015356305518742927 -0.000018739068131127592 0 -0.00008786248744482351 0 0
          0.000011533208057215134 -0.00009011338891843928 0 0.0000746152642659698 0 0
          0.000004072463233000016 -0.00007011348113638855 0 8.329980481996273e-7 0 0
          0.003685084980896645 -0.0009337147289576759 0 -0.002264068463072734 0 0
          -0.0034987842471852436 0.002386582456905352 0 0.0015641315968768462 0 0
          <InformationKey name="L2_NORM_RANGE" location="vtkDataArray" length="2">
            <Value index="0">
              7.0236593593e-05
            </Value>
            <Value index="1">
              0.0045148393863
            </Value>
          </InformationKey>
        </DataArray>
        <DataArray type="Float64" Name="Sld_traction" NumberOfComponents="3" format="ascii" RangeMin="954.0982115915727" RangeMax="57046.30091336271">
          -36838.97234578607 -17430.10862698156 0 -40186.68701185992 20584.869202177153 0
          -20928.601331098693 -19722.779919332632 0 -23841.286239234476 19308.69071586209 0
          -6314.672732734831 -17806.78944980171 0 -7684.872265172287 11427.029140370441 0
          2076.2533725146045 -9342.27651162526 0 1294.8183102763621 1675.7965479129127 0
          2369.8291124076623 -530.6328004840605 0 954.5060600734381 -526.5560739843645 0
          226.5027902641704 926.8224659365907 0 -54221.27311520638 17729.466705575927 0
          -49618.10944995058 -11828.89171030089 0
          <InformationKey name="L2_NORM_RANGE" location="vtkDataArray" length="2">
            <Value index="0">
              954.09821159
            </Value>
            <Value index="1">
              57046.300913
            </Value>
          </InformationKey>
        </DataArray>
        <DataArray type="Float64" Name="Velocity" NumberOfComponents="3" format="ascii" RangeMin="0.9733500040037157" RangeMax="17.392996798987586">
          0.05528962098116427 2.8963342552980262 0 0.4402174006603939 2.145005224985447 0
          -0.4017468761986313 2.1491001849263953 0 0.8787547097014492 -0.45230882334396716 0
          -0.8644984734827983 -0.4472724221768485 0 1.3652196345048886 -4.843359019598754 0
          -1.2857129450284974 -4.879421874386091 0 1.674495576066311 -10.880595680192652 0
          -1.5132198815935112 -10.940945388128155 0 1.626914510411918 -17.316740075008447 0
          -1.5465091221162959 -17.32329514105554 0 -0.03395633756497424 2.8531205420601933 0
          0.3056879783617438 2.012130728101539 0
          <InformationKey name="L2_NORM_RANGE" location="vtkDataArray" length="2">
            <Value index="0">
              0.973350004
            </Value>
            <Value index="1">
              17.392996799
            </Value>
          </InformationKey>
        </DataArray>
        <DataArray type="Float64" Name="Acceleration" NumberOfComponents="3" format="ascii" RangeMin="209.37523864338704" RangeMax="3781.0803351250156">
          -141.91514947941278 -1082.4649030829733 0 -788.4746900621615 -208.94722997716462 0
          57.66704489523261 -201.27717826426942 0 -995.5946669700102 2226.0373965626923 0
          382.85095855221994 2609.334048675455 0 109.32587052261238 3779.499484680951 0
          -331.7018388038391 2912.1184019588054 0 659.5950010664267 1915.2069258062675 0
          -819.1877268651226 828.7902601019719 0 -83.83658773535444 -3355.0250100956873 0
          -188.217358273002 105.10928145740854 0 -197.53404278532832 -911.1204509921363 0
          -115.9733869220288 -1153.212332227452 0
          <InformationKey name="L2_NORM_RANGE" location="vtkDataArray" length="2">
            <Value index="0">
              209.37523864
            </Value>
            <Value index="1">
              3781.0803351
            </Value>
          </InformationKey>
        </DataArray>
        <DataArray type="Float64" Name="Sigma" NumberOfComponents="6" format="ascii" RangeMin="2015.4413158868197" RangeMax="165210.738783584">
          -93109.64598338149 34440.85882488213 0 36020.19150844603 0 0
          117143.50725546658 22149.051355085772 0 -40248.19832502446 0 0
          -52157.50745784827 32786.16567043702 0 21107.10225174095 0 0
          74864.17829163025 24837.402389132367 0 -24137.15688697035 0 0
          -17940.008146516477 28540.485638567756 0 5123.0074711823545 0 0
          36565.62661029974 15901.757636104749 0 -6250.891562500986 0 0
          -2207.4024774085447 14085.146217412559 0 -3711.095740061359 0 0
          8758.709036019376 1968.6226854727865 0 3031.48954594058 0 0
          331.15970814113825 -461.31675871418884 0 -2736.144746024548 0 0
          -3270.2025993137686 -2763.3475217301584 0 1893.8432403968363 0 0
          -623.9977205050529 -1865.9913207644477 0 436.7000497135823 0 0
          154273.1100783912 18960.3894619314 0 -55990.17188409137 0 0
          -134980.17422309957 20433.70598861249 0 55845.96578919135 0 0
          <InformationKey name="L2_NORM_RANGE" location="vtkDataArray" length="2">
            <Value index="0">
              2015.4413159
            </Value>
            <Value index="1">
              165210.73878
            </Value>
          </InformationKey>
        </DataArray>
        <DataArray type="Float64" Name="Press" format="ascii" RangeMin="-15832.98883657327" RangeMax="1181.9541042294177">
          -15832.98883657327 -1463.08507456684 -12678.275310016532 -4023.210031827489 -9243.237552562765 -3992.3490506706667
          -4541.292223042771 -1858.2745422913495 -957.6882350184087 467.3256510478059 1181.9541042294177 990.7682717508903
          -10392.42454037909
        </DataArray>
        <DataArray type="Float64" Name="Dev strain" NumberOfComponents="6" format="ascii" RangeMin="0.00008776284203879437" RangeMax="0.004495477977197764">
          -0.002226215928778033 0.002640268260113912 0 0.0008981917560122932 0 0
          0.0028922080388943633 -0.00005705871153549961 0 -0.0018514458142931654 0 0
          -0.0012905651831550482 0.002224172082535151 0 0.00034834912559003996 0 0
          0.0018323506513977456 0.0004665413079796736 0 -0.0012398376050312587 0 0
          -0.0005294144160438144 0.0016021739302082036 0 -0.0001128754067872229 0 0
          0.0009463565978571483 0.00045301739126425776 0 -0.0004980999397660152 0 0
          -0.00008553568704720465 0.0007049589454320132 0 -0.00023498674775295677 0 0
          0.00033331125069204404 0.00006637029047812112 0 0.000008369714119352803 0 0
          0.00003691469397869244 0.00001663999529569054 0 -0.00008786248744482351 0 0
          0.000014758182628230886 -0.00008688841434742354 0 0.0000746152642659698 0 0
          -0.000012655622699930629 -0.00008684156706931921 0 8.329980481996273e-7 0 0
          0.003795445086088445 -0.0008233546237658759 0 -0.002264068463072734 0 0
          -0.003257581162323531 0.002627785541767065 0 0.0015641315968768462 0 0
          <InformationKey name="L2_NORM_RANGE" location="vtkDataArray" length="2">
            <Value index="0">
              8.7762842039e-05
            </Value>
            <Value index="1">
              0.0044954779772
            </Value>
          </InformationKey>
        </DataArray>
        <DataArray type="Float64" Name="J2 Stresses" format="ascii" RangeMin="1983325.115536836" RangeMax="12863569267.80629">
          5252153014.9493265 7511570251.123512 2009046563.158782 3256421460.0068955 574762907.7786325 804723883.9921746
          105075042.72955574 42592711.84448952 2032861.9698827793 10061817.838004565 1983325.115536836 12863569267.80629
          10098284860.59557
        </DataArray>
      </PointData>
      <CellData>
        <DataArray type="UInt8" Name="vtkGhostType" format="ascii" RangeMin="0" RangeMax="1">
          1 1 0 0 0 0
          0 0 0 0 0
        </DataArray>
        <DataArray type="Float64" Name="Gauss Stress" NumberOfComponents="6" format="ascii" RangeMin="1756.306010224433" RangeMax="60901.32096136255">
          -33017.11841109711 16200.103056741522 0 11958.661804515341 0 0
          54000.55523702904 19748.331334170027 0 -20072.7262335566 0 0
          -19365.998468973285 19800.575543082763 0 5626.365145054176 0 0
          -7059.353402380431 20073.11026791012 0 697.6509453176513 0 0
          40561.86922427923 20536.016332748102 0 -14426.084320084623 0 0
          -452.887613300496 13583.50355526962 0 -1612.9932771266635 0 0
          25410.333373450863 17340.283009581315 0 -8421.680326096328 0 0
          -158.2629112001864 2745.065714606208 0 -1138.5836467151094 0 0
          10908.33911763526 7187.8702409951 0 -2310.1659188739204 0 0
          -957.1496971396227 -1466.3546936499934 0 -135.2004853047099 0 0
          1157.009672861597 -1201.5595737445046 0 729.729346770956 0 0
          <InformationKey name="L2_NORM_RANGE" location="vtkDataArray" length="2">
            <Value index="0">
              1756.3060102
            </Value>
            <Value index="1">
              60901.320961
            </Value>
          </InformationKey>
        </DataArray>
        <DataArray type="Float64" Name="Gauss Strain" NumberOfComponents="6" format="ascii" RangeMin="0.00007378266386005403" RangeMax="0.003965572399406947">
          -0.002936940709961992 0.002336333018735005 0 0.0012812851933409297 0 0
          0.003151884969281717 -0.0005179961631674632 0 -0.0021506492393096356 0 0
          -0.002090449017179619 0.002105969626969243 0 0.0006028248369700901 0 0
          -0.0012211363240239635 0.0016859133549357384 0 0.00007474831556974842 0 0
          0.0021638472184217993 0.00001822012290060614 0 -0.0015456518914376384 0 0
          -0.0005174742422096646 0.000986424811565705 0 -0.00017282070826357107 0 0
          0.0011957279906185867 0.000331079737346849 0 -0.0009023228920817495 0 0
          -0.00010934255489309215 0.0002017283693004501 0 -0.00012199110500519027 0 0
          0.0005224574283669793 0.0001238357630126765 0 -0.0002475177770222058 0 0
          -0.000015998025022473312 -0.000070555703220013 0 -0.000014485766282647491 0 0
          0.00012555638998098924 -0.00012714745786966453 0 0.000078185287154031 0 0
          <InformationKey name="L2_NORM_RANGE" location="vtkDataArray" length="2">
            <Value index="0">
              7.378266386e-05
            </Value>
            <Value index="1">
              0.0039655723994
            </Value>
          </InformationKey>
        </DataArray>
      </CellData>
      <Points>
        <DataArray type="Float32" Name="Points" NumberOfComponents="3" format="ascii" RangeMin="0.4000000059604645" RangeMax="1.0012492197622458">
          0.5 0 0 0.6000000238418579 0.05000000074505806 0
          0.6000000238418579 0 0 0.699999988079071 0.05000000074505806 0
          0.699999988079071 0 0 0.800000011920929 0.05000000074505806 0
          0.800000011920929 0 0 0.8999999761581421 0.05000000074505806 0
          0.8999999761581421 0 0 1 0.05000000074505806 0
          1 0 0 0.5 0.05000000074505806 0
          0.4000000059604645 0 0
          <InformationKey name="L2_NORM_RANGE" location="vtkDataArray" length="2">
            <Value index="0">
              0.40000000596
            </Value>
            <Value index="1">
              1.0012492198
            </Value>
          </InformationKey>
        </DataArray>
      </Points>
      <Cells>
        <DataArray type="Int64" Name="connectivity" format="ascii" RangeMin="0" RangeMax="12">
          0 11 12 1 11 0
          2 1 0 4 3 2
          3 1 2 6 5 4
          5 3 4 8 7 6
          7 5 6 10 9 8
          9 7 8
        </DataArray>
        <DataArray type="Int64" Name="offsets" format="ascii" RangeMin="3" RangeMax="33">
          3 6 9 12 15 18
          21 24 27 30 33
        </DataArray>
        <DataArray type="UInt8" Name="types" format="ascii" RangeMin="5" RangeMax="5">
          5 5 5 5 5 5
          5 5 5 5 5
        </DataArray>
      </Cells>
    </Piece>
  </UnstructuredGrid>
</VTKFile>
