<?xml version="1.0"?>
<VTKFile type="UnstructuredGrid" version="0.1" byte_order="LittleEndian" header_type="UInt32" compressor="vtkZLibDataCompressor">
  <UnstructuredGrid>
    <Piece NumberOfPoints="13" NumberOfCells="14">
      <PointData>
        <DataArray type="Float64" Name="Disp" NumberOfComponents="3" format="ascii" RangeMin="0" RangeMax="0.1443191590995999">
          0.07772597113178631 -0.010193940470797677 0 0.12695207622316274 0.009233042038108461 0
          0.023857658864666863 -0.01124541284816035 0 0.050298700175471514 0.0009303513009598326 0
          0 0 0 0.07610311026491286 0.012783517111971432 0
          0.008706033649964228 -0.00002955918179448787 0 0.024426295476397106 0.012001938122819914 0
          0 0 0 0.10323108753083968 0.0015676992632847706 0
          0.1366561588907162 0.002648793224124299 0 0.1442095020918385 0.005624872410966278 0
          0.12772665812487188 -0.0044130377208724345 0
          <InformationKey name="L2_NORM_RANGE" location="vtkDataArray" length="2">
            <Value index="0">
              0
            </Value>
            <Value index="1">
              0.1443191591
            </Value>
          </InformationKey>
        </DataArray>
        <DataArray type="Float64" Name="Nodal Stress" NumberOfComponents="6" format="ascii" RangeMin="3.0901255009359994" RangeMax="59.16717318632735">
          0.9484265661006888 17.955194773933467 0 3.104145201480634 0 0
          -1.236400490017445 -7.953378660013708 0 0.18939523759459617 0 0
          -1.617069006302183 -16.835859591559295 0 4.540339937560381 0 0
          -1.7656871382679669 9.268266930796552 0 10.344974604687337 0 0
          14.828036912302853 -33.06743358171482 0 24.32626688836837 0 0
          -1.5390645449927922 -0.12553116473521833 0 2.676639285477464 0 0
          3.388239422714749 8.537563813595117 0 13.650746774885711 0 0
          -1.867350793285215 34.06448202058381 0 5.352604063439772 0 0
          1.1511156437113226 53.795437316835354 0 24.606508072583065 0 0
          -0.2700166515897519 8.71255052924101 0 1.7659780358591657 0 0
          1.2089515295325997 6.925600081920987 0 -2.6754136709402814 0 0
          -0.33467580432650645 -5.014310281214733 0 -1.155297622656321 0 0
          0.8080523484644416 23.635189513908948 0 0.8471507326988171 0 0
          <InformationKey name="L2_NORM_RANGE" location="vtkDataArray" length="2">
            <Value index="0">
              3.0901255009
            </Value>
            <Value index="1">
              59.167173186
            </Value>
          </InformationKey>
        </DataArray>
        <DataArray type="Float64" Name="Nodal Strain" NumberOfComponents="6" format="ascii" RangeMin="0" RangeMax="0">
          0 0 0 0 0 0
          0 0 0 0 0 0
          0 0 0 0 0 0
          0 0 0 0 0 0
          0 0 0 0 0 0
          0 0 0 0 0 0
          0 0 0 0 0 0
          0 0 0 0 0 0
          0 0 0 0 0 0
          0 0 0 0 0 0
          0 0 0 0 0 0
          0 0 0 0 0 0
          0 0 0 0 0 0
          <InformationKey name="L2_NORM_RANGE" location="vtkDataArray" length="2">
            <Value index="0">
              0
            </Value>
            <Value index="1">
              0
            </Value>
          </InformationKey>
        </DataArray>
        <DataArray type="Float64" Name="Sld_traction" NumberOfComponents="3" format="ascii" RangeMin="0" RangeMax="31.969059957077953">
          1.6266443954673018 0.03388542527594769 0 2.5333207221970424 -0.6567984643358267 0
          0.5755933290777895 4.011232397479272 0 0 0 0
          -1.7970525998338873 22.201133409186717 0 2.6670816162040536 0.08323603730967112 0
          0 0 0 2.2124475492210953 -3.7164851301543895 0
          -10.129402910268 -30.321873148285203 0 0 0 0
          0 0 0 2.250304454787775 -0.23421536352736827 0
          1.9308891228675333 1.0295467765336845 0
          <InformationKey name="L2_NORM_RANGE" location="vtkDataArray" length="2">
            <Value index="0">
              0
            </Value>
            <Value index="1">
              31.969059957
            </Value>
          </InformationKey>
        </DataArray>
        <DataArray type="Float64" Name="Fld_traction" NumberOfComponents="3" format="ascii" RangeMin="0" RangeMax="3.341824362524392">
          1.9594636704009811 -0.04035115837693875 0 2.9206665707378123 -0.02621550579946419 0
          1.464607285966658 -0.024873727109919575 0 0 0 0
          0.59263850768829 0.5086546114621652 0 2.914039055212654 -0.02940598691136109 0
          0 0 0 3.341362407840806 0.05556374204326304 0
          1.7368981431633927 -1.7835973749417307 0 0 0 0
          0 0 0 2.0379655574373903 0.20900497062754936 0
          2.8828261626431138 0.20493125971854798 0
          <InformationKey name="L2_NORM_RANGE" location="vtkDataArray" length="2">
            <Value index="0">
              0
            </Value>
            <Value index="1">
              3.3418243625
            </Value>
          </InformationKey>
        </DataArray>
        <DataArray type="Float64" Name="Velocity" NumberOfComponents="3" format="ascii" RangeMin="0" RangeMax="0.36104505195230574">
          0.18398468136641097 -0.03431205672874852 0 0.31714169836741835 0.012976002314548346 0
          0.04919545086413449 -0.027382402832745775 0 0.1130787339561593 -0.0020270369187343346 0
          0 0 0 0.17793511379915472 0.027514513583120556 0
          0.01685245566327233 -0.00013169975185769152 0 0.04867375116475771 0.025677502002678453 0
          0 0 0 0.2530252496906402 -0.00513892914845813 0
          0.3428751350939576 -0.006743304858883643 0 0.36104418349457823 -0.0007918989685943394 0
          0.3211144867159638 -0.024047630745843308 0
          <InformationKey name="L2_NORM_RANGE" location="vtkDataArray" length="2">
            <Value index="0">
              0
            </Value>
            <Value index="1">
              0.36104505195
            </Value>
          </InformationKey>
        </DataArray>
        <DataArray type="Float64" Name="Sigma" NumberOfComponents="6" format="ascii" RangeMin="7.140814349451987" RangeMax="89.40789265809528">
          -15.573013452614948 15.573013452615328 0 0.909039282680147 0 0
          11.890678852890328 -11.89067885289077 0 0.48796254249699644 0 0
          21.364316143264084 -21.36431614326407 0 -3.1532730985469275 0 0
          -5.902194393159251 5.902194393159915 0 21.500827219358285 0 0
          58.068941019157826 -58.06894101915706 0 35.35205011578135 0 0
          6.959737824374929 -6.959737824374772 0 -0.26154646381723307 0 0
          -2.318217249160316 2.318217249159764 0 10.63160906868736 0 0
          -33.62486788679699 33.624867886796835 0 -0.724025530124454 0 0
          -57.66851003416575 57.668510034166445 0 35.21176808165313 0 0
          -4.69944951874179 4.6994495187422745 0 2.7790065321970965 0 0
          -2.3804404993034662 2.3804404993038855 0 -6.297478513809248 0 0
          7.033267552435788 -7.033267552435438 0 0.33224375274609935 0 0
          -20.422366231440392 20.422366231439902 0 1.8771206971870102 0 0
          <InformationKey name="L2_NORM_RANGE" location="vtkDataArray" length="2">
            <Value index="0">
              7.1408143495
            </Value>
            <Value index="1">
              89.407892658
            </Value>
          </InformationKey>
        </DataArray>
        <DataArray type="Float64" Name="Press" format="ascii" RangeMin="-28.60310775499015" RangeMax="50.93601984402153">
          19.408876320531242 -14.157964956509383 -28.60310775499015 4.22064026641167 -26.15473124570887 -10.143164741882485
          4.78837660752316 32.806016454642574 50.93601984402153 4.394139375728532 4.594348407037334 -9.919015929393993
          21.100341306926236
        </DataArray>
      </PointData>
      <CellData>
        <DataArray type="UInt8" Name="vtkGhostType" format="ascii" RangeMin="0" RangeMax="1">
          0 0 1 1 1 1
          1 1 0 0 0 0
          0 0
        </DataArray>
        <DataArray type="Float64" Name="Gauss Stress" NumberOfComponents="6" format="ascii" RangeMin="6.8338552781192785" RangeMax="62.5719900149675">
          -1.6948276235191164 -1.6208998218453505 0 6.418864467830503 0 0
          -0.343039392112948 9.333940622153628 0 7.3827733460737335 0 0
          0.11570860246515971 8.990858700453371 0 1.1421664503533366 0 0
          -0.9797088576144641 -12.008712794962785 0 -1.8257574061887183 0 0
          0.20819895986688597 7.482950878435739 0 -1.3107984247084135 0 0
          -0.6315403903821561 8.189217541145602 0 1.7146965906270344 0 0
          1.4028426001296255 28.532728735327836 0 1.855055504021418 0 0
          -1.9186743880466235 -11.35265249372887 0 1.0018075369589532 0 0
          9.217292980555857 10.495817156668336 0 27.06514242204062 0 0
          9.048525840028578 -42.361500768812405 0 14.27679536197393 0 0
          -1.6937274213119318 60.71400269210344 0 15.039783873405351 0 0
          -1.8624945618392095 7.856684766622708 0 2.2514368133386613 0 0
          -3.24639905687602 8.862098367585604 0 5.874509530228968 0 0
          -1.8946108254698517 19.816938811584592 0 6.838418408472199 0 0
          <InformationKey name="L2_NORM_RANGE" location="vtkDataArray" length="2">
            <Value index="0">
              6.8338552781
            </Value>
            <Value index="1">
              62.571990015
            </Value>
          </InformationKey>
        </DataArray>
        <DataArray type="Float64" Name="Gauss Strain" NumberOfComponents="6" format="ascii" RangeMin="0" RangeMax="0">
          0 0 0 0 0 0
          0 0 0 0 0 0
          0 0 0 0 0 0
          0 0 0 0 0 0
          0 0 0 0 0 0
          0 0 0 0 0 0
          0 0 0 0 0 0
          0 0 0 0 0 0
          0 0 0 0 0 0
          0 0 0 0 0 0
          0 0 0 0 0 0
          0 0 0 0 0 0
          0 0 0 0 0 0
          0 0 0 0 0 0
          <InformationKey name="L2_NORM_RANGE" location="vtkDataArray" length="2">
            <Value index="0">
              0
            </Value>
            <Value index="1">
              0
            </Value>
          </InformationKey>
        </DataArray>
        <DataArray type="Float64" Name="Btraction" NumberOfComponents="3" format="ascii" RangeMin="0" RangeMax="2.0851520512669497">
          1.1413569854558794 -0.021741628495619433 0 0 0 0
          0 0 0 1.6528773760584006 0.060929821609361716 0
          0 0 0 0 0 0
          1.614096611014698 0.05486003378053641 0 1.9449018753168217 -0.01854049757027509 0
          0 0 0 0.6857485978849824 0.1612602947840818 0
          1.6927535170013992 -0.5760112109661559 0 0 0 0
          0 0 0 2.08513382101782 0.008719251710633983 0
          <InformationKey name="L2_NORM_RANGE" location="vtkDataArray" length="2">
            <Value index="0">
              0
            </Value>
            <Value index="1">
              2.0851520513
            </Value>
          </InformationKey>
        </DataArray>
      </CellData>
      <Points>
        <DataArray type="Float32" Name="Points" NumberOfComponents="3" format="ascii" RangeMin="10" RangeMax="13.021927811442218">
          11 3.7184319496154785 0 10 6.2815680503845215 0
          11 1.6591010093688965 0 10.5 2.6568450927734375 0
          11 0 0 10 3.61250901222229 0
          10.5 0.8241099119186401 0 10 1.6373380422592163 0
          10 0 0 10.5 5 0
          10.5 7.3431549072265625 0 10 8.340899467468262 0
          11 6.387491226196289 0
          <InformationKey name="L2_NORM_RANGE" location="vtkDataArray" length="2">
            <Value index="0">
              10
            </Value>
            <Value index="1">
              13.021927811
            </Value>
          </InformationKey>
        </DataArray>
      </Points>
      <Cells>
        <DataArray type="Int64" Name="connectivity" format="ascii" RangeMin="0" RangeMax="12">
          3 2 0 5 3 0
          5 0 9 10 11 1
          12 10 1 12 1 9
          9 0 12 5 9 1
          8 4 6 6 4 2
          8 6 7 6 2 7
          7 2 3 7 3 5
        </DataArray>
        <DataArray type="Int64" Name="offsets" format="ascii" RangeMin="3" RangeMax="42">
          3 6 9 12 15 18
          21 24 27 30 33 36
          39 42
        </DataArray>
        <DataArray type="UInt8" Name="types" format="ascii" RangeMin="5" RangeMax="5">
          5 5 5 5 5 5
          5 5 5 5 5 5
          5 5
        </DataArray>
      </Cells>
    </Piece>
  </UnstructuredGrid>
</VTKFile>
