<?xml version="1.0"?>
<VTKFile type="UnstructuredGrid" version="0.1" byte_order="LittleEndian" header_type="UInt32" compressor="vtkZLibDataCompressor">
  <UnstructuredGrid>
    <Piece NumberOfPoints="11" NumberOfCells="12">
      <PointData>
        <DataArray type="Float64" Name="Disp" NumberOfComponents="3" format="ascii" RangeMin="0.6266335953510954" RangeMax="2.550004913668547">
          2.4929401616212314 -0.5036058878886843 0 1.982656413845029 -0.42135494060483675 0
          1.377212258131257 -0.3209465197702352 0 2.2607305243744444 -0.3066444528203063 0
          1.6933059688234253 -0.21701869001469964 0 2.5427941864997057 -0.19163189932011204 0
          2.025087769560891 -0.11016303213299014 0 0.9997249199811976 -0.112793716690755 0
          0.622269442255153 0.07382685187722139 0 0.6149107333708268 -0.19258170811525713 0
          1.3910857428266785 -0.017494918334394843 0
          <InformationKey name="L2_NORM_RANGE" location="vtkDataArray" length="2">
            <Value index="0">
              0.62663359535
            </Value>
            <Value index="1">
              2.5500049137
            </Value>
          </InformationKey>
        </DataArray>
        <DataArray type="Float64" Name="Sld_traction" NumberOfComponents="3" format="ascii" RangeMin="0" RangeMax="78.20673199335408">
          3.107934774008421 2.590368869154993 0 9.71812504620556 6.9110279343763 0
          24.424788747774254 15.9534404851403 0 0 0 0
          0 0 0 0.1902726520588651 -1.7419299109718214 0
          6.2800107435936905 -12.20258420450216 0 0 0 0
          54.84271119559152 -55.75455100525206 0 68.79372866348572 23.751001935110576 0
          22.061242384345988 -32.023781584921245 0
          <InformationKey name="L2_NORM_RANGE" location="vtkDataArray" length="2">
            <Value index="0">
              0
            </Value>
            <Value index="1">
              78.206731993
            </Value>
          </InformationKey>
        </DataArray>
        <DataArray type="Float64" Name="Fld_traction" NumberOfComponents="3" format="ascii" RangeMin="0" RangeMax="4.7540141870170025">
          2.159779193358782 0.35602488574893504 0 3.1610112499553087 -0.9883220980494299 0
          3.2236813290571558 -0.9645921402106611 0 0 0 0
          0 0 0 0.8402159209716141 0.6200670587954457 0
          2.887410042502992 -0.6542620706012319 0 0 0 0
          0 0 0 3.220091803358255 -0.8361683529188432 0
          4.589064197177745 -1.2414268744232622 0
          <InformationKey name="L2_NORM_RANGE" location="vtkDataArray" length="2">
            <Value index="0">
              0
            </Value>
            <Value index="1">
              4.754014187
            </Value>
          </InformationKey>
        </DataArray>
        <DataArray type="Float64" Name="Velocity" NumberOfComponents="3" format="ascii" RangeMin="0.01476207486267924" RangeMax="0.041927672536044264">
          -0.03863581416431994 0.0034484829880951917 0 -0.02702260970612036 -0.0022953284125651896 0
          -0.016907527905007047 -0.007928863241721183 0 -0.03434738138813209 -0.0028358670875313213 0
          -0.022656922541476776 -0.0077019010290073076 0 -0.04176074562807308 -0.003737626101837324 0
          -0.02934965940482659 -0.008677532215859207 0 -0.015181158345283552 -0.008634054657410628 0
          -0.012518283850130207 -0.007823772983600402 0 -0.013353300845989347 -0.006881842304494082 0
          -0.01707155825711193 -0.010894328972620479 0
          <InformationKey name="L2_NORM_RANGE" location="vtkDataArray" length="2">
            <Value index="0">
              0.014762074863
            </Value>
            <Value index="1">
              0.041927672536
            </Value>
          </InformationKey>
        </DataArray>
      </PointData>
      <CellData>
        <DataArray type="UInt8" Name="vtkGhostType" format="ascii" RangeMin="0" RangeMax="0">
          0 0 0 0 0 0
          0 0 0 0 0 0
        </DataArray>
        <DataArray type="Float64" Name="Gauss Stress" NumberOfComponents="6" format="ascii" RangeMin="2.601835380450664" RangeMax="126.12430155055868">
          1.1534831390688214 2.2948185483951304 0 0.4157304713278261 0 0
          2.205673118212244 5.605154472848396 0 6.241165903113824 0 0
          5.109342455293199 -5.838386880208784 0 0.9907726360846556 0 0
          6.228294514871937 -2.4192224649338137 0 6.831810298438931 0 0
          -4.381211612681075 10.198366124157712 0 -9.352464412995715 0 0
          36.325984427660494 -51.16656946807994 0 109.4063273574512 0 0
          -3.262786085627159 23.554712476719974 0 27.185692672089075 0 0
          14.813073684605758 -32.88747196055221 0 0.26402675754723115 0 0
          16.965770327469336 -17.4756424246884 0 36.92612619938199 0 0
          -16.43152236300235 35.65048247155031 0 -49.047404161201555 0 0
          33.051023800651535 -75.7651800988047 0 -1.737561964051735 0 0
          -13.307251826998078 56.86076401836324 0 61.09935117507719 0 0
          <InformationKey name="L2_NORM_RANGE" location="vtkDataArray" length="2">
            <Value index="0">
              2.6018353805
            </Value>
            <Value index="1">
              126.12430155
            </Value>
          </InformationKey>
        </DataArray>
        <DataArray type="Float64" Name="Gauss Strain" NumberOfComponents="6" format="ascii" RangeMin="0.00020917896753731727" RangeMax="0.022794695516245755">
          0.00006610005318602452 0.0001802111719013677 0 0.00008312975971767548 0 0
          0.00010838943349861238 0.00044816503127281804 0 0.0012475996508386593 0 0
          0.0005208735538549392 -0.0005740114834061893 0 0.00019817481805274443 0 0
          0.0005672100057004803 -0.0002973503202543526 0 0.0013660596798533175 0 0
          -0.0005233456893154464 0.0009340818388482994 0 -0.001869812601942618 0 0
          0.0036122478415845927 -0.00514845277316911 0 0.021909889165666017 0 0
          -0.0006298597846452481 0.002048170866328635 0 0.00542959799733384 0 0
          0.0017330573227206103 -0.0030434316765893805 0 0.000052876581845802984 0 0
          0.0016755876413404587 -0.0017689325542278311 0 0.007386037753628694 0 0
          -0.0019670443082216993 0.003234493657403802 0 -0.00979693219069838 0 0
          0.0038821121359823288 -0.007033700123230235 0 -0.00034860433480775387 0 0
          -0.002026632871350297 0.004969175842390983 0 0.012183310820603801 0 0
          <InformationKey name="L2_NORM_RANGE" location="vtkDataArray" length="2">
            <Value index="0">
              0.00020917896754
            </Value>
            <Value index="1">
              0.022794695516
            </Value>
          </InformationKey>
        </DataArray>
        <DataArray type="Float64" Name="Btraction" NumberOfComponents="3" format="ascii" RangeMin="0" RangeMax="2.5710201959727477">
          0.9999983714434653 0.32536398151479345 0 1.2425419878248687 -0.011398337268595377 0
          1.7735968144380299 -0.21076573743349827 0 0 0 0
          0 0 0 0 0 0
          2.4921580798935783 -0.6318963150081645 0 2.128230859670821 -0.6509714127533635 0
          0 0 0 0 0 0
          2.147924377471803 -0.6002534977098346 0 0 0 0
          <InformationKey name="L2_NORM_RANGE" location="vtkDataArray" length="2">
            <Value index="0">
              0
            </Value>
            <Value index="1">
              2.571020196
            </Value>
          </InformationKey>
        </DataArray>
      </CellData>
      <Points>
        <DataArray type="Float32" Name="Points" NumberOfComponents="3" format="ascii" RangeMin="10.632507764558053" RangeMax="14.866068747318506">
          11 10 0 11 8.362662315368652 0
          11 6.387491226196289 0 10.5 9.17588996887207 0
          10.5 7.3431549072265625 0 10 10 0
          10 8.340899467468262 0 10.5 5 0
          10 3.61250901222229 0 11 3.7184319496154785 0
          10 6.2815680503845215 0
          <InformationKey name="L2_NORM_RANGE" location="vtkDataArray" length="2">
            <Value index="0">
              10.632507765
            </Value>
            <Value index="1">
              14.866068747
            </Value>
          </InformationKey>
        </DataArray>
      </Points>
      <Cells>
        <DataArray type="Int64" Name="connectivity" format="ascii" RangeMin="0" RangeMax="10">
          0 5 3 3 5 6
          0 3 1 3 6 1
          1 6 4 8 9 7
          4 6 10 1 4 2
          2 4 10 2 10 7
          7 9 2 8 7 10
        </DataArray>
        <DataArray type="Int64" Name="offsets" format="ascii" RangeMin="3" RangeMax="36">
          3 6 9 12 15 18
          21 24 27 30 33 36
        </DataArray>
        <DataArray type="UInt8" Name="types" format="ascii" RangeMin="5" RangeMax="5">
          5 5 5 5 5 5
          5 5 5 5 5 5
        </DataArray>
      </Cells>
    </Piece>
  </UnstructuredGrid>
</VTKFile>
