<?xml version="1.0"?>
<VTKFile type="UnstructuredGrid" version="0.1" byte_order="LittleEndian" header_type="UInt32" compressor="vtkZLibDataCompressor">
  <UnstructuredGrid>
    <Piece NumberOfPoints="50" NumberOfCells="69">
      <PointData>
        <DataArray type="Float64" Name="Velocity" NumberOfComponents="3" format="ascii" RangeMin="0.5278186027057306" RangeMax="1.6494225533031686">
          0.871600945518038 0.21008339942570117 0 1.060012081438949 0 0
          0.9270241279018547 -0.012269893992713665 0 0.972888639900872 0.004238948028949394 0
          1.0605320856150542 -0.0030972178773762127 0 1.0277936006922748 0 0
          0.934236619970204 -0.1814817070906451 0 0.9325186011271442 0 0
          1.027218241830828 0.007838430749095147 0 0.991693591468709 -0.0038627735607607732 0
          1.0178848797593503 0 0 0.9651717928622201 0 0
          1.0017981647206622 0 0 1.0214614144317378 0 0
          0.9940201475069048 -0.010528527922610643 0 1.0158412370846583 -0.01561579765595962 0
          0.9901605654029442 0 0 1.0399979250463929 0 0
          0.9833092407153643 -0.018430260168218585 0 1.003978786196284 -0.031499230257608625 0
          1.0403671994569095 -0.028217246717874036 0 0.965021502857381 0 0
          1.0795599302336403 0 0 0.9622706045813757 -0.029307398170093965 0
          1.0007011091956175 -0.07922108009992328 0 1.080123114471861 -0.04944190901746924 0
          0.9252783727200804 0 0 1.1437370552221897 0 0
          0.9195391122085669 -0.05023584468589573 0 1.059816876979494 -0.1598506080186259 0
          0.9482099830363775 -0.1512202070291654 0 1.160571858235296 -0.0922850024388517 0
          0.861487426404731 0 0 1.251470178541121 0 0
          1.1459017323039669 -0.2342306616634691 0 0.9518388083293682 -0.2815802530577842 0
          0.8128689187915558 -0.1445636301490615 0 0.7287685345592636 0 0
          1.3493440114227584 -0.26935609894117796 0 1.444852349230535 0 0
          1.0767593103477868 -0.406037308809165 0 1.5473885806767576 -0.16399553734983455 0
          1.5685482408516784 -0.3504689568616606 0 0.6122199740223936 -0.20292516024313137 0
          0.5278186027057306 0 0 1.6494225533031686 0 0
          0.7598876821851911 -0.36429147936695905 0 1.2191476505050822 -0.6922661374744616 0
          0.9148140524289141 -0.6425929691866908 0 1.347518949580379 -0.40912910772795813 0
          <InformationKey name="L2_NORM_RANGE" location="vtkDataArray" length="2">
            <Value index="0">
              0.52781860271
            </Value>
            <Value index="1">
              1.6494225533
            </Value>
          </InformationKey>
        </DataArray>
        <DataArray type="Float64" Name="Pressure" format="ascii" RangeMin="-0.3453011672836595" RangeMax="0.227988452048002">
          0.017192266543001232 0.016535836346737824 -0.016168242250581614 0.05688430505614787 0.029723320792125155 0.031826044093483906
          0.08504230873736557 0.0655247841433474 0.014029040781165607 0.043457086851005335 0.05337664491520026 0.023032611299826988
          0.048901544074436955 0.09749033256340561 0.09598495402618466 0.12068217488855254 0.09856161995631578 0.13183893150676526
          0.12469261212988741 0.1378291878357061 0.13863473271649107 0.141956859203384 0.1436087382292802 0.1549533091714404
          0.1664554993800678 0.14492851167248993 0.17345262749415408 0.14823806345330928 0.18293150820357326 0.15124491101654544
          0.177706897109523 0.15300121246541937 0.21515939811650278 0.08788554828292588 0.13452117410473938 0.13118279147465386
          0.1988126316559504 0.227988452048002 0.012743247892625804 -0.03232770154378623 0.011038685545240397 -0.15143916944582292
          -0.3453011672836595 0.1491385284073161 0.18760428567528906 -0.1999750846404387 0.06093117642414346 -0.2582032867676158
          -0.1223964879916329 -0.16728294751682127
        </DataArray>
        <DataArray type="Float64" Name="BTraction" NumberOfComponents="3" format="ascii" RangeMin="0" RangeMax="0.23856134203011775">
          -0.006108488078711844 -0.0018005154791077042 0 0.0028039640926502516 -0.014864407982947123 0
          -0.013241547737449188 0.0009579876584591692 0 0 0 0
          0 0 0 0.0013105964180025313 -0.03289701337507291 0
          -0.030331715533978346 0.036470649611386886 0 -0.0022542162274620053 0.06262503327701659 0
          0 0 0 0 0 0
          0.0006272814295565421 -0.0568362306181689 0 -0.0031296177017097965 0.034271612436691634 0
          -0.0010361533816195697 0.05281652543080641 0 0.0006499982274557892 -0.09358415623259758 0
          0 0 0 0 0 0
          -0.00023007440791374253 0.09666977673661735 0 0.0008948690690301367 -0.1250615779975075 0
          0 0 0 0 0 0
          0 0 0 -0.0006016701342692095 0.14035224242377678 0
          0.0013054614848875378 -0.1380853937491412 0 0 0 0
          0 0 0 0 0 0
          -0.0010072265937784823 0.17798565528622085 0 0.0017061841433345768 -0.13022207782434778 0
          0 0 0 0 0 0
          0 0 0 0 0 0
          -0.0016844539990395597 0.21874949371640012 0 0.0019530918806348176 -0.06325723024321304 0
          0 0 0 0 0 0
          0 0 0 -0.003379230685880666 0.2385374073624144 0
          0 0 0 0.0013778191591930133 0.06481316709739945 0
          0 0 0 0 0 0
          0 0 0 0 0 0
          -0.004283724183569742 0.21020887272352187 0 -0.0018783527889829434 0.17926971849342235 0
          0 0 0 0 0 0
          0 0 0 0 0 0
          <InformationKey name="L2_NORM_RANGE" location="vtkDataArray" length="2">
            <Value index="0">
              0
            </Value>
            <Value index="1">
              0.23856134203
            </Value>
          </InformationKey>
        </DataArray>
        <DataArray type="Float64" Name="ALEdispl" NumberOfComponents="3" format="ascii" RangeMin="0" RangeMax="0.48246777699924426">
          0 0 0 0 0 0
          0 0 0 0.04934690927801708 0.008233519276031614 0
          0.03227173726653444 -0.012711917820417855 0 0 0 0
          0 0 0 0 0 0
          0.04608817005045005 -0.004455183576042268 0 0.07875138895265481 0.0010957475911582831 0
          0 0 0 0 0 0
          0 0 0 0 0 0
          0.13902970943081766 0.003044671574886747 0 0.10110497224034475 0.018475636854036373 0
          0 0 0 0 0 0
          0.10269076070935908 -0.0313372773813659 0 0.20295672206743567 -0.011079432906631607 0
          0.10892027522725936 0.025544366097577043 0 0 0 0
          0 0 0 0.11386978594355911 -0.0462597221916559 0
          0.2593216708667461 -0.028828720246960367 0 0.1346983420312718 0.02636446949649096 0
          0 0 0 0 0 0
          0.14551900224051376 -0.061360338871628124 0 0.2903970470713357 -0.032321650628458626 0
          0.2780522430071306 -0.07846732367126297 0 0.1764470373626772 0.021228678883964503 0
          0 0 0 0 0 0
          0.3199904220003142 -0.04005966596018103 0 0.3437056389645317 -0.10744631827116599 0
          0.19584014634553829 -0.1016285116073636 0 0 0 0
          0.33166230822050236 -0.009291258160057402 0 0 0 0
          0.4268244010685754 -0.1110715543085842 0 0.20383924538467402 -0.004584213843389034 0
          0.399687821405774 -0.0489216884078893 0 0.16820318964194356 -0.10924785694955257 0
          0 0 0 0 0 0
          0.33705223689039626 -0.16091000806901062 0 0.46614832424287955 -0.12442224740032515 0
          0.4211571733616445 -0.15038982085612612 0 0.41535485150556944 -0.05908577824723824 0
          <InformationKey name="L2_NORM_RANGE" location="vtkDataArray" length="2">
            <Value index="0">
              0
            </Value>
            <Value index="1">
              0.482467777
            </Value>
          </InformationKey>
        </DataArray>
        <DataArray type="Float64" Name="ALEveloc" NumberOfComponents="3" format="ascii" RangeMin="0" RangeMax="0.3626465490436471">
          0 0 0 0 0 0
          0 0 0 0.03755316961438632 0.006278093662859301 0
          0.024551483861034104 -0.009661971297777835 0 0 0 0
          0 0 0 0 0 0
          0.035065330346504775 -0.0033656912893376967 0 0.05992981137315828 0.0008879820110730728 0
          0 0 0 0 0 0
          0 0 0 0 0 0
          0.10580381854304277 0.0025853466796037063 0 0.07714259854851052 0.014546731183689335 0
          0 0 0 0 0 0
          0.07798812248848702 -0.023465778855921868 0 0.15456957525562165 -0.007187379148901496 0
          0.08301570302811906 0.020007857387327722 0 0 0 0
          0 0 0 0.08645990808392862 -0.03457636766026384 0
          0.19747017675142997 -0.019272073656115385 0 0.10242724707431144 0.021302368927933156 0
          0 0 0 0 0 0
          0.11074644605005446 -0.045128188847063516 0 0.22098176188912 -0.019309030849015946 0
          0.21183148751681447 -0.05443610776721408 0 0.13313217668370914 0.01866511686780732 0
          0 0 0 0 0 0
          0.24305372208971354 -0.02227111343536134 0 0.2622812447680435 -0.07242020759329615 0
          0.15017405589406496 -0.07301478400747632 0 0 0 0
          0.2479305109500406 0.0011117311818138152 0 0 0 0
          0.3250445916556194 -0.0693812659152574 0 0.1501675404356892 0.0012658246882603311 0
          0.2954932085494979 -0.02539690092288814 0 0.13119307712359202 -0.0779395776543772 0
          0 0 0 0 0 0
          0.2613606686414158 -0.11043163446040599 0 0.35442429501938744 -0.0767850156819454 0
          0.3238350201030691 -0.09763773117050872 0 0.3112966935980146 -0.031189864661200217 0
          <InformationKey name="L2_NORM_RANGE" location="vtkDataArray" length="2">
            <Value index="0">
              0
            </Value>
            <Value index="1">
              0.36264654904
            </Value>
          </InformationKey>
        </DataArray>
      </PointData>
      <CellData>
        <DataArray type="UInt8" Name="vtkGhostType" format="ascii" RangeMin="0" RangeMax="0">
          0 0 0 0 0 0
          0 0 0 0 0 0
          0 0 0 0 0 0
          0 0 0 0 0 0
          0 0 0 0 0 0
          0 0 0 0 0 0
          0 0 0 0 0 0
          0 0 0 0 0 0
          0 0 0 0 0 0
          0 0 0 0 0 0
          0 0 0 0 0 0
          0 0 0
        </DataArray>
        <DataArray type="Float64" Name="PStrain" NumberOfComponents="6" format="ascii" RangeMin="4.096787966601832e-9" RangeMax="0.1732050807568877">
          0.09999999999999999 0.09999999999999999 0 0.09999999999999999 0 0
          1.0773951960192886e-7 1.0773951960192886e-7 0 1.0773951960192886e-7 0 0
          5.027097983912721e-7 5.027097983912721e-7 0 5.027097983912721e-7 0 0
          9.669230293127481e-8 9.669230293127481e-8 0 9.669230293127481e-8 0 0
          9.904886012648759e-8 9.904886012648759e-8 0 9.904886012648759e-8 0 0
          1.4288265728104562e-8 1.4288265728104562e-8 0 1.4288265728104562e-8 0 0
          6.559853887970429e-8 6.559853887970429e-8 0 6.559853887970429e-8 0 0
          9.277122054709038e-9 9.277122054709038e-9 0 9.277122054709038e-9 0 0
          3.097327213830817e-8 3.097327213830817e-8 0 3.097327213830817e-8 0 0
          2.6895448529714388e-8 2.6895448529714388e-8 0 2.6895448529714388e-8 0 0
          6.7913052206851475e-9 6.7913052206851475e-9 0 6.7913052206851475e-9 0 0
          1.21046838375599e-8 1.21046838375599e-8 0 1.21046838375599e-8 0 0
          8.039820161341101e-7 8.039820161341101e-7 0 8.039820161341101e-7 0 0
          5.121482883827188e-9 5.121482883827188e-9 0 5.121482883827188e-9 0 0
          5.121482883827188e-9 5.121482883827188e-9 0 5.121482883827188e-9 0 0
          8.039820161341099e-7 8.039820161341099e-7 0 8.039820161341099e-7 0 0
          2.3652816353303874e-9 2.3652816353303874e-9 0 2.3652816353303874e-9 0 0
          5.920862706237402e-7 5.920862706237402e-7 0 5.920862706237402e-7 0 0
          0.0005981864854609129 0.0005981864854609129 0 0.0005981864854609129 0 0
          0.00038814758759158735 0.00038814758759158735 0 0.00038814758759158735 0 0
          0.00046525507459205685 0.00046525507459205685 0 0.00046525507459205685 0 0
          0.0004664579697091267 0.0004664579697091267 0 0.0004664579697091267 0 0
          0.0002982278219856932 0.0002982278219856932 0 0.0002982278219856932 0 0
          0.00031624727579971745 0.00031624727579971745 0 0.00031624727579971745 0 0
          0.0002942225318222929 0.0002942225318222929 0 0.0002942225318222929 0 0
          0.0002952886158531273 0.0002952886158531273 0 0.0002952886158531273 0 0
          0.00016194487084460278 0.00016194487084460278 0 0.00016194487084460278 0 0
          0.00012809556604553664 0.00012809556604553664 0 0.00012809556604553664 0 0
          0.00024071577871291264 0.00024071577871291264 0 0.00024071577871291264 0 0
          0.00031678054335753953 0.00031678054335753953 0 0.00031678054335753953 0 0
          0.00012934429491901053 0.00012934429491901053 0 0.00012934429491901053 0 0
          0.000057974959196130006 0.000057974959196130006 0 0.000057974959196130006 0 0
          0.0001442101366591487 0.0001442101366591487 0 0.0001442101366591487 0 0
          0.0002381843002916441 0.0002381843002916441 0 0.0002381843002916441 0 0
          0.00010866278842170399 0.00010866278842170399 0 0.00010866278842170399 0 0
          0.00026340623175490194 0.00026340623175490194 0 0.00026340623175490194 0 0
          0.00013988658523807137 0.00013988658523807137 0 0.00013988658523807137 0 0
          0.0001509705497732693 0.0001509705497732693 0 0.0001509705497732693 0 0
          0.00010460418544627966 0.00010460418544627966 0 0.00010460418544627966 0 0
          0.00003682709683151869 0.00003682709683151869 0 0.00003682709683151869 0 0
          0.000049271541839772916 0.000049271541839772916 0 0.000049271541839772916 0 0
          0.000052943413459268936 0.000052943413459268936 0 0.000052943413459268936 0 0
          0.00004371739069752365 0.00004371739069752365 0 0.00004371739069752365 0 0
          0.00005512265438880057 0.00005512265438880057 0 0.00005512265438880057 0 0
          0.00006713774478881128 0.00006713774478881128 0 0.00006713774478881128 0 0
          0.0001255729170437297 0.0001255729170437297 0 0.0001255729170437297 0 0
          0.00006585037196191807 0.00006585037196191807 0 0.00006585037196191807 0 0
          0.00004536610331480906 0.00004536610331480906 0 0.00004536610331480906 0 0
          0.00001864592485155625 0.00001864592485155625 0 0.00001864592485155625 0 0
          0.000016188500217084264 0.000016188500217084264 0 0.000016188500217084264 0 0
          0.00001726309990443636 0.00001726309990443636 0 0.00001726309990443636 0 0
          0.000018959151324036956 0.000018959151324036956 0 0.000018959151324036956 0 0
          0.000011547460443448809 0.000011547460443448809 0 0.000011547460443448809 0 0
          0.00001397901762532276 0.00001397901762532276 0 0.00001397901762532276 0 0
          0.000006947594868816137 0.000006947594868816137 0 0.000006947594868816137 0 0
          0.0000045798038803648114 0.0000045798038803648114 0 0.0000045798038803648114 0 0
          0.000004330755100846186 0.000004330755100846186 0 0.000004330755100846186 0 0
          0.000006149652677858835 0.000006149652677858835 0 0.000006149652677858835 0 0
          0.000018491827239716262 0.000018491827239716262 0 0.000018491827239716262 0 0
          0.000007729887192988662 0.000007729887192988662 0 0.000007729887192988662 0 0
          0.0000237830339309501 0.0000237830339309501 0 0.0000237830339309501 0 0
          0.0000031094424433424895 0.0000031094424433424895 0 0.0000031094424433424895 0 0
          0.0000033154847778220285 0.0000033154847778220285 0 0.0000033154847778220285 0 0
          0.000005126615606809921 0.000005126615606809921 0 0.000005126615606809921 0 0
          0.0004765331766256838 0.0004765331766256838 0 0.0004765331766256838 0 0
          0.0006508329189185253 0.0006508329189185253 0 0.0006508329189185253 0 0
          0.0006481775346197156 0.0006481775346197156 0 0.0006481775346197156 0 0
          0.00044498780941984526 0.00044498780941984526 0 0.00044498780941984526 0 0
          0.0004639638185942322 0.0004639638185942322 0 0.0004639638185942322 0 0
          <InformationKey name="L2_NORM_RANGE" location="vtkDataArray" length="2">
            <Value index="0">
              4.0967879666e-09
            </Value>
            <Value index="1">
              0.17320508076
            </Value>
          </InformationKey>
        </DataArray>
        <DataArray type="Float64" Name="Stress" NumberOfComponents="6" format="ascii" RangeMin="0" RangeMax="0.000021029701619964684">
          0 0 0 0 0 0
          -9.678419972255451e-13 -1.392203488316746e-11 0 -4.6550897796186035e-10 0 0
          -1.8650027479370005e-9 -2.22614769484044e-10 0 -2.5571792134081844e-9 0 0
          -2.0686438983942823e-10 -8.025986815277911e-11 0 -3.1928800059713463e-10 0 0
          -3.581282299877e-10 1.2601523859856206e-10 0 1.5612435952941013e-10 0 0
          -1.1460608153643374e-12 -1.64856440363947e-11 0 -4.596825465474698e-11 0 0
          4.9884070401137183e-11 2.5566702855536776e-11 0 1.808888101592633e-10 0 0
          -1.3829156780495986e-11 2.203450144603742e-11 0 2.4456447558055764e-12 0 0
          -4.9400934224733096e-11 -2.916837704542496e-11 0 9.463382040734638e-11 0 0
          -1.396931704611057e-12 -2.009432528940521e-11 0 9.671079096158114e-11 0 0
          -2.249264176104069e-11 1.904386230173429e-11 0 1.52328208634993e-12 0 0
          -5.382671279309308e-11 -1.148376371197745e-11 0 -2.582825316516406e-11 0 0
          1.717241135727571e-11 2.470185326008122e-10 0 5.247764605198511e-9 0 0
          -7.813132257249473e-13 -1.1238890246966553e-11 0 1.3274321893899853e-11 0 0
          -7.813132257249473e-13 -1.1238890246966553e-11 0 1.3274321893899853e-11 0 0
          -1.717241135727571e-11 -2.4701853260081214e-10 0 -5.24776460519851e-9 0 0
          -7.867687035563981e-12 -5.469515051461592e-13 0 1.4418279945558993e-12 0 0
          -3.5487210574097496e-9 -1.5768801523343533e-10 0 2.3683451616278674e-9 0 0
          -0.000010410787973161462 0.000007252196503040091 0 -0.000016771090897252777 0 0
          -0.000006176132378299715 2.946204180867186e-7 0 -0.000012366663869594986 0 0
          -0.0000010735150548387322 -0.000015442101173449452 0 0.000011061278835480053 0 0
          6.049374628870604e-8 8.701792735375407e-7 0 -0.000018001525726304124 0 0
          3.8877396686146826e-8 5.592363984853427e-7 0 -0.000009287411062473998 0 0
          -0.0000017703179628357631 -0.00000470082463331776 0 0.000007750510652736515 0 0
          -0.0000017980933251753223 -0.000007513547385968147 0 0.000007413753634481999 0 0
          -0.0000046888119057442804 3.185685945673557e-7 0 0.0000059531989432653815 0 0
          -2.668160560746326e-7 -0.000003838046345073561 0 0.0000034409156021748437 0 0
          -0.0000011281184905535765 3.6778985541537976e-10 0 0.000002270199691836246 0 0
          -0.000002836179723639468 0.0000028625393765814756 0 0.0000035066296223883025 0 0
          -0.00000854166982010591 0.00000436390522847517 0 8.298812038261635e-7 0 0
          -5.384643447811925e-8 -7.745602498006384e-7 0 -0.0000029951891541415904 0 0
          -4.659463011334913e-7 1.522212837364849e-8 0 0.0000010049374427368602 0 0
          -0.000002431471071725451 0.0000016106284381643635 0 8.810427320919085e-7 0 0
          -0.0000034818024607167587 -7.973420100470766e-7 0 -0.000005663477373044403 0 0
          -0.0000011451672863222225 -7.974914913085955e-7 0 -0.000002176116361346747 0 0
          -0.0000035965591487993357 0.0000062269983596871075 0 -0.000002353786901220376 0 0
          -0.0000027571454549054432 0.000002417935374584474 0 -0.00000215899787676046 0 0
          -0.0000032711170928067066 0.0000020010391146190225 0 -0.0000017389062864603748 0 0
          -0.0000011189253832075843 0.0000015656603258635787 0 1.7449405390344921e-7 0 0
          -1.8771687136549397e-7 4.212443851004284e-7 0 1.4753504109073845e-7 0 0
          -4.4965300136667547e-7 5.881672230679834e-7 0 -6.390057657154876e-7 0 0
          -2.7215374359895924e-8 -3.9148269271542603e-7 0 -9.305365284364612e-7 0 0
          -3.757428699945237e-7 -3.2911609030241583e-7 0 -6.821655924533002e-7 0 0
          -5.897796372795867e-8 -8.483753243944826e-7 0 9.360469515643626e-7 0 0
          -0.0000011183466494108657 1.1058659657109373e-7 0 0.0000010724287071465885 0 0
          -0.000001100155738734927 -0.0000024631378808439815 0 0.000002764929010524222 0 0
          -0.000001133757805298115 5.742893625119773e-7 0 -5.704358759315118e-7 0 0
          -3.5172216236575453e-7 -6.388194291853914e-7 0 7.596233634783695e-7 0 0
          -1.2364754352599953e-7 1.5447542472341716e-7 0 -1.809227698265793e-7 0 0
          -7.349674609282333e-9 -1.057222424565997e-7 0 -2.097285781884871e-7 0 0
          -1.384493564788201e-8 -1.9915407431953348e-7 0 2.280721862801457e-7 0 0
          -1.2173399662167677e-7 8.082891932594533e-8 0 2.1264099618734197e-7 0 0
          -6.230611101659746e-8 -6.118887993450513e-8 0 -1.40679199826509e-7 0 0
          -1.0816760763803585e-7 -1.2294321375429663e-7 0 1.8525425269513224e-7 0 0
          -2.785372104846802e-8 4.742340648707699e-8 0 -6.68326690072713e-8 0 0
          -1.2650611027491303e-9 -1.819741740108364e-8 0 -4.632980792574759e-8 0 0
          -1.9029684542894576e-9 -2.7373469304009896e-8 0 4.173280716246069e-8 0 0
          -3.0346682388470087e-8 2.6099587284726505e-8 0 4.7061773517201956e-8 0 0
          -1.2390078614904726e-7 1.3885931554475417e-7 0 -1.6611597708301402e-7 0 0
          -7.400331867120261e-8 3.408582199237258e-8 0 -4.9970509649205064e-8 0 0
          -3.458203222018216e-7 8.242891563898007e-8 0 2.118170350079727e-7 0 0
          -2.0935136716283174e-8 -5.046438573830184e-10 0 2.998642699733071e-8 0 0
          -2.4850610658106632e-8 -2.7413218335546435e-9 0 -2.7119918086645105e-8 0 0
          -3.087622709474615e-8 2.155415461960687e-8 0 3.8029689442816014e-8 0 0
          -0.00000770245825191488 0.000008030508627406073 0 0.000005968532810308191 0 0
          -0.000013194512704358521 0.000007355386983064535 0 0.000010936552829468594 0 0
          -0.000011587649128111346 0.000014011392233163587 0 -0.0000024536396543273606 0 0
          -0.0000074010402518899025 0.000010335852383304192 0 -0.00000621001402183477 0 0
          -0.000013890108304453507 0.00001044301405359667 0 -0.0000027148620813937556 0 0
          <InformationKey name="L2_NORM_RANGE" location="vtkDataArray" length="2">
            <Value index="0">
              0
            </Value>
            <Value index="1">
              2.102970162e-05
            </Value>
          </InformationKey>
        </DataArray>
        <DataArray type="Float64" Name="Strain" NumberOfComponents="6" format="ascii" RangeMin="0" RangeMax="0.08222165236391932">
          0 0 0 0 0 0
          0 -0.00012805157730888143 0 -0.009203067980275375 0 0
          -0.003663570134903122 -0.000184140844585221 0 -0.010834862861216907 0 0
          -0.0020729095527070203 -0.0006784467929140707 0 -0.007033480645871825 0 0
          -0.0036884679201905192 0.001517172946205318 0 0.0033573822593513576 0 0
          0 -0.0011433617236179794 0 -0.006852642880375645 0 0
          0.0007302518625660857 0.00033545653818307437 0 0.0058735022489721615 0 0
          -0.0016487944068749314 0.002468300936488642 0 0.0005615128591761594 0 0
          -0.001523023920947629 -0.0008273378694467059 0 0.006507870287890674 0 0
          0 -0.0007403752402866966 0 0.007659064860754541 0 0
          -0.003492100700348915 0.0030215775086820914 0 0.00047775659295107005 0 0
          -0.004362305707211687 -0.0006368683990962045 0 -0.004544867092777317 0 0
          0 0.0003044671574886747 0 0.013902970943081766 0 0
          0 -0.0021746278920099795 0 0.005520726374638948 0 0
          0 -0.0021746278920099795 0 0.005520726374638948 0 0
          0 -0.0003044671574886747 0 -0.013902970943081766 0 0
          -0.0032962600408496124 0 0 0.0012984050535593363 0 0
          -0.005949828484245229 0.00014970526463438957 0 0.008520000284676576 0 0
          -0.01816964435183316 0.013277201948381055 0 -0.059717871398621905 0 0
          -0.0158971316960394 0.0018573306488424124 0 -0.06786334601660225 0 0
          0 -0.03289065515241921 0 0.050640014921343436 0 0
          0 0.0018486447708412623 0 -0.08220086757428074 0 0
          0 0.0018582516320114805 0 -0.06633246164410045 0 0
          -0.004545252700015968 -0.014414079541831614 0 0.05220151746313806 0 0
          -0.004317721879472172 -0.02500600342284769 0 0.05367126420822325 0 0
          -0.015886337415509114 0.002173485911660347 0 0.042942101619868375 0 0
          0 -0.02348552466001497 0 0.045257069238489434 0 0
          -0.008769840243997046 0.0006125133045116939 0 0.037749357709167125 0 0
          -0.012555704361430864 0.012657166494756766 0 0.03102879726299563 0 0
          -0.027803704454841573 0.015584179412842705 0 0.005580036404428555 0 0
          0 -0.005934240963616479 0 -0.0493238059113183 0 0
          -0.008021246350077817 0.000817817696375381 0 0.036921401631144206 0 0
          -0.01756252312599597 0.01228860993414008 0 0.013013100624065677 0 0
          -0.014324604268614826 -0.00232150256769425 0 -0.05064652367857083 0 0
          -0.009986147252548642 -0.006578589549790895 0 -0.04265607313223306 0 0
          -0.015232850115628777 0.024485605582385904 0 -0.019033589547966724 0 0
          -0.020823141023184492 0.018576355890882496 0 -0.03287424215605352 0 0
          -0.022493251570581227 0.014698415077920052 0 -0.02453372790735112 0 0
          -0.01168768490768761 0.015644718360526687 0 0.0035531306250190364 0 0
          -0.005867538544542965 0.011742965511838354 0 0.008533109165811858 0 0
          -0.009913817900021164 0.012518574059970438 0 -0.027624105724154496 0 0
          0 -0.007327534601581703 0 -0.037437004455606396 0 0
          -0.00803735743170773 -0.00690148176347148 0 -0.03323649213144448 0 0
          0 -0.015251591173023354 0 0.03616988385155078 0 0
          -0.016701141742127792 0.0027933156765388052 0 0.034023680023921726 0 0
          -0.007366213055441126 -0.01892583925127636 0 0.04689943445660097 0 0
          -0.017748158816270718 0.009876138200149098 0 -0.018451352354346355 0 0
          -0.006745429712595725 -0.013485232490920375 0 0.03566534584161116 0 0
          -0.007176833275712351 0.008708726895946657 0 -0.020667545471655713 0 0
          0 -0.006471679485591205 0 -0.027595012851779635 0 0
          0 -0.011432143344926815 0 0.028140586538103078 0 0
          -0.006688857019961066 0.0046897907790419135 0 0.023889535672665194 0 0
          -0.00500604161124291 -0.004903001543839746 0 -0.0259491424194886 0 0
          -0.007096339541336944 -0.008222028122293605 0 0.028227416891286813 0 0
          -0.004464699651721596 0.007074565711201958 0 -0.020489620893761874 0 0
          0 -0.003937495999564463 0 -0.021547318064192238 0 0
          0 -0.006263592092670419 0 0.02052549201839487 0 0
          -0.0052076455798011735 0.004567748308441167 0 0.01630036407625901 0 0
          -0.007191817213202223 0.007941328077213781 0 -0.01913423841787141 0 0
          -0.009838467726439731 0.005053720468896641 0 -0.013769565181927863 0 0
          -0.014719121792534172 0.004457802380580933 0 0.01897025778447259 0 0
          -0.006693081532089071 0.0003044671574886747 0 0.02054101037987257 0 0
          -0.007406412778127506 -0.0003044671574886747 0 -0.017422919842962063 0 0
          -0.006288332081303324 0.00460352344451634 0 0.015800528989456077 0 0
          -0.01726181455775974 0.017899661176464583 0 0.026678047845433595 0 0
          -0.02096996349656642 0.012657166494756766 0 0.035792377505238455 0 0
          -0.01929815408555407 0.022762820869020595 0 -0.00806299537484512 0 0
          -0.01816964435183316 0.0242804863182842 0 -0.029725151086168515 0 0
          -0.03136955870573213 0.024485605582385904 0 -0.012463593068290573 0 0
          <InformationKey name="L2_NORM_RANGE" location="vtkDataArray" length="2">
            <Value index="0">
              0
            </Value>
            <Value index="1">
              0.082221652364
            </Value>
          </InformationKey>
        </DataArray>
      </CellData>
      <Points>
        <DataArray type="Float32" Name="Points" NumberOfComponents="3" format="ascii" RangeMin="21" RangeMax="82.46211251235322">
          80 20 0 71.25 20 0
          80 10 0 66.2388916015625 12.798850059509277 0
          70.20958709716797 5.845560073852539 0 62.5 20 0
          80 0 0 71.25 0 0
          61.98773956298828 6.017467021942139 0 57.24021911621094 11.442919731140137 0
          53.75 20 0 62.5 0 0
          53.75 0 0 45 20 0
          45 10 0 40.15702819824219 15.307769775390625 0
          45 0 0 37.99734115600586 20 0
          40.049659729003906 5.003084182739258 0 36.91453170776367 10.96895980834961 0
          35.045658111572266 16.052900314331055 0 38.01533889770508 0 0
          32.61840057373047 20 0 35.31842041015625 4.04646110534668 0
          31.990219116210938 9.977960586547852 0 30.425119400024414 16.402000427246094 0
          32.72930908203125 0 0 28.12295913696289 20 0
          30.514589309692383 4.023209095001221 0 27.527999877929688 12.006360054016113 0
          27.93014907836914 7.867103099822998 0 26.15369987487793 16.422679901123047 0
          28.299869537353516 0 0 24.184429168701172 20 0
          24.478979110717773 13.194990158081055 0 24.274250030517578 9.000702857971191 0
          25.34370994567871 4.327282905578613 0 24.47154998779297 0 0
          21 15 0 20.521530151367188 20 0
          21 10.843259811401367 0 18.283540725708008 17.52022933959961 0
          17.25609016418457 15 0 21 3.321547031402588 0
          21 0 0 16.766950607299805 20 0
          21 6.905692100524902 0 18.861600875854492 10.96759033203125 0
          19.531700134277344 9.244172096252441 0 19.282169342041016 13.698100090026855 0
          <InformationKey name="L2_NORM_RANGE" location="vtkDataArray" length="2">
            <Value index="0">
              21
            </Value>
            <Value index="1">
              82.462112512
            </Value>
          </InformationKey>
        </DataArray>
      </Points>
      <Cells>
        <DataArray type="Int64" Name="connectivity" format="ascii" RangeMin="0" RangeMax="49">
          0 1 2 5 10 9
          9 10 14 5 9 3
          3 9 8 5 3 1
          8 9 12 3 8 4
          4 8 11 11 8 12
          4 2 3 3 2 1
          16 12 14 11 7 4
          4 7 6 10 13 14
          6 2 4 9 14 12
          41 42 38 41 38 39
          43 44 37 45 41 39
          39 38 33 46 43 36
          36 43 37 46 36 35
          37 32 36 35 36 30
          46 35 40 40 35 34
          27 33 31 30 36 28
          35 30 29 31 33 38
          27 31 25 38 40 34
          38 34 31 31 34 29
          29 34 35 29 30 24
          25 31 29 27 25 22
          22 25 20 32 26 28
          24 30 28 28 36 32
          29 24 25 28 26 23
          20 25 24 22 20 17
          23 26 21 28 23 24
          17 20 15 23 21 18
          15 20 19 17 15 13
          18 21 16 23 18 19
          19 20 24 15 19 14
          19 24 23 18 16 14
          13 15 14 19 18 14
          47 48 40 40 48 46
          47 40 49 42 49 38
          38 49 40
        </DataArray>
        <DataArray type="Int64" Name="offsets" format="ascii" RangeMin="3" RangeMax="207">
          3 6 9 12 15 18
          21 24 27 30 33 36
          39 42 45 48 51 54
          57 60 63 66 69 72
          75 78 81 84 87 90
          93 96 99 102 105 108
          111 114 117 120 123 126
          129 132 135 138 141 144
          147 150 153 156 159 162
          165 168 171 174 177 180
          183 186 189 192 195 198
          201 204 207
        </DataArray>
        <DataArray type="UInt8" Name="types" format="ascii" RangeMin="5" RangeMax="5">
          5 5 5 5 5 5
          5 5 5 5 5 5
          5 5 5 5 5 5
          5 5 5 5 5 5
          5 5 5 5 5 5
          5 5 5 5 5 5
          5 5 5 5 5 5
          5 5 5 5 5 5
          5 5 5 5 5 5
          5 5 5 5 5 5
          5 5 5 5 5 5
          5 5 5
        </DataArray>
      </Cells>
    </Piece>
  </UnstructuredGrid>
</VTKFile>
