<?xml version="1.0"?>
<VTKFile type="UnstructuredGrid" version="0.1" byte_order="LittleEndian" header_type="UInt32" compressor="vtkZLibDataCompressor">
  <UnstructuredGrid>
    <Piece NumberOfPoints="27" NumberOfCells="16">
      <PointData>
        <DataArray type="Float64" Name="Displacement" NumberOfComponents="3" format="ascii" RangeMin="0" RangeMax="0.0003401801749330878">
          0 0 0 -5.116630758638259e-7 -1.0495063669034576e-7 0
          0 0 0 -0.000018188768581688428 -0.000014048966970534267 0
          -0.000017700107454033525 -0.000015612270406034602 0 -0.00001917303965572128 -0.0000175848082128483 0
          0.00008119553043071985 0.0000862385229140308 0 0.00007530925832589886 0.00008585365451015407 0
          0.00007302548896435012 0.00008619374695949187 0 -0.00009891706040613694 -0.00016741303947099883 0
          -0.00009000155010762748 -0.0001663680691124532 0 -0.0000854486366317497 -0.00016610223137681246 0
          0.00007266943472941577 0.0001431887307410317 0 0.00006741229530993046 0.0001417346425393521 0
          0.00006636872994174499 0.00014095285097399989 0 -0.00006535323656153992 -0.00008600618718308196 0
          -0.00006270239856113348 -0.0000853365107469973 0 -0.00006425508971983838 -0.00008535674867253811 0
          0.00008321791809725832 0.00016852887553783856 0 0.0000808326083964106 0.00016896098016878702 0
          0.00008355007100524742 0.00017020349951349487 0 -0.0001227538551567648 -0.0002952014945857342 0
          -0.00012657242536926684 -0.0002962218027187217 0 -0.00013682274674683818 -0.0002980978086686377 0
          0.00012586828210416567 0.00027617487760089865 0 0.00015173307581110043 0.0002800017981700396 0
          0.0001850279695977354 0.0002854596326699201 0
          <InformationKey name="L2_NORM_RANGE" location="vtkDataArray" length="2">
            <Value index="0">
              0
            </Value>
            <Value index="1">
              0.00034018017493
            </Value>
          </InformationKey>
        </DataArray>
      </PointData>
      <CellData>
        <DataArray type="UInt8" Name="vtkGhostType" format="ascii" RangeMin="0" RangeMax="0">
          0 0 0 0 0 0
          0 0 0 0 0 0
          0 0 0 0
        </DataArray>
        <DataArray type="Float64" Name="Stress" NumberOfComponents="6" format="ascii" RangeMin="21.92754998676028" RangeMax="352.4995055690753">
          -11.980928409029215 19.90925849383899 0 -1.7401358359179215 0 0
          114.46447102706577 59.04019101590853 0 57.410118499552915 0 0
          -189.55584131440074 -70.96949657714484 0 -107.84494557248928 0 0
          180.47925998477788 66.74011193136526 0 101.18513167871315 0 0
          -146.41032097095055 -38.545707782006204 0 -74.63213407531728 0 0
          161.8421224579253 38.28461535533734 0 92.24167203022975 0 0
          -243.56621821516387 -73.12684212030837 0 -143.22396869847236 0 0
          328.17859956676693 63.57419853786339 0 111.86165336301136 0 0
          -12.370788089839209 17.22846362976364 0 -5.564269171784788 0 0
          120.10890505665614 64.96013436617005 0 64.61126523389166 0 0
          -202.30589715070687 -75.91568750731615 0 -111.76445717998607 0 0
          191.33517736144142 68.99133423040382 0 101.14347783085768 0 0
          -150.76314864511465 -40.2230619520469 0 -75.14129125121728 0 0
          162.8558076199791 40.16189057239008 0 96.35877970842891 0 0
          -235.4817176424336 -71.01884900566472 0 -148.72110771530222 0 0
          289.82818458749284 60.707358546513426 0 114.34957123558857 0 0
          <InformationKey name="L2_NORM_RANGE" location="vtkDataArray" length="2">
            <Value index="0">
              21.927549987
            </Value>
            <Value index="1">
              352.49950557
            </Value>
          </InformationKey>
        </DataArray>
        <DataArray type="Float64" Name="Strain" NumberOfComponents="6" format="ascii" RangeMin="0.000023947410605147176" RangeMax="0.0003509451171593636">
          -0.000014544400013717908 0.000018676229873519534 0 -0.0000036245469570602204 0 0
          0.00007408927210101433 0.00001632539255424306 0 0.00011966893095251689 0 0
          -0.00012948522238168968 -0.000006058246945698774 0 -0.00022449436025812763 0 0
          0.00012373040910522312 0.000005160707685449809 0 0.0002109665652963284 0 0
          -0.00010427352229631543 0.000008020678085110029 0 -0.000155393898179459 0 0
          0.00011656365432241335 -0.00001222234117896521 0 0.00019229153100200594 0 0
          -0.00017102678494832635 0.000006340688125765939 0 -0.0002980803036997422 0 0
          0.0002401989613733099 -0.000035758591892656705 0 0.0002333947548792504 0 0
          -0.0000141507150908422 0.000016682732025967045 0 -0.000011592695698424313 0 0
          0.00007696368461870668 0.00001948406534737352 0 0.00013468320175787535 0 0
          -0.00013813933580266043 -0.000006596853325738017 0 -0.00023263617514914347 0 0
          0.00013163942466095575 0.0000040953078056466 0 0.00021089428202640526 0 0
          -0.00010723253816695492 0.000007845605502779766 0 -0.0001564476412824759 0 0
          0.00011687000425056649 -0.000011017322795257334 0 0.00020087518572098944 0 0
          -0.00016526802189441368 0.000005884046121498962 0 -0.000309538905791093 0 0
          0.00021089865057387342 -0.000028026352080687422 0 0.0002385184037544755 0 0
          <InformationKey name="L2_NORM_RANGE" location="vtkDataArray" length="2">
            <Value index="0">
              2.3947410605e-05
            </Value>
            <Value index="1">
              0.00035094511716
            </Value>
          </InformationKey>
        </DataArray>
      </CellData>
      <Points>
        <DataArray type="Float32" Name="Points" NumberOfComponents="3" format="ascii" RangeMin="0" RangeMax="10.000499987515525">
          0 0.10000000149011612 0 0 0.05000000074505806 0
          0 0 0 1.25 0.10000000149011612 0
          1.25 0.05000000074505806 0 1.25 0 0
          2.5 0.10000000149011612 0 2.5 0.05000000074505806 0
          2.5 0 0 3.75 0.10000000149011612 0
          3.75 0.05000000074505806 0 3.75 0 0
          5 0.10000000149011612 0 5 0.05000000074505806 0
          5 0 0 6.25 0.10000000149011612 0
          6.25 0.05000000074505806 0 6.25 0 0
          7.5 0.10000000149011612 0 7.5 0.05000000074505806 0
          7.5 0 0 8.75 0.10000000149011612 0
          8.75 0.05000000074505806 0 8.75 0 0
          10 0.10000000149011612 0 10 0.05000000074505806 0
          10 0 0
          <InformationKey name="L2_NORM_RANGE" location="vtkDataArray" length="2">
            <Value index="0">
              0
            </Value>
            <Value index="1">
              10.000499988
            </Value>
          </InformationKey>
        </DataArray>
      </Points>
      <Cells>
        <DataArray type="Int64" Name="connectivity" format="ascii" RangeMin="0" RangeMax="26">
          5 4 1 2 8 7
          4 5 11 10 7 8
          14 13 10 11 17 16
          13 14 20 19 16 17
          23 22 19 20 26 25
          22 23 4 3 0 1
          7 6 3 4 10 9
          6 7 13 12 9 10
          16 15 12 13 19 18
          15 16 22 21 18 19
          25 24 21 22
        </DataArray>
        <DataArray type="Int64" Name="offsets" format="ascii" RangeMin="4" RangeMax="64">
          4 8 12 16 20 24
          28 32 36 40 44 48
          52 56 60 64
        </DataArray>
        <DataArray type="UInt8" Name="types" format="ascii" RangeMin="9" RangeMax="9">
          9 9 9 9 9 9
          9 9 9 9 9 9
          9 9 9 9
        </DataArray>
      </Cells>
    </Piece>
  </UnstructuredGrid>
</VTKFile>
