<?xml version="1.0"?>
<VTKFile type="UnstructuredGrid" version="0.1" byte_order="LittleEndian" header_type="UInt32" compressor="vtkZLibDataCompressor">
  <UnstructuredGrid>
    <Piece NumberOfPoints="7" NumberOfCells="6">
      <PointData>
        <DataArray type="Float64" Name="Disp" NumberOfComponents="3" format="ascii" RangeMin="0.42668513010278897" RangeMax="0.7693790466722716">
          0.7649235985418837 -0.07259101845758109 0 0.6905174644347798 -0.022859861107316554 0
          0.7691136510613846 0.020206662499290817 0 0.6151898112089222 0.026753523387626488 0
          0.612941915605594 -0.06593755539563126 0 0.5209327429025873 -0.01575708164470739 0
          0.4253840816714464 0.033295394747234315 0
          <InformationKey name="L2_NORM_RANGE" location="vtkDataArray" length="2">
            <Value index="0">
              0.4266851301
            </Value>
            <Value index="1">
              0.76937904667
            </Value>
          </InformationKey>
        </DataArray>
        <DataArray type="Float64" Name="Sld_traction" NumberOfComponents="3" format="ascii" RangeMin="0" RangeMax="10.041980044731991">
          1.460287529196697 1.3523387079238114 0 0 0 0
          -0.49245143083268383 1.0419678943640296 0 0.8861804242985541 -2.195733856675519 0
          2.5453593787003257 1.624008606524901 0 0 0 0
          6.722104423838985 -7.460206118720841 0
          <InformationKey name="L2_NORM_RANGE" location="vtkDataArray" length="2">
            <Value index="0">
              0
            </Value>
            <Value index="1">
              10.041980045
            </Value>
          </InformationKey>
        </DataArray>
        <DataArray type="Float64" Name="Fld_traction" NumberOfComponents="3" format="ascii" RangeMin="0" RangeMax="2.1611480987834475">
          1.6706943803572905 0.9603234332243513 0 0 0 0
          -0.44840708664645795 1.1004642396695743 0 0.3374000143406066 0.16547145040477332 0
          2.1592168731918138 -0.09134330516833698 0 0 0 0
          1.6200423407208153 -0.03310908957577366 0
          <InformationKey name="L2_NORM_RANGE" location="vtkDataArray" length="2">
            <Value index="0">
              0
            </Value>
            <Value index="1">
              2.1611480988
            </Value>
          </InformationKey>
        </DataArray>
        <DataArray type="Float64" Name="Velocity" NumberOfComponents="3" format="ascii" RangeMin="0.19550492281128462" RangeMax="0.402748126980166">
          0.39611446893666125 -0.07135645050243097 0 0.3501513131772528 -0.03619280623425498 0
          0.4025930563379374 -0.011175185658872086 0 0.3028629163713319 -0.00330774271340634 0
          0.2985515524854827 -0.059657897067559695 0 0.2478943719753386 -0.026669628658790228 0
          0.19550480428850914 0.00021527553993805001 0
          <InformationKey name="L2_NORM_RANGE" location="vtkDataArray" length="2">
            <Value index="0">
              0.19550492281
            </Value>
            <Value index="1">
              0.40274812698
            </Value>
          </InformationKey>
        </DataArray>
      </PointData>
      <CellData>
        <DataArray type="UInt8" Name="vtkGhostType" format="ascii" RangeMin="0" RangeMax="1">
          0 0 1 1 1 1
        </DataArray>
        <DataArray type="Float64" Name="Gauss Stress" NumberOfComponents="6" format="ascii" RangeMin="3.898545093851372" RangeMax="12.4290362024216">
          2.067434663732935 3.4970444911557803 0 0.2229578922403826 0 0
          1.1215861640500386 4.2981078717251675 0 0.843060948475804 0 0
          2.1402476022163706 3.240591575203756 0 0.3414092745051311 0 0
          1.203598376913676 4.053178748113289 0 0.9557495588183393 0 0
          1.1613888973130073 5.944383227972798 0 -1.141696805411795 0 0
          -2.0141140590099136 11.339848853567068 0 4.672484719788715 0 0
          <InformationKey name="L2_NORM_RANGE" location="vtkDataArray" length="2">
            <Value index="0">
              3.8985450939
            </Value>
            <Value index="1">
              12.429036202
            </Value>
          </InformationKey>
        </DataArray>
        <DataArray type="Float64" Name="Gauss Strain" NumberOfComponents="6" format="ascii" RangeMin="0.0002908261264727677" RangeMax="0.0014082490711427276">
          0.00012728742570544682 0.00027019870953781666 0 0.00004457607664613336 0 0
          0.00003475299704025492 0.0003522980372318574 0 0.0001685553239701585 0 0
          0.00013718706407261916 0.0002471846524692012 0 0.00006825901313357514 0 0
          0.000045278473128185226 0.00033014372156170424 0 0.00019108766909313433 0 0
          0.000014648104294634475 0.0004927286364707071 0 -0.0002282348581582844 0 0
          -0.0003353151032563506 0.0009992593484468015 0 0.0009339218288723162 0 0
          <InformationKey name="L2_NORM_RANGE" location="vtkDataArray" length="2">
            <Value index="0">
              0.00029082612647
            </Value>
            <Value index="1">
              0.0014082490711
            </Value>
          </InformationKey>
        </DataArray>
        <DataArray type="Float64" Name="Btraction" NumberOfComponents="3" format="ascii" RangeMin="0" RangeMax="1.3090856297014812">
          0.4074290979036108 0.6869292242979751 0 -0.03700235743528377 0.4219785633581158 0
          1.276637084516368 0.28966004268533807 0 0 0 0
          0 0 0 0.6524807850204739 0.04412078694299987 0
          <InformationKey name="L2_NORM_RANGE" location="vtkDataArray" length="2">
            <Value index="0">
              0
            </Value>
            <Value index="1">
              1.3090856297
            </Value>
          </InformationKey>
        </DataArray>
      </CellData>
      <Points>
        <DataArray type="Float32" Name="Points" NumberOfComponents="3" format="ascii" RangeMin="11.809237789612487" RangeMax="14.866068747318506">
          11 10 0 10.5 9.17588996887207 0
          10 10 0 10 8.340899467468262 0
          11 8.362662315368652 0 10.5 7.3431549072265625 0
          10 6.2815680503845215 0
          <InformationKey name="L2_NORM_RANGE" location="vtkDataArray" length="2">
            <Value index="0">
              11.80923779
            </Value>
            <Value index="1">
              14.866068747
            </Value>
          </InformationKey>
        </DataArray>
      </Points>
      <Cells>
        <DataArray type="Int64" Name="connectivity" format="ascii" RangeMin="0" RangeMax="6">
          0 2 1 1 2 3
          0 1 4 1 3 4
          4 3 5 5 3 6
        </DataArray>
        <DataArray type="Int64" Name="offsets" format="ascii" RangeMin="3" RangeMax="18">
          3 6 9 12 15 18
        </DataArray>
        <DataArray type="UInt8" Name="types" format="ascii" RangeMin="5" RangeMax="5">
          5 5 5 5 5 5
        </DataArray>
      </Cells>
    </Piece>
  </UnstructuredGrid>
</VTKFile>
