<?xml version="1.0"?>
<VTKFile type="UnstructuredGrid" version="0.1" byte_order="LittleEndian" header_type="UInt32" compressor="vtkZLibDataCompressor">
  <UnstructuredGrid>
    <Piece NumberOfPoints="83" NumberOfCells="64">
      <PointData>
        <DataArray type="Float64" Name="sld_BC" NumberOfComponents="3" format="ascii" RangeMin="0" RangeMax="0">
          0 0 0 0 0 0
          0 0 0 0 0 0
          0 0 0 0 0 0
          0 0 0 0 0 0
          0 0 0 0 0 0
          0 0 0 0 0 0
          0 0 0 0 0 0
          0 0 0 0 0 0
          0 0 0 0 0 0
          0 0 0 0 0 0
          0 0 0 0 0 0
          0 0 0 0 0 0
          0 0 0 0 0 0
          0 0 0 0 0 0
          0 0 0 0 0 0
          0 0 0 0 0 0
          0 0 0 0 0 0
          0 0 0 0 0 0
          0 0 0 0 0 0
          0 0 0 0 0 0
          0 0 0 0 0 0
          0 0 0 0 0 0
          0 0 0 0 0 0
          0 0 0 0 0 0
          0 0 0 0 0 0
          0 0 0 0 0 0
          0 0 0 0 0 0
          0 0 0 0 0 0
          0 0 0 0 0 0
          0 0 0 0 0 0
          0 0 0 0 0 0
          0 0 0 0 0 0
          0 0 0 0 0 0
          0 0 0 0 0 0
          0 0 0 0 0 0
          0 0 0 0 0 0
          0 0 0 0 0 0
          0 0 0 0 0 0
          0 0 0 0 0 0
          0 0 0 0 0 0
          0 0 0 0 0 0
          0 0 0
          <InformationKey name="L2_NORM_RANGE" location="vtkDataArray" length="2">
            <Value index="0">
              0
            </Value>
            <Value index="1">
              0
            </Value>
          </InformationKey>
        </DataArray>
        <DataArray type="Float64" Name="sld_FIXNO" NumberOfComponents="3" format="ascii" RangeMin="1.4142135623730951" RangeMax="1.4142135623730951">
          -1 -1 0 -1 -1 0
          -1 -1 0 -1 -1 0
          -1 -1 0 -1 -1 0
          -1 -1 0 -1 -1 0
          -1 -1 0 -1 -1 0
          -1 -1 0 -1 -1 0
          -1 -1 0 -1 -1 0
          -1 -1 0 -1 -1 0
          -1 -1 0 -1 -1 0
          -1 -1 0 -1 -1 0
          -1 -1 0 -1 -1 0
          -1 -1 0 -1 -1 0
          -1 -1 0 -1 -1 0
          -1 -1 0 -1 -1 0
          -1 -1 0 -1 -1 0
          -1 -1 0 -1 -1 0
          -1 -1 0 -1 -1 0
          -1 -1 0 -1 -1 0
          -1 -1 0 -1 -1 0
          -1 -1 0 -1 -1 0
          -1 -1 0 -1 -1 0
          -1 -1 0 -1 -1 0
          -1 -1 0 -1 -1 0
          -1 -1 0 -1 -1 0
          -1 -1 0 -1 -1 0
          -1 -1 0 -1 -1 0
          -1 -1 0 -1 -1 0
          -1 -1 0 -1 -1 0
          -1 -1 0 -1 -1 0
          -1 -1 0 -1 -1 0
          -1 -1 0 -1 -1 0
          -1 -1 0 -1 -1 0
          -1 -1 0 -1 -1 0
          -1 -1 0 -1 -1 0
          -1 -1 0 -1 -1 0
          1 1 0 1 1 0
          1 1 0 1 1 0
          1 1 0 1 1 0
          -1 -1 0 -1 -1 0
          -1 -1 0 -1 -1 0
          -1 -1 0 -1 -1 0
          -1 -1 0
          <InformationKey name="L2_NORM_RANGE" location="vtkDataArray" length="2">
            <Value index="0">
              1.4142135624
            </Value>
            <Value index="1">
              1.4142135624
            </Value>
          </InformationKey>
        </DataArray>
        <DataArray type="Float64" Name="Disp" NumberOfComponents="3" format="ascii" RangeMin="0" RangeMax="0.00007113960944858112">
          -0.000011287923942335376 0.00006549365164234518 0 -0.000009204828734999544 0.00006430054093210052 0
          -0.0000071663587337988484 0.00006293675777371173 0 -0.000005146903181971052 0.0000613929996750208 0
          -0.000015961373174037768 0.00006321074646465886 0 -0.000013245662027499542 0.00006228979937504452 0
          -0.000010650226694165008 0.00006121685978727818 0 -0.00000813316311649438 0.000059996328223503206 0
          -0.000005649619154626328 0.00005862479624146926 0 -0.0000031541652274639 0.00005709031434522627 0
          -0.00001603718871798958 0.000058191747519974135 0 -0.000012915746129545607 0.00005720958985520005 0
          -0.000009939288913759594 0.000056097342391628174 0 -0.0000070445265322399375 0.00005486130888271344 0
          -0.000004169425045713906 0.00005349788041406635 0 -0.00000125149190694176 0.00005199486805709249 0
          -0.000015905872976302098 0.000052442204752055246 0 -0.000012452473154980147 0.00005139407225805147 0
          -0.000009166693891408276 0.00005024767905910799 0 -0.000005967069685282266 0.00004900878863740504 0
          -0.0000027733385036178383 0.00004767456821650388 0 4.928836214621443e-7 0.00004623355552757117 0
          -0.000015529148548615886 0.00004612346442573108 0 -0.00001183963730328272 0.00004499978410698809 0
          -0.000008338064402455635 0.00004381769711641425 0 -0.000004925988661724886 0.00004258201100758162 0
          -0.0000015062849472906932 0.000041289326011942123 0 0.000002018032235740456 0.000039927667889653074 0
          -0.000014868651446704114 0.00003942143890794013 0 -0.000011057733706469566 0.000038213519745711864 0
          -0.000007452852410996273 0.00003699300543153972 0 -0.0000039396627160377874 0.000035764415489841654 0
          -4.0452070929903794e-7 0.00003452429524425706 0 0.0000032654929233857957 0.00003326131183842814 0
          -0.00001388569597102667 0.000032565224062050344 0 -0.000010084663008378876 0.00003125947206686488 0
          -0.00000650716499124675 0.000029994025192735655 0 -0.000003022481895463982 0.000028773083577846965 0
          4.986020844200912e-7 0.000027592768046172525 0 0.000004184340382919226 0.000026441909726935476 0
          -0.000012535821567784238 0.000025809862232441844 0 -0.000008895023454084698 0.00002439136248773878 0
          -0.00000549288354310884 0.000023072484791753686 0 -0.0000021841442183351947 0.00002185632787928169 0
          0.0000011753075824379946 0.00002074052607521431 0 0.000004729180689899481 0.000019713702003641818 0
          -0.000010777627425066951 0.00001944507979239508 0 -0.000007460491127258807 0.000017898874673383707 0
          -0.000004393871356565547 0.00001651103440303878 0 -0.0000014259363083613063 0.000015290098441473896 0
          0.0000016018225004521571 0.000014236924704026377 0 0.000004854138101376407 0.00001334605974091267 0
          -0.000008582737946487788 0.000013788794574156207 0 -0.000005752860353514369 0.000012099465774421708 0
          -0.000003173424406771423 0.00001062561011927237 0 -7.254555795322763e-7 0.000009368534937401684 0
          0.0000017539232007476998 0.000008372878532358004 0 0.000004495796991507793 0.000007635786893589738 0
          -0.0000060315041217381475 0.00000909006924180467 0 -0.0000037419487170070644 0.000007309408822128268 0
          -0.0000017615057834139119 0.000005700856553307485 0 -7.141403360374184e-8 0.000004431805706557554 0
          0.0000015987450022876003 0.000003509362260922632 0 0.0000035386662266323196 0.0000029649844997407424 0
          -0.0000031076029626609975 0.000005553711128757544 0 -0.0000012935526035078576 0.000003423624800825973 0
          -3.9120031879049747e-7 0.0000019910166062429265 0 3.6312170857196147e-7 9.954008728024562e-7 0
          0.0000011026959013558725 3.170758927982087e-7 0 0.0000019002914318231233 -4.373681186826681e-8 0
          0 0 0 0 0 0
          0 0 0 0 0 0
          0 0 0 0 0 0
          -0.000013446135344512483 0.00006651803282614494 0 -0.000015710424982875904 0.00006737037917807917 0
          -0.000011843332560070602 0.00006886729285402582 0 -0.000013523083250507 0.000069842467395536 0
          -0.00001023474963565073 0.00006771108938957452 0 -0.00000867964249228115 0.00006637113108034424 0
          -0.00000716252361135072 0.00006483977545526098 0
          <InformationKey name="L2_NORM_RANGE" location="vtkDataArray" length="2">
            <Value index="0">
              0
            </Value>
            <Value index="1">
              7.1139609449e-05
            </Value>
          </InformationKey>
        </DataArray>
        <DataArray type="Float64" Name="Sld_traction" NumberOfComponents="3" format="ascii" RangeMin="0" RangeMax="780.4326109213841">
          0 0 0 0 0 0
          0 0 0 -23.955845639988425 -584.6227763587 0
          -12.060079226482632 737.2314694530204 0 0 0 0
          0 0 0 0 0 0
          0 0 0 -23.694284476822453 -594.0350646635303 0
          -5.622640914582403 730.595386951024 0 0 0 0
          0 0 0 0 0 0
          0 0 0 -23.212204314131288 -605.1366757370973 0
          -0.39473883503773044 716.578098954044 0 0 0 0
          0 0 0 0 0 0
          0 0 0 -23.06364316099908 -614.4112726382853 0
          4.40863055344803 698.0358939374171 0 0 0 0
          0 0 0 0 0 0
          0 0 0 -23.437214440420046 -625.7202037439631 0
          8.751698160173218 675.6359209455364 0 0 0 0
          0 0 0 0 0 0
          0 0 0 -23.819436655537622 -638.9868342577447 0
          12.34189048549183 650.9766164350988 0 0 0 0
          0 0 0 0 0 0
          0 0 0 -24.367970342331244 -655.19285307356 0
          15.220845374753129 624.9273333603938 0 0 0 0
          0 0 0 0 0 0
          0 0 0 -25.17868087320972 -675.0963990229583 0
          16.62962903097897 600.0266851244758 0 0 0 0
          0 0 0 0 0 0
          0 0 0 -27.412832359028254 -700.7073319634538 0
          15.979151187712995 585.513809366242 0 0 0 0
          0 0 0 0 0 0
          0 0 0 -32.51518619428363 -736.3612780439213 0
          5.622773960270447 588.4027555480897 0 0 0 0
          0 0 0 0 0 0
          0 0 0 -37.64328744436922 -779.5242415088508 0
          124.92364838385184 428.75675162213537 0 0 0 0
          0 0 0 0 0 0
          0 0 0 1.472729784153233 -752.3647450528656 0
          592.6874772119406 -349.98545454120455 0 617.8208118976032 -252.10695138193978 0
          177.706741057035 -146.98825711736313 0 -154.1246882604651 -74.65861795532132 0
          -475.2678930521255 -26.35008581122412 0 -230.25659780762064 -404.18668878392396 0
          0 0 0 -18.261040402273046 735.2304390863263 0
          0 0 0 0 0 0
          0 0 0 0 0 0
          -25.451676057255277 -575.0994848751592 0
          <InformationKey name="L2_NORM_RANGE" location="vtkDataArray" length="2">
            <Value index="0">
              0
            </Value>
            <Value index="1">
              780.43261092
            </Value>
          </InformationKey>
        </DataArray>
        <DataArray type="Float64" Name="Fld_traction" NumberOfComponents="3" format="ascii" RangeMin="0" RangeMax="680.7034576411488">
          0 0 0 0 0 0
          0 0 0 -23.903820679883896 -654.305112066389 0
          -21.685117693499574 678.8756303766736 0 0 0 0
          0 0 0 0 0 0
          0 0 0 -20.395983035866838 -657.8469427248151 0
          -18.166295261556403 680.4610076713325 0 0 0 0
          0 0 0 0 0 0
          0 0 0 -17.040460536964396 -660.0658907476604 0
          -15.351573545246199 678.3990986293891 0 0 0 0
          0 0 0 0 0 0
          0 0 0 -14.266264595680497 -657.2359199115376 0
          -12.749329747455434 674.8903427761462 0 0 0 0
          0 0 0 0 0 0
          0 0 0 -11.55728311430196 -654.2287820773207 0
          -10.377888115421614 669.8099630106713 0 0 0 0
          0 0 0 0 0 0
          0 0 0 -9.230044657570897 -650.1845695541733 0
          -8.80090755835405 665.061031358523 0 0 0 0
          0 0 0 0 0 0
          0 0 0 -7.0784410486395615 -646.6878771585739 0
          -7.669501047573607 661.0440247236254 0 0 0 0
          0 0 0 0 0 0
          0 0 0 -5.169678880056475 -643.8756100192938 0
          -6.871561891898591 658.7674005580565 0 0 0 0
          0 0 0 0 0 0
          0 0 0 -3.7620192377837833 -641.8536567636888 0
          -5.265360046741769 657.9758204515114 0 0 0 0
          0 0 0 0 0 0
          0 0 0 -3.0505837780987397 -640.6820480081127 0
          -3.768637509528722 657.6920754022959 0 0 0 0
          0 0 0 0 0 0
          0 0 0 -2.601934153676974 -640.6691981590967 0
          -2.1039887059683102 657.2302890251817 0 0 0 0
          0 0 0 0 0 0
          0 0 0 -1.3867223012728747 -640.8273349986664 0
          310.62339035411475 411.95657580029336 0 0 0 0
          0 0 0 0 0 0
          0 0 0 303.86938429945144 -401.42901716080416 0
          0 0 0 -26.595099400436155 670.0839598585242 0
          0 0 0 0 0 0
          0 0 0 0 0 0
          -27.067541147276845 -648.2754498798575 0
          <InformationKey name="L2_NORM_RANGE" location="vtkDataArray" length="2">
            <Value index="0">
              0
            </Value>
            <Value index="1">
              680.70345764
            </Value>
          </InformationKey>
        </DataArray>
        <DataArray type="Float64" Name="Velocity" NumberOfComponents="3" format="ascii" RangeMin="0" RangeMax="0.001938441146063535">
          -0.0016880228251292249 0.00034190183468005893 0 -0.0016311117586192186 0.0002742510267549345 0
          -0.0015748085693092673 0.0002095930873879145 0 -0.001518688214754886 0.0001481541732376593 0
          -0.0016669399960674907 0.00040416325381609035 0 -0.0016154474977533762 0.0003255298048714402 0
          -0.0015652595526651411 0.0002500896085557915 0 -0.001516199505164036 0.00017784697553000818 0
          -0.0014681439305096013 0.00010888501037649906 0 -0.001420891201814389 0.000043428710320336816 0
          -0.0015213520786957822 0.00033738054075950025 0 -0.0014780644181265224 0.00025412780651010614 0
          -0.001435973260877755 0.00017423119076776704 0 -0.0013951693302234874 0.0000976256327146399 0
          -0.0013557494619448282 0.000024389061980698988 0 -0.001317846776298149 -0.0000452849455514783 0
          -0.0013694344317774605 0.0002860303496738326 0 -0.0013345443942906349 0.00019865135725068652 0
          -0.0013006339001654923 0.00011468278456331737 0 -0.0012681240385303328 0.00003403142709225193 0
          -0.0012373924780405723 -0.000043253235640759984 0 -0.0012087767881196333 -0.0001169715735326696 0
          -0.0012127263002397102 0.00024874778923410625 0 -0.001185853250690542 0.00015812924655390573 0
          -0.0011598422860374493 0.00007074283861854559 0 -0.0011352935456482686 -0.000013517101893885364 0
          -0.0011128374180760453 -0.00009466884541938609 0 -0.0010931592822745612 -0.00017260072337768075 0
          -0.0010527712966338283 0.00022425531952025167 0 -0.0010332811081955428 0.00013131534473972343 0
          -0.0010145072612843594 0.00004134024360403539 0 -0.0009972076458699295 -0.00004580486292420159 0
          -0.0009822069079315154 -0.0001301721121977375 0 -0.0009704564136340529 -0.0002117175115368662 0
          -0.0008912033934658144 0.00021069431962624104 0 -0.0008781554544016167 0.0001164155319547474 0
          -0.0008656907071731197 0.00002466653953205812 0 -0.0008546112842841309 -0.00006470111436895372 0
          -0.000845895892211032 -0.0001518228846926276 0 -0.0008406633584315431 -0.00023674064922089068 0
          -0.0007291965660117194 0.000206857037240679 0 -0.0007215907104740839 0.00011179653164857216 0
          -0.0007142569819527684 0.000018815413080424096 0 -0.0007081194259986821 -0.00007234150784611002 0
          -0.0007042311470271808 -0.00016177089791521824 0 -0.0007038335808665635 -0.0002496752059269146 0
          -0.0005679031092786252 0.00021080578652365908 0 -0.0005643069943918336 0.00011558016523108199 0
          -0.0005604868285580257 0.000021419453747145474 0 -0.0005579279283151216 -0.00007153404098049585 0
          -0.0005577424746360616 -0.0001631733016239409 0 -0.0005606225584991161 -0.00025333196199145967 0
          -0.00040941082740423337 0.0002206047286606179 0 -0.0004069770884533759 0.00012581550353856212 0
          -0.0004029101748037193 0.000030156524345104588 0 -0.00040259329229961087 -0.00006642702180664006 0
          -0.0004071089961470318 -0.00016051929788453407 0 -0.0004133647487485168 -0.0002522168051189019 0
          -0.0002621420517239444 0.0002275904213046606 0 -0.0002503215313937615 0.00013724585401856263 0
          -0.00023910680588852057 0.00003931543569167016 0 -0.000239743101496584 -0.000058523423365530874 0
          -0.0002532078336295793 -0.00015583020152586436 0 -0.00027019446087607534 -0.00024512560371377066 0
          -0.00012888504303678266 0.00021287109334139215 0 -0.00009094761487980532 0.00011699753432515718 0
          -0.00008529016753563705 0.000035616916792919676 0 -0.00008585594165946739 -0.000041104201650093655 0
          -0.00009310494616211707 -0.00012250491435369715 0 -0.0001345257997611711 -0.00021913152145087812 0
          0 0 0 0 0 0
          0 0 0 0 0 0
          0 0 0 0 0 0
          -0.0017459116002484555 0.0004124236453813281 0 -0.0018049365482858846 0.0004858044492368764 0
          -0.001804065475750283 0.0004492979485414367 0 -0.0018688171997110843 0.000514855660176842 0
          -0.0017401409650296584 0.0003861107067261435 0 -0.001676366244224941 0.0003254585197477977 0
          -0.001612136101358199 0.0002676702554186118 0
          <InformationKey name="L2_NORM_RANGE" location="vtkDataArray" length="2">
            <Value index="0">
              0
            </Value>
            <Value index="1">
              0.0019384411461
            </Value>
          </InformationKey>
        </DataArray>
      </PointData>
      <CellData>
        <DataArray type="UInt8" Name="vtkGhostType" format="ascii" RangeMin="0" RangeMax="1">
          1 1 0 1 1 1
          1 0 0 0 0 0
          0 0 0 0 0 0
          0 0 0 0 0 0
          0 0 0 0 0 0
          0 0 0 0 0 0
          0 0 0 0 0 0
          0 0 0 0 0 0
          0 0 0 0 0 0
          0 0 0 0 0 0
          0 0 0 0
        </DataArray>
        <DataArray type="Float64" Name="Gauss Stress" NumberOfComponents="6" format="ascii" RangeMin="327.10934534667916" RangeMax="939.4753418120621">
          454.8931234941268 672.9195261281955 0 -12.610449535091098 0 0
          345.9939568621253 667.830010103708 0 5.676844659819914 0 0
          238.89843661744038 662.3326172506587 0 17.94551886074899 0 0
          365.2073958387789 660.1582446157252 0 -1.4143716486117306 0 0
          249.0064877524647 655.5557992932968 0 10.768445503458006 0 0
          132.91759582891294 651.9968025719486 0 19.03645541888323 0 0
          15.109363200230145 650.8174444137525 0 23.86255183253187 0 0
          -407.77489859213 172.1281822230845 0 206.19777043924867 0 0
          -1.808211280939389 297.31515809274 0 136.3853032895609 0 0
          242.88634413971877 369.3458413789161 0 59.19241351880372 0 0
          482.6897998012617 463.0806129160661 0 0.5167695642441217 0 0
          731.6391758656691 562.8745958134509 0 -40.1054794979669 0 0
          -169.83028830952523 701.6056129603056 0 7.61109082124571 0 0
          -55.37356403377513 596.7950123231599 0 90.16520117172709 0 0
          180.7650571738219 592.4439753058224 0 101.62110810616016 0 0
          413.5368742020474 609.296165348978 0 85.40287322368484 0 0
          682.5085321989732 643.6789548483696 0 49.733534298345475 0 0
          -106.4530943216754 652.2070217959175 0 17.694896037550755 0 0
          40.014635477245356 669.1315747904205 0 60.76398495963418 0 0
          190.81520794869348 653.7976128168212 0 92.40466562819718 0 0
          373.6549304991084 649.0276742479163 0 89.56263138996842 0 0
          558.8337724658859 639.8438064890667 0 46.88818432445026 0 0
          -23.61599636109656 658.7687981276789 0 23.494567749643885 0 0
          91.04353882203415 657.3564270942361 0 63.0137608214896 0 0
          210.28472488855118 656.9355141022387 0 81.7942392979606 0 0
          331.2962191214589 648.2071100632512 0 75.37898238419041 0 0
          452.4303938976483 641.2737551357912 0 37.46388941321747 0 0
          60.78752926459503 658.7689361445603 0 22.72750410434954 0 0
          137.01658431666385 655.8668429675026 0 60.342871372569405 0 0
          214.07835131187386 651.0829695705771 0 75.01017195574093 0 0
          290.77806822101724 646.3604496068617 0 66.07599975569411 0 0
          363.3791724438601 642.3977542897354 0 32.85118620593049 0 0
          140.52965733899796 661.9289885379768 0 19.788783814605647 0 0
          177.11895947575388 657.1908865910113 0 54.6159233752477 0 0
          215.32234257369538 651.9958720130944 0 68.00770261961239 0 0
          252.23410249108866 647.2299978982069 0 60.11431213288316 0 0
          285.44245094423417 644.679634403717 0 30.97374962987132 0 0
          212.65357967273576 666.167602413235 0 15.836752425750278 0 0
          213.55478197577673 661.011159670919 0 47.77408507393406 0 0
          216.33070691543975 655.2766995415197 0 60.63865318254098 0 0
          218.16634615949687 650.4333114000387 0 54.592868980381525 0 0
          216.2480509407088 647.7639160613872 0 29.749610029812743 0 0
          276.8010660531439 670.9675403892677 0 11.373579764016885 0 0
          246.41346450177406 665.5125859053908 0 40.35515592932839 0 0
          218.0936798886541 659.483236566126 0 52.78615724709926 0 0
          188.95729910185736 654.3286616807194 0 48.8023375566532 0 0
          156.18112816001474 651.5931914147241 0 28.434293808600422 0 0
          333.3861891967151 675.3188713424893 0 6.14399572591538 0 0
          275.8905598315739 669.6358884006256 0 32.30578682089444 0 0
          220.85581203090874 663.3827035016391 0 44.420868992145294 0 0
          165.25069262800503 658.0400325742183 0 42.69807137392554 0 0
          105.79590923167636 655.0050615869352 0 27.299013151327706 0 0
          382.07188115939687 678.1763856127977 0 0.7998414519076471 0 0
          302.057376113237 672.4121207651276 0 23.87333571188336 0 0
          224.84707893211697 665.996455140379 0 35.65429337129601 0 0
          147.28824021503522 660.683854353138 0 36.28509247069633 0 0
          66.39019838074319 658.0649537001018 0 25.79815330744314 0 0
          422.6479443811669 678.597789222234 0 -5.266069015139679 0 0
          325.01005508530284 672.2775428205707 0 14.859491858849191 0 0
          230.70022268391546 665.9405372957291 0 26.785055665108896 0 0
          135.90786965081145 660.7384290936956 0 30.34158630829794 0 0
          37.594371283526804 658.2117412461082 0 25.477455380752975 0 0
          131.46462489130192 657.719695421726 0 24.05220113242094 0 0
          20.361933736258454 655.0832306471275 0 24.410279088260392 0 0
          <InformationKey name="L2_NORM_RANGE" location="vtkDataArray" length="2">
            <Value index="0">
              327.10934535
            </Value>
            <Value index="1">
              939.47534181
            </Value>
          </InformationKey>
        </DataArray>
        <DataArray type="Float64" Name="Gauss Strain" NumberOfComponents="6" format="ascii" RangeMin="0.0001344806737261188" RangeMax="0.000620853179502042">
          0.0000037878660863466218 0.00022176540674856413 0 -0.000025214995801124603 0 0
          -0.0000595263725542694 0.00026224473265286374 0 0.000011351533955741029 0 0
          -0.00012160397854396597 0.00030175419637895606 0 0.00003588465116744077 0 0
          -0.000044926886522467235 0.00024996384780914815 0 -0.000002828000422779166 0 0
          -0.00011282540141938077 0.0002936507353575174 0 0.000021533115965502438 0 0
          -0.00018108435546340673 0.000337913765866546 0 0.00003806701454249138 0 0
          -0.0002513380485996697 0.00038428581297568487 0 0.00004771879240909388 0 0
          -0.00031368269611919963 0.0002662296827778687 0 0.00041244167956296226 0 0
          -0.00012004948054117336 0.0001790469047237564 0 0.00027276341169295835 0 0
          -0.0000020046942557222502 0.00012443511877155422 0 0.00011837551236267412 0 0
          0.00010438613766662606 0.0000847791891136762 0 0.00000103680379172805 0 0
          0.00021381332271543094 0.00004509283745753045 0 -0.00008018820587080285 0 0
          -0.00038272010938686374 0.000488622919718476 0 0.000015219418336242235 0 0
          -0.0002720447924687841 0.00038005499601503895 0 0.00018031219382478103 0 0
          -0.00012854731181966006 0.0002830690397509217 0 0.00020321255559683108 0 0
          0.000004409670154442713 0.00020013006717764514 0 0.00017077237205967045 0 0
          0.00015203573407940318 0.00011321848657387668 0 0.00009944213175595547 0 0
          -0.0003248846700349417 0.0004336931284060902 0 0.00003538559146303527 0 0
          -0.00024371927316105266 0.00038530897224996197 0 0.00012151018221468957 0 0
          -0.00014706113507842455 0.0003158440384410516 0 0.00018477805427687753 0 0
          -0.00003541562894571193 0.0002399018685686899 0 0.000179089034458459 0 0
          0.00007937774555241693 0.00016036925051568507 0 0.00009375495258656834 0 0
          -0.0002777714857721547 0.0004045269475519974 0 0.00004698268807893557 0 0
          -0.00020837115778857274 0.0003578573417170327 0 0.0001260083726966727 0 0
          -0.00013662718493301362 0.00030994659051426787 0 0.00016355997815997812 0 0
          -0.00006050410628849478 0.00025634519185468996 0 0.00015072864922591393 0 0
          0.000014965946537007228 0.00020376831453781938 0 0.00007491193009492148 0 0
          -0.0002270960222059415 0.00037079943726850417 0 0.000045448183289548214 0 0
          -0.00018017602683365055 0.000338592129416837 0 0.00012066644783171423 0 0
          -0.00013200671727445212 0.0003049224854770882 0 0.00014999437613639547 0 0
          -0.00008408043125018859 0.0002714354698726551 0 0.00013212737427436362 0 0
          -0.00003892029170640687 0.00024004221934618988 0 0.00006568943861688794 0 0
          -0.00018048887690547136 0.000340826760162255 0 0.00003957109196171799 0 0
          -0.00015663214606298492 0.00032335971874492 0 0.00010921355704164384 0 0
          -0.00013162387992493585 0.00030497395864176324 0 0.000135991818640361 0 0
          -0.00010756073373874298 0.0002873641288725637 0 0.00012020706851863587 0 0
          -0.00008660592918857679 0.00027256437650595433 0 0.00006193608839215186 0 0
          -0.0001388908404173772 0.00031454342489548037 0 0.000031667931409250305 0 0
          -0.0001362891385380538 0.0003110889677874206 0 0.00009553144986778849 0 0
          -0.00013233012883556716 0.0003065393509122244 0 0.00012125616767329447 0 0
          -0.00012928955543972664 0.00030290230150584185 0 0.00010916677688593874 0 0
          -0.00012937037835061838 0.0003020708578121284 0 0.00005948892675462059 0 0
          -0.00010230861721516327 0.00029178312986630206 0 0.00002274291835408306 0 0
          -0.00011836674936896442 0.00030065594697173403 0 0.00008069561930974181 0 0
          -0.0001329540005932106 0.0003083581061073676 0 0.00010555378089091981 0 0
          -0.00014838000471809054 0.0003169128830177448 0 0.00009758817268585818 0 0
          -0.0001669579952729983 0.00032837402412681793 0 0.00005685930199185452 0 0
          -0.00007008845195199953 0.00027177531133670824 0 0.000012285635617590196 0 0
          -0.00010232351111966187 0.000291347430870198 0 0.00006459940863592212 0 0
          -0.00013285543534780062 0.00030959327601221 0 0.00008882602268265687 0 0
          -0.00016409476700701697 0.00032861351552533613 0 0.00008538201823028893 0 0
          -0.00019856960527556144 0.00035055607084716334 0 0.00005458957879153052 0 0
          -0.00004201361190245278 0.0002540282646146947 0 0.0000015994950438697711 0 0
          -0.00008772880582438859 0.00028255391419754194 0 0.00004773743896140345 0 0
          -0.00013150482808604869 0.00030956610944213314 0 0.0000712958885930707 0 0
          -0.00017593480110769666 0.00033737802686997775 0 0.00007255839532222644 0 0
          -0.0002234509251976269 0.0003681383028375229 0 0.000051588683595962654 0 0
          -0.000017832558295682865 0.00023806116932485744 0 -0.000010529646510206316 0 0
          -0.00007389920241104853 0.0002732992563307668 0 0.000029713159602941928 0 0
          -0.00012796867550934898 0.00030719383101884823 0 0.00005356054580330716 0 0
          -0.00018278789068396084 0.00034195931617463093 0 0.00006067348361525187 0 0
          -0.00024079780268151943 0.00037973351742999484 0 0.00005094773016880579 0 0
          -0.0001842468722175472 0.00034192548002814904 0 0.00004809683471141711 0 0
          -0.000249891769223326 0.0003847441877039698 0 0.0000488139347297422 0 0
          <InformationKey name="L2_NORM_RANGE" location="vtkDataArray" length="2">
            <Value index="0">
              0.00013448067373
            </Value>
            <Value index="1">
              0.0006208531795
            </Value>
          </InformationKey>
        </DataArray>
        <DataArray type="Float64" Name="Btraction" NumberOfComponents="3" format="ascii" RangeMin="0" RangeMax="339.9801676802423">
          -12.070054273483931 337.2398975587994 0 0 0 0
          0 0 0 0 0 0
          0 0 0 0 0 0
          -12.742840456790184 -325.6451404865617 0 77.1298504120366 267.2967162063687 0
          0 0 0 0 0 0
          0 0 0 75.62066549954464 -260.5640880398676 0
          -1.4681565538742578 328.7305911068694 0 0 0 0
          0 0 0 0 0 0
          -0.997164113737462 -320.3741332894407 0 -2.2584993890676226 328.91697396345177 0
          0 0 0 0 0 0
          0 0 0 -1.4131294829439285 -320.3378115418023 0
          -3.0342304846600894 329.18580525239196 0 0 0 0
          0 0 0 0 0 0
          -1.7031507539706308 -320.63392619295036 0 -3.6352657348680495 329.95285632042044 0
          0 0 0 0 0 0
          0 0 0 -2.2329245294600644 -321.4323166957457 0
          -4.117602151481913 331.5262640205371 0 0 0 0
          0 0 0 0 0 0
          -3.0620299821740087 -322.64087179446693 0 -4.794698918443915 333.71774859229856 0
          0 0 0 0 0 0
          0 0 0 -4.077121426552614 -324.21811167818674 0
          -5.7818044657192615 336.1750764467044 0 0 0 0
          0 0 0 0 0 0
          -5.196831942968213 -326.1033379078735 0 -7.025225823175407 338.3223603513838 0
          0 0 0 0 0 0
          0 0 0 -6.455886927495613 -327.86617549721456 0
          -8.379467201700649 339.7150265751804 0 0 0 0
          0 0 0 0 0 0
          -7.826681283161223 -329.32545266479957 0 -9.962853238763993 339.8341595120015 0
          0 0 0 0 0 0
          0 0 0 -9.359110893207808 -329.4782083681189 0
          0 0 0 -11.074950928937685 -328.03801369780103 0
          <InformationKey name="L2_NORM_RANGE" location="vtkDataArray" length="2">
            <Value index="0">
              0
            </Value>
            <Value index="1">
              339.98016768
            </Value>
          </InformationKey>
        </DataArray>
      </CellData>
      <Points>
        <DataArray type="Float32" Name="Points" NumberOfComponents="3" format="ascii" RangeMin="0.31320268577451565" RangeMax="0.397753309761242">
          0.33323219418525696 0.20200000703334808 0 0.33323219418525696 0.1979999989271164 0
          0.33323219418525696 0.1940000057220459 0 0.33323219418525696 0.1899999976158142 0
          0.32621198892593384 0.20999999344348907 0 0.32621198892593384 0.20600000023841858 0
          0.32621198892593384 0.20200000703334808 0 0.32621198892593384 0.1979999989271164 0
          0.32621198892593384 0.1940000057220459 0 0.32621198892593384 0.1899999976158142 0
          0.3191918134689331 0.20999999344348907 0 0.3191918134689331 0.20600000023841858 0
          0.3191918134689331 0.20200000703334808 0 0.3191918134689331 0.1979999989271164 0
          0.3191918134689331 0.1940000057220459 0 0.3191918134689331 0.1899999976158142 0
          0.31217160820961 0.20999999344348907 0 0.31217160820961 0.20600000023841858 0
          0.31217160820961 0.20200000703334808 0 0.31217160820961 0.1979999989271164 0
          0.31217160820961 0.1940000057220459 0 0.31217160820961 0.1899999976158142 0
          0.30515140295028687 0.20999999344348907 0 0.30515140295028687 0.20600000023841858 0
          0.30515140295028687 0.20200000703334808 0 0.30515140295028687 0.1979999989271164 0
          0.30515140295028687 0.1940000057220459 0 0.30515140295028687 0.1899999976158142 0
          0.29813119769096375 0.20999999344348907 0 0.29813119769096375 0.20600000023841858 0
          0.29813119769096375 0.20200000703334808 0 0.29813119769096375 0.1979999989271164 0
          0.29813119769096375 0.1940000057220459 0 0.29813119769096375 0.1899999976158142 0
          0.2911109924316406 0.20999999344348907 0 0.2911109924316406 0.20600000023841858 0
          0.2911109924316406 0.20200000703334808 0 0.2911109924316406 0.1979999989271164 0
          0.2911109924316406 0.1940000057220459 0 0.2911109924316406 0.1899999976158142 0
          0.2840907871723175 0.20999999344348907 0 0.2840907871723175 0.20600000023841858 0
          0.2840907871723175 0.20200000703334808 0 0.2840907871723175 0.1979999989271164 0
          0.2840907871723175 0.1940000057220459 0 0.2840907871723175 0.1899999976158142 0
          0.2770706117153168 0.20999999344348907 0 0.2770706117153168 0.20600000023841858 0
          0.2770706117153168 0.20200000703334808 0 0.2770706117153168 0.1979999989271164 0
          0.2770706117153168 0.1940000057220459 0 0.2770706117153168 0.1899999976158142 0
          0.27005040645599365 0.20999999344348907 0 0.27005040645599365 0.20600000023841858 0
          0.27005040645599365 0.20200000703334808 0 0.27005040645599365 0.1979999989271164 0
          0.27005040645599365 0.1940000057220459 0 0.27005040645599365 0.1899999976158142 0
          0.26303020119667053 0.20999999344348907 0 0.26303020119667053 0.20600000023841858 0
          0.26303020119667053 0.20200000703334808 0 0.26303020119667053 0.1979999989271164 0
          0.26303020119667053 0.1940000057220459 0 0.26303020119667053 0.1899999976158142 0
          0.2560099959373474 0.20999999344348907 0 0.2560099959373474 0.20600000023841858 0
          0.2560099959373474 0.20200000703334808 0 0.2560099959373474 0.1979999989271164 0
          0.2560099959373474 0.1940000057220459 0 0.2560099959373474 0.1899999976158142 0
          0.24898980557918549 0.20999999344348907 0 0.24898980557918549 0.20600000023841858 0
          0.24898980557918549 0.20200000703334808 0 0.24898980557918549 0.1979999989271164 0
          0.24898980557918549 0.1940000057220459 0 0.24898980557918549 0.1899999976158142 0
          0.33323219418525696 0.20600000023841858 0 0.33323219418525696 0.20999999344348907 0
          0.3402523994445801 0.20200000703334808 0 0.3402523994445801 0.20600000023841858 0
          0.3402523994445801 0.1979999989271164 0 0.3402523994445801 0.1940000057220459 0
          0.3402523994445801 0.1899999976158142 0
          <InformationKey name="L2_NORM_RANGE" location="vtkDataArray" length="2">
            <Value index="0">
              0.31320268577
            </Value>
            <Value index="1">
              0.39775330976
            </Value>
          </InformationKey>
        </DataArray>
      </Points>
      <Cells>
        <DataArray type="Int64" Name="connectivity" format="ascii" RangeMin="0" RangeMax="82">
          5 76 77 4 6 0
          76 5 7 1 0 6
          0 78 79 76 1 80
          78 0 2 81 80 1
          3 82 81 2 71 65
          64 70 72 66 65 71
          73 67 66 72 74 68
          67 73 75 69 68 74
          65 59 58 64 66 60
          59 65 67 61 60 66
          68 62 61 67 69 63
          62 68 59 53 52 58
          60 54 53 59 61 55
          54 60 62 56 55 61
          63 57 56 62 53 47
          46 52 54 48 47 53
          55 49 48 54 56 50
          49 55 57 51 50 56
          47 41 40 46 48 42
          41 47 49 43 42 48
          50 44 43 49 51 45
          44 50 41 35 34 40
          42 36 35 41 43 37
          36 42 44 38 37 43
          45 39 38 44 35 29
          28 34 36 30 29 35
          37 31 30 36 38 32
          31 37 39 33 32 38
          29 23 22 28 30 24
          23 29 31 25 24 30
          32 26 25 31 33 27
          26 32 23 17 16 22
          24 18 17 23 25 19
          18 24 26 20 19 25
          27 21 20 26 17 11
          10 16 18 12 11 17
          19 13 12 18 20 14
          13 19 21 15 14 20
          11 5 4 10 12 6
          5 11 13 7 6 12
          14 8 7 13 15 9
          8 14 8 2 1 7
          9 3 2 8
        </DataArray>
        <DataArray type="Int64" Name="offsets" format="ascii" RangeMin="4" RangeMax="256">
          4 8 12 16 20 24
          28 32 36 40 44 48
          52 56 60 64 68 72
          76 80 84 88 92 96
          100 104 108 112 116 120
          124 128 132 136 140 144
          148 152 156 160 164 168
          172 176 180 184 188 192
          196 200 204 208 212 216
          220 224 228 232 236 240
          244 248 252 256
        </DataArray>
        <DataArray type="UInt8" Name="types" format="ascii" RangeMin="9" RangeMax="9">
          9 9 9 9 9 9
          9 9 9 9 9 9
          9 9 9 9 9 9
          9 9 9 9 9 9
          9 9 9 9 9 9
          9 9 9 9 9 9
          9 9 9 9 9 9
          9 9 9 9 9 9
          9 9 9 9 9 9
          9 9 9 9 9 9
          9 9 9 9
        </DataArray>
      </Cells>
    </Piece>
  </UnstructuredGrid>
</VTKFile>
