<?xml version="1.0"?>
<VTKFile type="UnstructuredGrid" version="0.1" byte_order="LittleEndian" header_type="UInt32" compressor="vtkZLibDataCompressor">
  <UnstructuredGrid>
    <Piece NumberOfPoints="84" NumberOfCells="65">
      <PointData>
        <DataArray type="Float64" Name="sld_BC" NumberOfComponents="3" format="ascii" RangeMin="0" RangeMax="0">
          0 0 0 0 0 0
          0 0 0 0 0 0
          0 0 0 0 0 0
          0 0 0 0 0 0
          0 0 0 0 0 0
          0 0 0 0 0 0
          0 0 0 0 0 0
          0 0 0 0 0 0
          0 0 0 0 0 0
          0 0 0 0 0 0
          0 0 0 0 0 0
          0 0 0 0 0 0
          0 0 0 0 0 0
          0 0 0 0 0 0
          0 0 0 0 0 0
          0 0 0 0 0 0
          0 0 0 0 0 0
          0 0 0 0 0 0
          0 0 0 0 0 0
          0 0 0 0 0 0
          0 0 0 0 0 0
          0 0 0 0 0 0
          0 0 0 0 0 0
          0 0 0 0 0 0
          0 0 0 0 0 0
          0 0 0 0 0 0
          0 0 0 0 0 0
          0 0 0 0 0 0
          0 0 0 0 0 0
          0 0 0 0 0 0
          0 0 0 0 0 0
          0 0 0 0 0 0
          0 0 0 0 0 0
          0 0 0 0 0 0
          0 0 0 0 0 0
          0 0 0 0 0 0
          0 0 0 0 0 0
          0 0 0 0 0 0
          0 0 0 0 0 0
          0 0 0 0 0 0
          0 0 0 0 0 0
          0 0 0 0 0 0
          <InformationKey name="L2_NORM_RANGE" location="vtkDataArray" length="2">
            <Value index="0">
              0
            </Value>
            <Value index="1">
              0
            </Value>
          </InformationKey>
        </DataArray>
        <DataArray type="Float64" Name="sld_FIXNO" NumberOfComponents="3" format="ascii" RangeMin="1.4142135623730951" RangeMax="1.4142135623730951">
          -1 -1 0 -1 -1 0
          -1 -1 0 -1 -1 0
          -1 -1 0 -1 -1 0
          -1 -1 0 -1 -1 0
          -1 -1 0 -1 -1 0
          -1 -1 0 -1 -1 0
          -1 -1 0 -1 -1 0
          -1 -1 0 -1 -1 0
          -1 -1 0 -1 -1 0
          -1 -1 0 -1 -1 0
          -1 -1 0 -1 -1 0
          -1 -1 0 -1 -1 0
          -1 -1 0 -1 -1 0
          -1 -1 0 -1 -1 0
          -1 -1 0 -1 -1 0
          -1 -1 0 -1 -1 0
          -1 -1 0 -1 -1 0
          -1 -1 0 -1 -1 0
          -1 -1 0 -1 -1 0
          -1 -1 0 -1 -1 0
          -1 -1 0 -1 -1 0
          -1 -1 0 -1 -1 0
          -1 -1 0 -1 -1 0
          -1 -1 0 -1 -1 0
          -1 -1 0 -1 -1 0
          -1 -1 0 -1 -1 0
          -1 -1 0 -1 -1 0
          -1 -1 0 -1 -1 0
          -1 -1 0 -1 -1 0
          -1 -1 0 -1 -1 0
          -1 -1 0 -1 -1 0
          -1 -1 0 -1 -1 0
          -1 -1 0 -1 -1 0
          -1 -1 0 -1 -1 0
          -1 -1 0 -1 -1 0
          -1 -1 0 -1 -1 0
          -1 -1 0 -1 -1 0
          -1 -1 0 -1 -1 0
          -1 -1 0 -1 -1 0
          -1 -1 0 -1 -1 0
          -1 -1 0 -1 -1 0
          -1 -1 0 -1 -1 0
          <InformationKey name="L2_NORM_RANGE" location="vtkDataArray" length="2">
            <Value index="0">
              1.4142135624
            </Value>
            <Value index="1">
              1.4142135624
            </Value>
          </InformationKey>
        </DataArray>
        <DataArray type="Float64" Name="Disp" NumberOfComponents="3" format="ascii" RangeMin="0.00004473369548101678" RangeMax="0.000059633846999434745">
          0.000017593411241498387 -0.000046109337715778684 0 0.000018171989866054087 -0.00004600806272609396 0
          0.00001902707428824233 -0.00004587162041903018 0 0.00002008756529273111 -0.000045708951793978745 0
          0.000021369721743533385 -0.00004554922576336733 0 0.000022978553955918032 -0.00004541386205505588 0
          0.00001699732784580051 -0.00004774664018474862 0 0.00001771722863403556 -0.00004771945015875089 0
          0.000018570410126784083 -0.000047721504506328 0 0.000019611821203079027 -0.00004771756325010276 0
          0.00002086513092431786 -0.00004769913197060671 0 0.000022311986058240516 -0.00004763681336388241 0
          0.000016433598255568908 -0.00004983300372544388 0 0.00001725069187613392 -0.000049773064981067584 0
          0.000018122537748890868 -0.0000497250472970284 0 0.000019124585822914266 -0.000049667483307328204 0
          0.00002028678515418861 -0.00004957555883062714 0 0.000021594109768746956 -0.00004943832331097498 0
          0.00001591571847493772 -0.00005190809527254134 0 0.00001670394904575804 -0.00005182669296144601 0
          0.000017536848772951265 -0.000051719650354144376 0 0.00001846299193841797 -0.000051580100591241436 0
          0.000019522309707744016 -0.000051399529498400814 0 0.000020747291356036915 -0.000051180443127014216 0
          0.000015422222097213812 -0.00005383682811765503 0 0.000016108337974674264 -0.000053740316742844135 0
          0.000016829919924033865 -0.00005359232909133583 0 0.000017635120983989455 -0.000053389467054602885 0
          0.000018571041027416896 -0.00005313075972475875 0 0.000019686744013758586 -0.00005281809601900565 0
          0.000014962525084920245 -0.00005552392045083753 0 0.000015481916947908366 -0.000055419135891078866 0
          0.00001603224695095641 -0.000055239959612955996 0 0.00001666386989783283 -0.00005498522958463001 0
          0.00001742754590795205 -0.000054654486165846434 0 0.00001837577825058547 -0.00005424818630662796 0
          0.000014546083416389784 -0.00005685686462079198 0 0.000014836924559407514 -0.00005674943010701053 0
          0.000015157620359303761 -0.00005654518747475424 0 0.00001555875968374857 -0.00005624372670541264 0
          0.000016091669342183783 -0.00005584444050047633 0 0.00001680903961147064 -0.00005534630958494872 0
          0.0000141771885973401 -0.00005772200893509598 0 0.000014179381394564755 -0.00005761373618254927 0
          0.000014212075702672896 -0.00005738679723029973 0 0.000014324872370524841 -0.00005704172341836222 0
          0.000014566998846381077 -0.00005657732098408158 0 0.000014989344206046578 -0.000055990806897186855 0
          0.000013855006315727135 -0.00005800202158496852 0 0.000013509030723573026 -0.00005789188558117809 0
          0.00001319881561576043 -0.000057643509553565165 0 0.000012968493913100894 -0.00005725822935610464 0
          0.000012862450409064083 -0.00005673426525106394 0 0.000012927080610903525 -0.00005606654780319349 0
          0.000013571179797530474 -0.00005757637227958902 0 0.000012824076580917825 -0.000057465516563303775 0
          0.000012121072083339589 -0.00005719798916840092 0 0.000011498933120367224 -0.000056776958594404924 0
          0.000010993387583068973 -0.00005620039986214701 0 0.000010641674455439779 -0.00005546095168858856 0
          0.000013311226517692626 -0.00005635661013113019 0 0.000012117429887366206 -0.00005623829361569343 0
          0.000010981869106081938 -0.00005595139710673789 0 0.000009928138010747653 -0.00005549905267213883 0
          0.00000898096293206842 -0.00005487813469028676 0 0.000008165637239152278 -0.00005407985426433509 0
          0.000013050224783318858 -0.000054250268225027886 0 0.000011382399000227085 -0.00005412602464213537 0
          0.00000978620380472437 -0.00005382454230305826 0 0.00000827247825733104 -0.00005334886376113194 0
          0.000006853141672647259 -0.000052695791803176976 0 0.0000055418791342501815 -0.00005185513449198632 0
          0.000012767279854263319 -0.00005122646891626706 0 0.000010611382720502053 -0.00005109053326824528 0
          0.000008539603638003734 -0.000050774266163597597 0 0.000006551943725758841 -0.000050281902357635304 0
          0.000004646013468626719 -0.000049610657526946364 0 0.000002819110949545649 -0.00004874981041591224 0
          0.000009790325492239413 -0.00004711061372429015 0 0.000012439622165359961 -0.00004726474088874173 0
          0.0000072448782588364946 -0.000046779386345060945 0 0.0000047861390405617336 -0.00004627649710887539 0
          0.000002395839044355961 -0.00004559833998895574 0 5.5029705221597344e-8 -0.00004473366163326991 0
          <InformationKey name="L2_NORM_RANGE" location="vtkDataArray" length="2">
            <Value index="0">
              4.4733695481e-05
            </Value>
            <Value index="1">
              5.9633846999e-05
            </Value>
          </InformationKey>
        </DataArray>
        <DataArray type="Float64" Name="Sld_traction" NumberOfComponents="3" format="ascii" RangeMin="0" RangeMax="154.23234396125608">
          91.23205772988122 88.36489406524387 0 145.21014154890642 33.06841949012863 0
          121.74769567091808 12.288185113393011 0 123.60334399065444 -3.5426632264296987 0
          151.6063134431 -28.339753844656453 0 93.53838273840768 -84.25708345883068 0
          43.486281423265915 131.56674964813087 0 0 0 0
          0 0 0 0 0 0
          0 0 0 38.058462804729025 -132.215171800791 0
          48.63508380967272 110.66207246215093 0 0 0 0
          0 0 0 0 0 0
          0 0 0 38.457169240465994 -119.27675837280975 0
          45.53909236677326 83.93785435864653 0 0 0 0
          0 0 0 0 0 0
          0 0 0 32.24671613303053 -106.07117991265925 0
          44.315035575461295 64.35117838300707 0 0 0 0
          0 0 0 0 0 0
          0 0 0 29.04786766342821 -103.41786900066086 0
          43.88959402672279 46.98079479141634 0 0 0 0
          0 0 0 0 0 0
          0 0 0 27.21526796959647 -105.46680030989587 0
          43.160042397880865 31.54399630235242 0 0 0 0
          0 0 0 0 0 0
          0 0 0 26.30626976220863 -109.1951145620271 0
          41.739760534398826 17.10841765279638 0 0 0 0
          0 0 0 0 0 0
          0 0 0 25.846896553661754 -113.89617833846985 0
          39.16228280933418 3.8693874102282546 0 0 0 0
          0 0 0 0 0 0
          0 0 0 25.703746169477675 -119.58105338002258 0
          35.743062491633076 -6.465457118499436 0 0 0 0
          0 0 0 0 0 0
          0 0 0 25.735727277144594 -125.16177541436856 0
          31.34974518952317 -14.154458551425073 0 0 0 0
          0 0 0 0 0 0
          0 0 0 25.70377763916668 -129.7586132619767 0
          26.084697336377733 -16.032596692129875 0 0 0 0
          0 0 0 0 0 0
          0 0 0 25.319527509537846 -134.0023664094121 0
          20.846042308450308 -15.110100388352528 0 0 0 0
          0 0 0 0 0 0
          0 0 0 25.044077012885914 -138.37162519302888 0
          0 0 0 15.065032861351717 -10.479166533092627 0
          0 0 0 0 0 0
          0 0 0 24.71376588811779 -140.38962426928722 0
          <InformationKey name="L2_NORM_RANGE" location="vtkDataArray" length="2">
            <Value index="0">
              0
            </Value>
            <Value index="1">
              154.23234396
            </Value>
          </InformationKey>
        </DataArray>
        <DataArray type="Float64" Name="Fld_traction" NumberOfComponents="3" format="ascii" RangeMin="0" RangeMax="159.11235719204836">
          101.71587625244324 71.50015236716055 0 158.8585743894618 0.01242689511442762 0
          151.558893527972 0.5138611074211442 0 151.62069178444358 -0.1379732621183342 0
          159.11192124360102 0.37246393125660765 0 103.61623178260885 -66.68613044984761 0
          48.23825046600034 117.54689461968304 0 0 0 0
          0 0 0 0 0 0
          0 0 0 47.795023855927184 -114.10135102443687 0
          46.47115753817064 103.42082376092588 0 0 0 0
          0 0 0 0 0 0
          0 0 0 45.20220104870143 -101.69327134155712 0
          45.32568100065259 91.82693016838049 0 0 0 0
          0 0 0 0 0 0
          0 0 0 44.16015035603322 -91.87400029505618 0
          43.688909551303894 82.74676116338965 0 0 0 0
          0 0 0 0 0 0
          0 0 0 43.024159463774474 -83.6280417285821 0
          43.01387654977058 74.50459573724025 0 0 0 0
          0 0 0 0 0 0
          0 0 0 41.69938008509321 -77.21068823027383 0
          42.25536855961541 67.74994121166282 0 0 0 0
          0 0 0 0 0 0
          0 0 0 40.79640395302988 -71.8912956257626 0
          40.88313492610752 61.71655632776053 0 0 0 0
          0 0 0 0 0 0
          0 0 0 39.99388348657081 -67.49746295843168 0
          38.9671579485828 56.20489883643474 0 0 0 0
          0 0 0 0 0 0
          0 0 0 39.053563453325886 -64.52818910282657 0
          36.41278844781756 52.92882854716647 0 0 0 0
          0 0 0 0 0 0
          0 0 0 37.505901079220365 -62.47029085477101 0
          33.74936017996893 50.03467122693836 0 0 0 0
          0 0 0 0 0 0
          0 0 0 35.3991155444134 -61.251410695849955 0
          30.005532078833625 51.277563553433666 0 0 0 0
          0 0 0 0 0 0
          0 0 0 32.96659127821378 -61.52724933968423 0
          25.978625120845535 53.604416880899564 0 0 0 0
          0 0 0 0 0 0
          0 0 0 29.89047377692698 -64.75634719742317 0
          0 0 0 22.377836328453593 57.52272329513757 0
          0 0 0 0 0 0
          0 0 0 26.814312457550866 -67.9854910523967 0
          <InformationKey name="L2_NORM_RANGE" location="vtkDataArray" length="2">
            <Value index="0">
              0
            </Value>
            <Value index="1">
              159.11235719
            </Value>
          </InformationKey>
        </DataArray>
        <DataArray type="Float64" Name="Velocity" NumberOfComponents="3" format="ascii" RangeMin="0.0031358419384756747" RangeMax="0.004554154046443011">
          -0.003276364751090042 -0.0024964236611914542 0 -0.003409985278721769 -0.002493503443997206 0
          -0.003530404373984081 -0.002488844086065238 0 -0.003640110641316785 -0.0024832513223970874 0
          -0.003738870288854139 -0.0024780733939947625 0 -0.0038234479081573048 -0.0024741796968572806 0
          -0.003295030407156688 -0.002286674975863534 0 -0.0034234167517740595 -0.0022887736294963604 0
          -0.0035435255233805907 -0.0022922132122604045 0 -0.0036535245696331818 -0.0022957342485807816 0
          -0.0037531784308688703 -0.0022988690568536223 0 -0.003843963556494064 -0.0023002528023488007 0
          -0.0033058580408670147 -0.002091544677293859 0 -0.003430279489079366 -0.002094996065141385 0
          -0.0035485516531450437 -0.0020992835709182623 0 -0.003658899210689088 -0.0021038377475132977 0
          -0.003761180630126398 -0.0021076940416597063 0 -0.0038569283680802034 -0.0021102385063846716 0
          -0.003309663819182446 -0.0018965977399684358 0 -0.0034335947034675155 -0.0019013112139449075 0
          -0.0035511906198180867 -0.0019060145863789486 0 -0.003662059603822053 -0.0019106062816058066 0
          -0.003766074066625308 -0.0019147755227488777 0 -0.00386339625032765 -0.001918439936161105 0
          -0.0033085473954701946 -0.0016998105697626934 0 -0.003432963027002944 -0.0017056835140920603 0
          -0.0035510052678420423 -0.0017112704969047066 0 -0.0036625505874536084 -0.0017165430091073287 0
          -0.0037674665266654887 -0.00172146334621693 0 -0.003865582303955035 -0.0017260053917359298 0
          -0.0033030599335630447 -0.0015012756434870885 0 -0.0034283130969741185 -0.0015083141678394324 0
          -0.003547161123620515 -0.0015149864427160637 0 -0.0036595285845073245 -0.0015212895355863833 0
          -0.0037652894808284944 -0.001527203458045738 0 -0.0038642611114417646 -0.0015327022163328335 0
          -0.00329339548493051 -0.0013007989172947652 0 -0.003419610041935417 -0.001309070754399704 0
          -0.0035393885210281413 -0.0013169547253207765 0 -0.0036526970678495726 -0.0013244366374609298 0
          -0.003759428524422229 -0.0013314906087138379 0 -0.003859420767901439 -0.0013380796255751367 0
          -0.003279736484355863 -0.0010983682105777364 0 -0.0034068991083303223 -0.0011078367379820917 0
          -0.0035276552411367323 -0.0011169400276058884 0 -0.003641977288483115 -0.001125652757510838 0
          -0.0037497966542791063 -0.0011339258487875182 0 -0.003850967180954844 -0.0011416864118969179 0
          -0.0032622523977821703 -0.0008937578893403051 0 -0.0033903556441517426 -0.0009043518975984852 0
          -0.0035120401144295562 -0.0009146377712811234 0 -0.0036273472212859127 -0.0009246037625973197 0
          -0.003736289942753205 -0.0009341882921656496 0 -0.0038387920844283555 -0.0009432692325877787 0
          -0.0032412126480852455 -0.0006866328527029159 0 -0.003370199760318242 -0.0006982924334309045 0
          -0.0034926816022165055 -0.0007097063875668047 0 -0.003608829614321506 -0.0007208937235700153 0
          -0.003718806171639374 -0.000731785028320139 0 -0.003822738654080737 -0.0007422104533705941 0
          -0.0032170907539573845 -0.00047723584602975266 0 -0.0033467645418857575 -0.0004897571233787484 0
          -0.0034697678910731223 -0.0005021993529656351 0 -0.003586486207601472 -0.0005145675109873677 0
          -0.0036972649977970655 -0.0005267689324188681 0 -0.003802440777983944 -0.0005386268688201052 0
          -0.003190488660121445 -0.0002657550503236352 0 -0.0033203587521761753 -0.00027912069688277165 0
          -0.0034434328027987612 -0.0002926157977149003 0 -0.003560295710875269 -0.0003062235049070267 0
          -0.003671464707123861 -0.0003198479519208595 0 -0.003777411829584207 -0.00033331646530770123 0
          -0.0031619274236183697 -0.00005354919407343545 0 -0.0032912562842184584 -0.00006761725156414133 0
          -0.003413773242484087 -0.00008210971023937894 0 -0.003530170059552227 -0.00009698903396111454 0
          -0.003641106517909491 -0.00011216247967465586 0 -0.0037472135062936516 -0.0001274665070272983 0
          -0.0032598277332569633 0.00014328191534899624 0 -0.00313186410343254 0.0001578983873684861 0
          -0.003380970136735015 0.00012789928906925942 0 -0.00349609508310003 0.0001117824707126203 0
          -0.003605998026476555 0.00009503767462549031 0 -0.003711446071656695 0.00007783622958432873 0
          <InformationKey name="L2_NORM_RANGE" location="vtkDataArray" length="2">
            <Value index="0">
              0.0031358419385
            </Value>
            <Value index="1">
              0.0045541540464
            </Value>
          </InformationKey>
        </DataArray>
      </PointData>
      <CellData>
        <DataArray type="UInt8" Name="vtkGhostType" format="ascii" RangeMin="0" RangeMax="0">
          0 0 0 0 0 0
          0 0 0 0 0 0
          0 0 0 0 0 0
          0 0 0 0 0 0
          0 0 0 0 0 0
          0 0 0 0 0 0
          0 0 0 0 0 0
          0 0 0 0 0 0
          0 0 0 0 0 0
          0 0 0 0 0 0
          0 0 0 0 0
        </DataArray>
        <DataArray type="Float64" Name="Gauss Stress" NumberOfComponents="6" format="ascii" RangeMin="161.73271948341616" RangeMax="644.6078991016276">
          173.77210328035082 55.68232087275631 0 17.47966254904607 0 0
          290.9804544466611 59.35582153161182 0 4.519486776245117 0 0
          405.82793636996144 63.46775165497131 0 -7.094324332564539 0 0
          521.3540549485899 66.69785797984792 0 -17.129789088653265 0 0
          640.5245189160464 67.77631836760848 0 -25.57449745574489 0 0
          160.66937877028164 53.06144057718688 0 23.177163587339585 0 0
          277.1320186514784 56.20837263982565 0 12.475277056274045 0 0
          392.3783933880947 60.05854033361447 0 0.9198573265986294 0 0
          508.4662268122826 63.22121582694524 0 -11.350700462292243 0 0
          628.2185733119817 64.46716629277884 0 -24.43205845479913 0 0
          152.44992569500894 51.172275938030815 0 28.603005507708755 0 0
          265.66735249349705 54.60361505264354 0 19.738522664044957 0 0
          377.413723788038 58.339248729943925 0 8.103755518992052 0 0
          490.02544563515147 61.332783353589555 0 -6.445487856634003 0 0
          605.5526212212973 62.31324219434394 0 -24.10756223790652 0 0
          149.34364525583382 51.84029519545886 0 34.15453069870422 0 0
          255.87251643944649 55.09752999422286 0 26.792802849553638 0 0
          360.73501314243094 58.55539508242395 0 14.810636427980382 0 0
          466.233160515002 61.362432067888406 0 -1.8380370959364027 0 0
          574.5183787790377 62.66050936040906 0 -23.372745596678257 0 0
          151.7665472466224 55.13729992682339 0 37.97020505814739 0 0
          247.6542898098925 57.62110835057465 0 32.26696554643896 0 0
          342.6675707451185 60.45956502972763 0 20.26135776095584 0 0
          438.1523975099461 62.81831539880345 0 2.0597118383954527 0 0
          535.7571997153584 63.998193267316836 0 -22.647720714873902 0 0
          157.45848946873906 59.46795783186131 0 41.36244818876991 0 0
          240.87916772937868 61.55825419598196 0 36.39134162597732 0 0
          323.6811501574522 63.62435323406786 0 24.19763591005059 0 0
          406.8570890652263 65.31885767984028 0 4.797441142382372 0 0
          491.1815889887332 66.14056154885613 0 -22.140237033936497 0 0
          165.38967774441642 65.3293111581215 0 43.27673699635781 0 0
          234.72283348860432 66.65966765398834 0 38.66917157230351 0 0
          304.019243764598 67.99003126367258 0 26.277584972907654 0 0
          373.4579442066205 69.03854900497697 0 6.092508618515366 0 0
          443.3719440114533 69.6090717077861 0 -22.158093744857183 0 0
          173.77220366930152 71.66153307581821 0 44.20875007321135 0 0
          228.86558894200482 72.7226449380365 0 39.42622629816622 0 0
          283.9811225542759 73.4701615361093 0 26.765951547964214 0 0
          339.07406354840435 73.97877719694085 0 6.178519624536942 0 0
          394.10970859977067 74.32925466309354 0 -22.58750902404464 0 0
          181.81629364812017 79.31768177470472 0 44.52983621315117 0 0
          222.5614999483908 80.25738654121665 0 38.97834077492869 0 0
          263.63604964696674 80.46568972293824 0 25.718577905011884 0 0
          304.5698576740096 80.28054504817972 0 4.889176428473281 0 0
          344.79055953590006 80.10598019434005 0 -23.774049484442994 0 0
          188.3340902415353 88.54854397907665 0 44.69569890637857 0 0
          214.66020581813595 90.03182640447625 0 37.69419592019315 0 0
          242.44924828847306 90.3506633484354 0 22.931654625073776 0 0
          270.4538601816402 88.83550730367847 0 1.4063936207669705 0 0
          297.07095485008085 87.3085543228164 0 -26.292801958099442 0 0
          192.26547159589194 98.79800125066946 0 46.707422539953306 0 0
          203.33006154586622 103.31420954479057 0 37.62844961780468 0 0
          217.37193953587672 103.91074242733714 0 18.644238865810422 0 0
          236.74697067862576 101.11744068916354 0 -5.760604373084131 0 0
          255.38751098106164 96.07376322966932 0 -31.251414947330918 0 0
          198.4703952256497 114.22822873329811 0 51.37742722336446 0 0
          184.02489167718971 113.17307869443644 0 36.67519233855022 0 0
          184.5905937750171 110.31042425307518 0 13.082215456161407 0 0
          200.28736271195018 110.59328163528264 0 -14.693944345957695 0 0
          227.29335014087962 110.00717226438691 0 -41.1401490666371 0 0
          192.492856728949 101.60827790280219 0 38.104964653271985 0 0
          161.26713693674918 79.56545831085847 0 20.064735608636994 0 0
          157.74306789839812 70.51307556799865 0 6.049599969663648 0 0
          165.154813535296 73.05851566220718 0 -10.361133741321243 0 0
          201.1146472385953 92.96955617095111 0 -35.23657040196174 0 0
          <InformationKey name="L2_NORM_RANGE" location="vtkDataArray" length="2">
            <Value index="0">
              161.73271948
            </Value>
            <Value index="1">
              644.6078991
            </Value>
          </InformationKey>
        </DataArray>
        <DataArray type="Float64" Name="Gauss Strain" NumberOfComponents="6" format="ascii" RangeMin="0.00007065703890630527" RangeMax="0.0004202329587543077">
          0.00008198286850227832 -0.00003610108492355102 0 0.00003495778225619374 0 0
          0.0001508221154669226 -0.00008078591087926079 0 0.00000903838868438407 0 0
          0.00021805956526782522 -0.00012426811417715067 0 -0.000014187283295651045 0 0
          0.00028604635922127586 -0.00016855597621878712 0 -0.00003425552680891699 0 0
          0.0003570677704917702 -0.00021559886269659212 0 -0.000051141737391021694 0 0
          0.00007517038474302849 -0.0000324325516862789 0 0.000046352384759414046 0 0
          0.00014377397666372194 -0.00007713456031793742 0 0.000024948938955396852 0 0
          0.0002113565156601632 -0.00012093289106593352 0 0.0000018396024001013275 0 0
          0.000279708181934471 -0.00016548552900502722 0 -0.000022698745015656316 0 0
          0.0003510123376357366 -0.00021266053551138864 0 -0.000048857277232879635 0 0
          0.0000709946768630565 -0.00003027846878830842 0 0.00005720370053905781 0 0
          0.00013753864913799985 -0.00007351121185977805 0 0.000039474562912023765 0 0
          0.00020306898774508084 -0.0001159773272969844 0 0.0000162061724790914 0 0
          0.000269405201628381 -0.0001592398224741498 0 -0.000012889449906194825 0 0
          0.00033828371762956166 -0.0002048827052770208 0 -0.00004820854065483924 0 0
          0.0000688636655074709 -0.00002863542436212785 0 0.00006830633580483177 0 0
          0.00013146559287099957 -0.00006929659281104672 0 0.000053582330841116563 0 0
          0.00019297945370627676 -0.00010917451637576514 0 0.000029618882179965888 0 0
          0.00025512611655501 -0.0001497015757886133 0 -0.000003675551339098219 0 0
          0.00031953766660962335 -0.00019225463886879401 0 -0.00004673934711028957 0 0
          0.00006899840592547446 -0.000027626570860583843 0 0.000075937269684487 0 0
          0.00012552659560739754 -0.00006449472495770327 0 0.00006453004300836439 0 0
          0.0001813818637847603 -0.0001008031375351326 0 0.000040519545185697405 0 0
          0.00023770464760833332 -0.0001375915767003466 0 0.000004119155871472953 0 0
          0.00029576181547277813 -0.0001759403447564589 0 -0.00004528980302010327 0 0
          0.00007068091555635647 -0.000027305159902762943 0 0.0000827213119170884 0 0
          0.00011988796991038719 -0.000059421900988149146 0 0.00007277833171703924 0 0
          0.000168728786348743 -0.00009130767691881146 0 0.000048391618479512163 0 0
          0.00021793704250766543 -0.00012356875203151096 0 0.000009594119328262762 0 0
          0.00026817642727336444 -0.00015681704697514953 0 -0.0000442753385983838 0 0
          0.00007309473394756516 -0.000026960874711490224 0 0.00008654948188204105 0 0
          0.00011415501439682174 -0.000053897883982606525 0 0.00007733372675082307 0 0
          0.00015519010909320619 -0.00008082141263310304 0 0.0000525513467255106 0 0
          0.00019641938872511086 -0.0001079729466260948 0 0.000012184069594257495 0 0
          0.0002381197641330851 -0.00013560465883399875 0 -0.000044311461369907546 0 0
          0.00007559107714703861 -0.000026514492982882 0 0.0000884131643158556 0 0
          0.00010821700015072044 -0.00004791644006302275 0 0.00007884773627867435 0 0
          0.0001409798198593326 -0.00006951601382129691 0 0.000053528150568778196 0 0
          0.00017382208601277038 -0.00009125123627345966 0 0.000012356127626817787 0 0
          0.00020668948828835024 -0.00011306096218155481 0 -0.000045170639743172767 0 0
          0.00007735496990607382 -0.00002513824223521199 0 0.00008905503073518529 0 0
          0.00010142239784372008 -0.000040873052745860054 0 0.00007795199716394846 0 0
          0.00012597906645313295 -0.00005717865102297659 0 0.000051433678111489575 0 0
          0.00015060706226120713 -0.00007366496427813063 0 0.0000097776858613235 0 0
          0.0001748003895452599 -0.00008986169649408127 0 -0.00004754395037530385 0 0
          0.00007757347635324595 -0.000022206527750257002 0 0.00008938645833362209 0 0
          0.00009277394468588938 -0.00003184682793697102 0 0.00007538382929714924 0 0
          0.00010931750572495956 -0.00004277095180257873 0 0.000045860309463231473 0 0
          0.00012672269369314038 -0.00005488261475927736 0 0.0000028126516548639147 0 0
          0.00014329822481304322 -0.00006644807594644031 0 -0.00005258149091499985 0 0
          0.00007583279980967472 -0.0000176292305699155 0 0.0000934094114616571 0 0
          0.00008066534023400129 -0.000019344393496739665 0 0.00007525229968421149 0 0
          0.00008885176404559159 -0.000024602167681880834 0 0.000037286124636757805 0 0
          0.00010159196393055847 -0.000034028424217874547 0 -0.000011520367294885341 0 0
          0.00011478959767335929 -0.000044512975136912214 0 -0.00006249838998489084 0 0
          0.00007338377470154922 -0.000010853112940467646 0 0.00010274840626253392 0 0
          0.00006514118758005338 -0.000005706426441570711 0 0.00007334601828862123 0 0
          0.0000666268317646157 -0.00000764896899632661 0 0.000026162902274019477 0 0
          0.00007593040439765608 -0.000013758113885264933 0 -0.000029386015243297892 0 0
          0.00009236389652259036 -0.00002491436555934756 0 -0.00008227467538525317 0 0
          0.00007484615893849078 -0.000016033068862247868 0 0.00007620551887252262 0 0
          0.00006493013985728324 -0.000016767703367975836 0 0.00004012753651557277 0 0
          0.00006643674845709102 -0.00002078939231345278 0 0.000012098626727596 0 0
          0.0000698650980479748 -0.000022226914681289234 0 -0.000020721308314591512 0 0
          0.00008347341990466717 -0.00002466529387873395 0 -0.00007046907740468506 0 0
          <InformationKey name="L2_NORM_RANGE" location="vtkDataArray" length="2">
            <Value index="0">
              7.0657038906e-05
            </Value>
            <Value index="1">
              0.00042023295875
            </Value>
          </InformationKey>
        </DataArray>
        <DataArray type="Float64" Name="Btraction" NumberOfComponents="3" format="ascii" RangeMin="0" RangeMax="77.68317537645716">
          12.089115362324783 27.78178504400928 0 0 0 0
          0 0 0 0 0 0
          14.17619655861946 -33.185459562454966 0 13.996039299919788 26.220495108583304 0
          0 0 0 0 0 0
          0 0 0 15.714266263785188 -31.57089913427685 0
          15.938723064700634 25.328058695093006 0 0 0 0
          0 0 0 0 0 0
          17.091426705656794 -30.69466500888354 0 17.540537156946627 25.7408749435262 0
          0 0 0 0 0 0
          0 0 0 18.22625415590844 -30.93042538765524 0
          18.84498659910009 27.283431845900296 0 0 0 0
          0 0 0 0 0 0
          19.13986613313656 -31.749619989399392 0 19.96257321867258 29.480363791048813 0
          0 0 0 0 0 0
          0 0 0 19.761861734974172 -33.00641301531456 0
          20.784625871430734 32.36662438485583 0 0 0 0
          0 0 0 0 0 0
          20.197571859900172 -34.84718964604856 0 21.3173112773465 35.56363423722577 0
          0 0 0 0 0 0
          0 0 0 20.62394600953077 -37.27549596400911 0
          21.67569652526862 39.312839225157475 0 0 0 0
          0 0 0 0 0 0
          21.18088488721692 -40.209682489713984 0 22.25364763798912 43.643422832942534 0
          0 0 0 0 0 0
          0 0 0 21.796077454951924 -43.875510505909574 0
          22.949209634705802 48.811938482326596 0 0 0 0
          0 0 0 0 0 0
          22.340587851183663 -48.39181790915332 0 23.677352001042742 55.24192959515222 0
          0 0 0 0 0 0
          0 0 0 23.24930622615715 -53.94865559149849 0
          37.4885316796109 47.26176174671089 0 77.60436697935845 0.131572000633893 0
          75.79489632810389 0.0939719613257025 0 77.68315325701114 0.05862266728456836 0
          65.68203825655246 -16.578416629647748 0
          <InformationKey name="L2_NORM_RANGE" location="vtkDataArray" length="2">
            <Value index="0">
              0
            </Value>
            <Value index="1">
              77.683175376
            </Value>
          </InformationKey>
        </DataArray>
      </CellData>
      <Points>
        <DataArray type="Float32" Name="Points" NumberOfComponents="3" format="ascii" RangeMin="0.5430595415073552" RangeMax="0.6356886233499035">
          0.6000000238418579 0.20999999344348907 0 0.6000000238418579 0.20600000023841858 0
          0.6000000238418579 0.20200000703334808 0 0.6000000238418579 0.1979999989271164 0
          0.6000000238418579 0.1940000057220459 0 0.6000000238418579 0.1899999976158142 0
          0.5929797887802124 0.20999999344348907 0 0.5929797887802124 0.20600000023841858 0
          0.5929797887802124 0.20200000703334808 0 0.5929797887802124 0.1979999989271164 0
          0.5929797887802124 0.1940000057220459 0 0.5929797887802124 0.1899999976158142 0
          0.5859596133232117 0.20999999344348907 0 0.5859596133232117 0.20600000023841858 0
          0.5859596133232117 0.20200000703334808 0 0.5859596133232117 0.1979999989271164 0
          0.5859596133232117 0.1940000057220459 0 0.5859596133232117 0.1899999976158142 0
          0.5789393782615662 0.20999999344348907 0 0.5789393782615662 0.20600000023841858 0
          0.5789393782615662 0.20200000703334808 0 0.5789393782615662 0.1979999989271164 0
          0.5789393782615662 0.1940000057220459 0 0.5789393782615662 0.1899999976158142 0
          0.5719192028045654 0.20999999344348907 0 0.5719192028045654 0.20600000023841858 0
          0.5719192028045654 0.20200000703334808 0 0.5719192028045654 0.1979999989271164 0
          0.5719192028045654 0.1940000057220459 0 0.5719192028045654 0.1899999976158142 0
          0.5648990273475647 0.20999999344348907 0 0.5648990273475647 0.20600000023841858 0
          0.5648990273475647 0.20200000703334808 0 0.5648990273475647 0.1979999989271164 0
          0.5648990273475647 0.1940000057220459 0 0.5648990273475647 0.1899999976158142 0
          0.5578787922859192 0.20999999344348907 0 0.5578787922859192 0.20600000023841858 0
          0.5578787922859192 0.20200000703334808 0 0.5578787922859192 0.1979999989271164 0
          0.5578787922859192 0.1940000057220459 0 0.5578787922859192 0.1899999976158142 0
          0.5508586168289185 0.20999999344348907 0 0.5508586168289185 0.20600000023841858 0
          0.5508586168289185 0.20200000703334808 0 0.5508586168289185 0.1979999989271164 0
          0.5508586168289185 0.1940000057220459 0 0.5508586168289185 0.1899999976158142 0
          0.543838381767273 0.20999999344348907 0 0.543838381767273 0.20600000023841858 0
          0.543838381767273 0.20200000703334808 0 0.543838381767273 0.1979999989271164 0
          0.543838381767273 0.1940000057220459 0 0.543838381767273 0.1899999976158142 0
          0.5368182063102722 0.20999999344348907 0 0.5368182063102722 0.20600000023841858 0
          0.5368182063102722 0.20200000703334808 0 0.5368182063102722 0.1979999989271164 0
          0.5368182063102722 0.1940000057220459 0 0.5368182063102722 0.1899999976158142 0
          0.5297979712486267 0.20999999344348907 0 0.5297979712486267 0.20600000023841858 0
          0.5297979712486267 0.20200000703334808 0 0.5297979712486267 0.1979999989271164 0
          0.5297979712486267 0.1940000057220459 0 0.5297979712486267 0.1899999976158142 0
          0.522777795791626 0.20999999344348907 0 0.522777795791626 0.20600000023841858 0
          0.522777795791626 0.20200000703334808 0 0.522777795791626 0.1979999989271164 0
          0.522777795791626 0.1940000057220459 0 0.522777795791626 0.1899999976158142 0
          0.5157576203346252 0.20999999344348907 0 0.5157576203346252 0.20600000023841858 0
          0.5157576203346252 0.20200000703334808 0 0.5157576203346252 0.1979999989271164 0
          0.5157576203346252 0.1940000057220459 0 0.5157576203346252 0.1899999976158142 0
          0.508737325668335 0.20600000023841858 0 0.508737325668335 0.20999999344348907 0
          0.508737325668335 0.20200000703334808 0 0.508737325668335 0.1979999989271164 0
          0.508737325668335 0.1940000057220459 0 0.508737325668335 0.1899999976158142 0
          <InformationKey name="L2_NORM_RANGE" location="vtkDataArray" length="2">
            <Value index="0">
              0.54305954151
            </Value>
            <Value index="1">
              0.63568862335
            </Value>
          </InformationKey>
        </DataArray>
      </Points>
      <Cells>
        <DataArray type="Int64" Name="connectivity" format="ascii" RangeMin="0" RangeMax="83">
          78 73 72 79 80 74
          73 78 81 75 74 80
          82 76 75 81 83 77
          76 82 73 67 66 72
          74 68 67 73 75 69
          68 74 76 70 69 75
          77 71 70 76 67 61
          60 66 68 62 61 67
          69 63 62 68 70 64
          63 69 71 65 64 70
          61 55 54 60 62 56
          55 61 63 57 56 62
          64 58 57 63 65 59
          58 64 55 49 48 54
          56 50 49 55 57 51
          50 56 58 52 51 57
          59 53 52 58 49 43
          42 48 50 44 43 49
          51 45 44 50 52 46
          45 51 53 47 46 52
          43 37 36 42 44 38
          37 43 45 39 38 44
          46 40 39 45 47 41
          40 46 37 31 30 36
          38 32 31 37 39 33
          32 38 40 34 33 39
          41 35 34 40 31 25
          24 30 32 26 25 31
          33 27 26 32 34 28
          27 33 35 29 28 34
          25 19 18 24 26 20
          19 25 27 21 20 26
          28 22 21 27 29 23
          22 28 19 13 12 18
          20 14 13 19 21 15
          14 20 22 16 15 21
          23 17 16 22 13 7
          6 12 14 8 7 13
          15 9 8 14 16 10
          9 15 17 11 10 16
          7 1 0 6 8 2
          1 7 9 3 2 8
          10 4 3 9 11 5
          4 10
        </DataArray>
        <DataArray type="Int64" Name="offsets" format="ascii" RangeMin="4" RangeMax="260">
          4 8 12 16 20 24
          28 32 36 40 44 48
          52 56 60 64 68 72
          76 80 84 88 92 96
          100 104 108 112 116 120
          124 128 132 136 140 144
          148 152 156 160 164 168
          172 176 180 184 188 192
          196 200 204 208 212 216
          220 224 228 232 236 240
          244 248 252 256 260
        </DataArray>
        <DataArray type="UInt8" Name="types" format="ascii" RangeMin="9" RangeMax="9">
          9 9 9 9 9 9
          9 9 9 9 9 9
          9 9 9 9 9 9
          9 9 9 9 9 9
          9 9 9 9 9 9
          9 9 9 9 9 9
          9 9 9 9 9 9
          9 9 9 9 9 9
          9 9 9 9 9 9
          9 9 9 9 9 9
          9 9 9 9 9
        </DataArray>
      </Cells>
    </Piece>
  </UnstructuredGrid>
</VTKFile>
