<?xml version="1.0"?>
<VTKFile type="UnstructuredGrid" version="0.1" byte_order="LittleEndian" header_type="UInt32" compressor="vtkZLibDataCompressor">
  <UnstructuredGrid>
    <Piece NumberOfPoints="94" NumberOfCells="150">
      <PointData>
        <DataArray type="Float64" Name="Velocity" NumberOfComponents="3" format="ascii" RangeMin="0" RangeMax="3.3785468243452703">
          1.1003921103401402 0 0 1.362805025187132 -0.1315942209743445 0
          1.6922097677351042 -0.37961779081356006 0 1.6734065495853572 0 0
          1.8713777391077997 -1.0588166683641345 0 1.382104428513673 -0.33189098174432535 0
          2.1819746472577144 -0.20068681977414388 0 2.7174588588876456 -0.9693459264608805 0
          3.073682190392405 0.16279266983692398 0 1.722129211120777 0 0
          3.04573048000477 0.1893803851470227 0 1.8965956365269954 -0.11212245131326584 0
          2.2876993086873405 0.1708826829207264 0 2.0604128168021782 0.6905906004555185 0
          3.0812930566326227 0.4081901435776483 0 2.692728354738668 -0.06457321409477623 0
          0.5495747924878503 1.8382681591799805 0 1.9059730404447883 -0.3063129219041158 0
          1.63349944319022 0.23359681529850287 0 3.02015413699995 -0.16980224549677148 0
          0 0 0 2.6896532318322053 0.525550134799613 0
          1.8006969240898856 0.18592789735938958 0 0 0 0
          2.449504688630136 1.3559152075447543 0 2.1535773343708264 0.2865208183687904 0
          2.185526744957645 1.0846657473474441 0 0 0 0
          0 0 0 2.0889417405712054 0.460884447675801 0
          1.5166116763552564 2.109953135341106 0 1.7731313683708498 0 0
          0 0 0 0 0 0
          2.143394785731322 0.8504346279504353 0 1.1610542351463116 1.8020890157716114 0
          1.8687683996116826 0.46229644292808025 0 0 0 0
          1.7172609868304853 1.0310973407499393 0 1.5145983392161022 0.963940495538512 0
          0 0 0 0.7660394968339604 1.468581380335856 0
          0.20662373172562443 -0.31960364177363215 0 0 0 0
          1.4614910846928117 1.2544247223464884 0 1.467458058619492 1.3554997622000176 0
          0.832077947196269 0.8850047826218963 0 1.6465634052173044 1.2063307048237846 0
          1.4454289500474309 0.2652708004628323 0 -0.24634587293054047 -0.09346302600018562 0
          1.4176019501975279 1.5276417163464675 0 0.9191656293432953 1.3516844105093793 0
          1.4120112708972679 1.0533195107145756 0 0.7775199061268241 1.2755634605241137 0
          0.43115309110639377 0 0 1.042261404214863 1.2713755505404816 0
          1.3785518054146795 1.1467706175549677 0 0.025486489219071012 0.05900821927733028 0
          0.9025080217678192 1.0109015845514984 0 -0.3876658944465651 0.1539996780174341 0
          1.2102366102308846 0.7749511245916113 0 1.4786324137741562 1.1723949907573563 0
          1.1349068234911999 0 0 1.3395525050267396 1.2731314319698994 0
          0.41469899100843305 0 0 1.0520130073962948 0.9217492654773412 0
          0.5604074642713683 0.6825389453016121 0 1.0318286578590383 0.1822143550537096 0
          0.20492982963853673 0.0689814504363582 0 -0.4569545914478786 0 0
          1.0413945259879986 0.16891063492442518 0 1.0100382073557954 0.46426850846696943 0
          1.1010100166306922 0.8255341416369139 0 1.017458177723266 0.8407073168829695 0
          0.7425667628771943 0.7644248910923211 0 0.4634404222049978 0 0
          0.9999999999999998 0 0 1 0 0
          1 0 0 0.8794867353928422 0 0
          1 0 0 1 0 0
          1 0 0 1 0 0
          1.2824904621327928 -0.24055631041545272 0 1.0803902384093118 0 0
          1.3133371497088406 1.0115066334296992 0 2.744779912779631 -1.8283866033436151 0
          2.7502171299786307 -1.9623670355633303 0 1.312914161705745 -0.8832250075290504 0
          1.4862903897344417 -0.7703964711126775 0 1.3180117292568094 -0.612828346277553 0
          -0.8025083594275414 1.4229412349756723 0 0 0 0
          <InformationKey name="L2_NORM_RANGE" location="vtkDataArray" length="2">
            <Value index="0">
              0
            </Value>
            <Value index="1">
              3.3785468243
            </Value>
          </InformationKey>
        </DataArray>
        <DataArray type="Float64" Name="Pressure" format="ascii" RangeMin="-14.703166948318023" RangeMax="4.3945388042938465">
          0.35918198153250736 -0.010342973767169084 -0.16391784999234946 -0.31415619802468253 -1.1549373594671464 0.6006369631244384
          -0.1330376475320516 -1.312156596296009 -5.0986826856679315 0.7012453582343502 -2.9255547969782114 -0.4008504325018215
          -1.3210885432570927 -7.599769881853234 -4.857887436479157 -2.7722451576274483 -7.935701996714805 -0.3822269762725934
          -4.665985857900929 -3.9339125157987933 -6.688229690420526 -2.10824160497148 0.6374192683089204 -5.488749131075629
          -8.129199153044166 -0.5582586806369041 -1.0057215657783316 -1.6610489798498937 1.9875361951444581 -0.7445445515621979
          -2.872571508342075 1.0210884033450678 2.9288812130282933 2.617270553790505 -1.5169409074601903 0.01069910631344162
          0.8944936967885387 2.57327803114281 0.004325981725112643 0.04616484096427409 3.0571124693036946 1.4338544675090366
          2.5937930406604686 3.4823882306882084 0.25415758641950664 0.05566639554288755 2.243343220604528 0.7052615968935348
          1.5311192636941287 2.630621783749622 0.1193837223171128 1.4203856889196866 1.6184567588630574 2.2220632613143225
          3.4783877405598584 1.9383484608858073 1.482466914611539 3.4048365612576887 2.798601620411185 3.301358766781517
          1.7394362807663974 1.2906400051904456 1.8344857968151564 1.7737548456552759 3.3467906849854536 2.709729970307495
          3.6417364283210176 1.8146914948764379 3.876819179681778 3.9776523029725674 1.8412493045290588 2.289034942781017
          2.7475706580564676 3.4725845803395643 3.746479115811071 4.3945388042938465 1.8113391239255892 1.8304259486490755
          2.1575108650363477 4.219170062111409 2.643181784919577 3.2687902369754975 3.7913241616739333 4.124939737661068
          -0.0582766476301238 -0.08120857663042358 -14.703166948318023 -11.072942487193561 -3.7875953473172146 0.013713585346563584
          -0.31655746750819 -0.3254886719013342 -10.266064011949766 -2.5423183605808712
        </DataArray>
        <DataArray type="Float64" Name="BTraction" NumberOfComponents="3" format="ascii" RangeMin="0" RangeMax="5.199903409933946">
          -0.005738914733555191 -0.1533838553639478 0 0 0 0
          0 0 0 0.024074487744117645 0.05271580816201444 0
          0 0 0 0 0 0
          0 0 0 0 0 0
          0 0 0 0.006942985697514897 -0.5807999072697786 0
          0 0 0 0 0 0
          0 0 0 0 0 0
          0 0 0 0 0 0
          0 0 0 0 0 0
          0 0 0 0 0 0
          -3.7903907807950774 -2.212343803127723 0 0 0 0
          0 0 0 -5.187805046510208 -0.3545056727979051 0
          0 0 0 0 0 0
          0 0 0 0.14119074664414322 -1.6589075258280312 0
          -1.8388973622552403 -0.23339183045935352 0 0 0 0
          0 0 0 -0.001030583350335288 -1.1295006627883493 0
          -2.877986725028718 -0.01762658298313289 0 -2.631213437647785 0.0880685409209049 0
          0 0 0 0 0 0
          0 0 0 -2.5931312763091423 0.005409230236338493 0
          0 0 0 0 0 0
          -3.072200648628121 -0.06154752366199311 0 0 0 0
          0 0 0 -1.6440750436549 1.7131527936386652 0
          0 0 0 0 0 0
          0 0 0 0 0 0
          0 0 0 0 0 0
          0 0 0 0 0 0
          0 0 0 0 0 0
          0.022055919870815913 3.4587351925385383 0 0 0 0
          0 0 0 0 0 0
          0 0 0 0 0 0
          0 0 0 0 0 0
          -0.004706225445900759 -1.7291272767791905 0 0 0 0
          -0.028349881691152882 3.550102119548779 0 0 0 0
          0 0 0 0 0 0
          0 0 0 -0.10407719009703961 3.9475552556209914 0
          0 0 0 0 0 0
          0 0 0 0 0 0
          0 0 0 -0.02627299863426173 4.156745896853988 0
          0.9055824779659571 -0.9214728270963392 0 1.8765494601637114 -0.009984260584581215 0
          2.183783760174936 -0.031045341897941916 0 -0.012831187735016117 4.154955153465761 0
          2.657528682816921 -0.04017977573892854 0 3.2392311871810415 -0.048901215358578345 0
          3.755988451024323 -0.034183623652511014 0 2.3185345213667246 1.7286464523855563 0
          0 0 0 -0.002705762904015306 0.013679011026952561 0
          0 0 0 0 0 0
          0 0 0 0 0 0
          0 0 0 0 0 0
          0 0 0 -2.6818528001466606 -0.27961919647785666 0
          <InformationKey name="L2_NORM_RANGE" location="vtkDataArray" length="2">
            <Value index="0">
              0
            </Value>
            <Value index="1">
              5.1999034099
            </Value>
          </InformationKey>
        </DataArray>
        <DataArray type="Float64" Name="Sigma" NumberOfComponents="6" format="ascii" RangeMin="0.0064752927180781045" RangeMax="0.6943723971268669">
          -0.02101749997843328 0.021925664785308063 0 -0.01904327691426607 0 0
          -0.026124007498512472 0.027276214978377924 0 0.00548710881274045 0 0
          -0.054358670107415144 0.05155799922459616 0 -0.017259504155824418 0 0
          -0.02571660701837199 0.0222236131664627 0 0.04071562065497657 0 0
          -0.3080261958562366 0.30724457892030416 0 0.11363348333013133 0 0
          -0.045186614690267975 0.047547573201556614 0 -0.021480451221939117 0 0
          0.023687532489156737 -0.02311703724731534 0 -0.08075725469360451 0 0
          -0.1286924823172778 0.13289292712268247 0 -0.2764083685873046 0 0
          -0.07039141685654979 0.05806638086346283 0 -0.23877668589877124 0 0
          -0.014105066509912834 0.015165820336096113 0 0.00030116412487815256 0 0
          0.08671659841485935 -0.08606222469328509 0 -0.22874481429093518 0 0
          -0.03907492090525169 0.037734504893115355 0 -0.023303949251524285 0 0
          0.028435221122512844 -0.02747212398229501 0 -0.08469537308032139 0 0
          0.2461305307587317 -0.24324982259675293 0 0.016404764784417214 0 0
          0.031112946226364332 -0.03236981279759088 0 0.3691769691280832 0 0
          -0.011751351924231879 0.01164255531022157 0 -0.07273942043505782 0 0
          0.05504790694984487 -0.05236619989039503 0 0.4723969674077517 0 0
          -0.011577133572527397 0.012140243903513322 0 -0.06973472679662321 0 0
          0.06440173436591716 -0.038684862619325106 0 0.49704690979778304 0 0
          0.08185678861950582 -0.08030390515456384 0 -0.20952364877206608 0 0
          -0.028590045231654426 0.00566125920528715 0 0.19926278302492983 0 0
          0.1901235274522858 -0.19788943083587937 0 -0.14103694077609272 0 0
          0.017301928275607375 -0.019094914430995133 0 -0.0130947461342684 0 0
          0.14563451680963105 -0.13268371428052145 0 0.39137000978934033 0 0
          0.03164424142831579 -0.0447910513749562 0 0.12776751044151302 0 0
          0.041572377046889264 -0.03498800414326089 0 -0.07140481483072822 0 0
          0.2651516123777088 -0.2548494668777738 0 -0.09306472595542548 0 0
          -0.3983714306973517 0.37758003244994515 0 -0.4253075924445211 0 0
          -0.26675487309702295 0.2820005966092441 0 -0.2465000137543001 0 0
          0.09163520632252524 -0.09640252373200636 0 -0.054005251037460414 0 0
          -0.022823333856493766 0.019171355621558472 0 0.3711231664881837 0 0
          0.028002058769997278 -0.02594867332675193 0 0.0006024071196300794 0 0
          -0.18222017268171298 0.18268722065616647 0 -0.005161845995068491 0 0
          0.06747126686230744 -0.06409711823169661 0 0.13623014391332283 0 0
          0.15488711597552282 -0.14824510355357218 0 0.027575998696071777 0 0
          -0.07718374131292277 0.09013800805863265 0 0.2671454867915871 0 0
          0.044411619361023696 -0.043975256952737164 0 -0.06756129754682116 0 0
          0.08610164449563308 -0.09116357381265963 0 -0.01124804193704455 0 0
          0.08718648320531922 -0.08898362884584826 0 -0.06400624352523926 0 0
          0.093996599071593 -0.08888416024775168 0 -0.09810322172826402 0 0
          -0.041950847088199295 0.0432559986053669 0 -0.07359735253619423 0 0
          -0.14331132133402413 0.13705437584005248 0 -0.035230509862118044 0 0
          -0.08296570971694792 0.08436363815768164 0 -0.09187547257375993 0 0
          -0.11929990355837265 0.12735541994882565 0 -0.0662077080553582 0 0
          -0.0350465813092662 0.02261544590155512 0 0.08949706640642795 0 0
          0.10035157566865129 -0.10222908314375351 0 0.12133459793989394 0 0
          -0.057891095809946544 0.05253085954012866 0 -0.10241346814931523 0 0
          0.1480844177688573 -0.1446374227515628 0 0.016302645712810315 0 0
          0.07861579772949748 -0.07937632311035718 0 -0.004554786301115926 0 0
          -0.04749251491552491 0.04608424235600825 0 -0.03295221407827433 0 0
          0.04594806050675045 -0.04757476726714835 0 0.015494112698611173 0 0
          -0.08673056233034421 0.08513449006182275 0 0.0013233928235637134 0 0
          0.064251211915812 -0.055813874137341055 0 -0.07711534459814516 0 0
          -0.16965883950705035 0.16946398026626153 0 0.08280987879729368 0 0
          0.010856993936428623 -0.010514461410064926 0 -0.01828853023469058 0 0
          -0.058534568773671546 0.05913600007026386 0 -0.008394524004892823 0 0
          -0.04676947991721271 0.04044847266205147 0 0.0013734675015155823 0 0
          -0.03654192046070386 0.036930067280967614 0 -0.01689937549456929 0 0
          -0.0244415551135461 0.03027455102047657 0 0.05979544363881281 0 0
          -0.0423776776949102 0.04634142728337631 0 -0.011193339400568323 0 0
          0.05944592871110298 -0.05810911147968391 0 0.029172567716908786 0 0
          0.0513495446490288 -0.051130174172585606 0 0.10531347485870399 0 0
          0.035772189293486856 -0.036945615581543446 0 -0.00865739797038588 0 0
          -0.020200470530525785 0.02021852226219098 0 0.051202035404332547 0 0
          0.0866101017718709 -0.0940114140043543 0 0.006209477644583844 0 0
          -0.0025384967806710906 0.0011963461643376334 0 -0.02613731674700323 0 0
          -0.11779893251388732 0.11813699013457153 0 0.005188732094415997 0 0
          0.00904810244266353 -0.00836210241519178 0 0.024841781222755953 0 0
          -0.07117413488932944 0.0720764929187722 0 -0.07276088409760945 0 0
          0.04493310993045074 -0.045324231389224374 0 0.15525553302889872 0 0
          0.025283267403823348 -0.026351431272087267 0 0.01824855001886509 0 0
          0.046980382533930026 -0.04767891286103568 0 0.03740872442273326 0 0
          0.032760042400621296 -0.0334043369431989 0 0.07482848282472453 0 0
          -0.02257144745133711 0.025085105386429628 0 0.08152839815334843 0 0
          -0.07261137786759984 0.07053159428476605 0 0.05179283267966689 0 0
          -0.2000776890129455 0.2061306434565927 0 -0.0032198108951525285 0 0
          0.006990047591050228 -0.006314038948198186 0 0.005630954123997527 0 0
          0.002450889294588275 -0.0033133434931969857 0 0.0049944281300822735 0 0
          -0.009960198798317766 0.011322584358093146 0 0.0363640045177632 0 0
          -0.05959247439336067 0.05576251713888105 0 0.015717444446121023 0 0
          -0.00871355882835547 0.010229982766289034 0 0.0376886958480107 0 0
          0.001530690497295757 -0.003537075153936909 0 0.05566461141787612 0 0
          0.002166001784326972 -0.002101400532162949 0 0.03273473462409856 0 0
          -0.027745227716935782 0.034174166284247305 0 0.01670993391220247 0 0
          -0.022408701629851095 0.022368597641552433 0 0.010749840323151686 0 0
          -0.008832335824878215 0.00807969734240032 0 0.0005272708836566481 0 0
          0.15676749648455995 -0.16308430726653228 0 -0.11421243069002841 0 0
          0.004970184037118394 0.00008668253675031545 0 -0.36147794101597464 0 0
          -0.2763812003784377 0.2802341085994087 0 -0.07576732613704357 0 0
          -0.13653091035008352 0.13459339907948922 0 0.10148787649572512 0 0
          0.05397039301353761 -0.05204856363795586 0 -0.0058191183474518154 0 0
          -0.05255798553111151 0.05216174006105069 0 0.03695099680214077 0 0
          -0.10524991679823031 0.08582807257864772 0 -0.10382219848828822 0 0
          -0.4021457951611266 0.41724925245642897 0 0.35503533774330676 0 0
          <InformationKey name="L2_NORM_RANGE" location="vtkDataArray" length="2">
            <Value index="0">
              0.0064752927181
            </Value>
            <Value index="1">
              0.69437239713
            </Value>
          </InformationKey>
        </DataArray>
        <DataArray type="Float64" Name="ALEdispl" NumberOfComponents="3" format="ascii" RangeMin="0" RangeMax="0">
          0 0 0 0 0 0
          0 0 0 0 0 0
          0 0 0 0 0 0
          0 0 0 0 0 0
          0 0 0 0 0 0
          0 0 0 0 0 0
          0 0 0 0 0 0
          0 0 0 0 0 0
          0 0 0 0 0 0
          0 0 0 0 0 0
          0 0 0 0 0 0
          0 0 0 0 0 0
          0 0 0 0 0 0
          0 0 0 0 0 0
          0 0 0 0 0 0
          0 0 0 0 0 0
          0 0 0 0 0 0
          0 0 0 0 0 0
          0 0 0 0 0 0
          0 0 0 0 0 0
          0 0 0 0 0 0
          0 0 0 0 0 0
          0 0 0 0 0 0
          0 0 0 0 0 0
          0 0 0 0 0 0
          0 0 0 0 0 0
          0 0 0 0 0 0
          0 0 0 0 0 0
          0 0 0 0 0 0
          0 0 0 0 0 0
          0 0 0 0 0 0
          0 0 0 0 0 0
          0 0 0 0 0 0
          0 0 0 0 0 0
          0 0 0 0 0 0
          0 0 0 0 0 0
          0 0 0 0 0 0
          0 0 0 0 0 0
          0 0 0 0 0 0
          0 0 0 0 0 0
          0 0 0 0 0 0
          0 0 0 0 0 0
          0 0 0 0 0 0
          0 0 0 0 0 0
          0 0 0 0 0 0
          0 0 0 0 0 0
          0 0 0 0 0 0
          <InformationKey name="L2_NORM_RANGE" location="vtkDataArray" length="2">
            <Value index="0">
              0
            </Value>
            <Value index="1">
              0
            </Value>
          </InformationKey>
        </DataArray>
        <DataArray type="Float64" Name="ALEveloc" NumberOfComponents="3" format="ascii" RangeMin="0" RangeMax="0">
          0 0 0 0 0 0
          0 0 0 0 0 0
          0 0 0 0 0 0
          0 0 0 0 0 0
          0 0 0 0 0 0
          0 0 0 0 0 0
          0 0 0 0 0 0
          0 0 0 0 0 0
          0 0 0 0 0 0
          0 0 0 0 0 0
          0 0 0 0 0 0
          0 0 0 0 0 0
          0 0 0 0 0 0
          0 0 0 0 0 0
          0 0 0 0 0 0
          0 0 0 0 0 0
          0 0 0 0 0 0
          0 0 0 0 0 0
          0 0 0 0 0 0
          0 0 0 0 0 0
          0 0 0 0 0 0
          0 0 0 0 0 0
          0 0 0 0 0 0
          0 0 0 0 0 0
          0 0 0 0 0 0
          0 0 0 0 0 0
          0 0 0 0 0 0
          0 0 0 0 0 0
          0 0 0 0 0 0
          0 0 0 0 0 0
          0 0 0 0 0 0
          0 0 0 0 0 0
          0 0 0 0 0 0
          0 0 0 0 0 0
          0 0 0 0 0 0
          0 0 0 0 0 0
          0 0 0 0 0 0
          0 0 0 0 0 0
          0 0 0 0 0 0
          0 0 0 0 0 0
          0 0 0 0 0 0
          0 0 0 0 0 0
          0 0 0 0 0 0
          0 0 0 0 0 0
          0 0 0 0 0 0
          0 0 0 0 0 0
          0 0 0 0 0 0
          <InformationKey name="L2_NORM_RANGE" location="vtkDataArray" length="2">
            <Value index="0">
              0
            </Value>
            <Value index="1">
              0
            </Value>
          </InformationKey>
        </DataArray>
      </PointData>
      <CellData>
        <DataArray type="UInt8" Name="vtkGhostType" format="ascii" RangeMin="0" RangeMax="1">
          0 0 0 0 0 0
          0 0 1 0 0 1
          0 1 0 0 1 1
          1 0 0 0 0 0
          1 1 0 1 1 0
          1 1 0 1 0 0
          0 0 0 0 0 0
          0 0 0 0 0 0
          0 0 0 0 0 0
          0 0 0 0 0 0
          0 0 0 0 0 0
          0 0 0 0 0 0
          0 0 0 0 0 0
          0 0 0 0 0 0
          0 1 0 0 0 0
          0 0 0 1 0 0
          0 0 0 0 0 1
          0 0 0 0 0 0
          0 0 0 0 0 0
          0 0 0 0 0 0
          0 0 0 0 0 0
          0 0 0 0 0 0
          0 1 0 0 0 0
          0 0 0 0 0 0
          0 0 0 0 0 0
        </DataArray>
        <DataArray type="Float64" Name="PStrain" NumberOfComponents="6" format="ascii" RangeMin="0.1732050807568877" RangeMax="0.1732050807568877">
          0.09999999999999999 0.09999999999999999 0 0.09999999999999999 0 0
          0.09999999999999999 0.09999999999999999 0 0.09999999999999999 0 0
          0.09999999999999999 0.09999999999999999 0 0.09999999999999999 0 0
          0.09999999999999999 0.09999999999999999 0 0.09999999999999999 0 0
          0.09999999999999999 0.09999999999999999 0 0.09999999999999999 0 0
          0.09999999999999999 0.09999999999999999 0 0.09999999999999999 0 0
          0.09999999999999999 0.09999999999999999 0 0.09999999999999999 0 0
          0.09999999999999999 0.09999999999999999 0 0.09999999999999999 0 0
          0.09999999999999999 0.09999999999999999 0 0.09999999999999999 0 0
          0.09999999999999999 0.09999999999999999 0 0.09999999999999999 0 0
          0.09999999999999999 0.09999999999999999 0 0.09999999999999999 0 0
          0.09999999999999999 0.09999999999999999 0 0.09999999999999999 0 0
          0.09999999999999999 0.09999999999999999 0 0.09999999999999999 0 0
          0.09999999999999999 0.09999999999999999 0 0.09999999999999999 0 0
          0.09999999999999999 0.09999999999999999 0 0.09999999999999999 0 0
          0.09999999999999999 0.09999999999999999 0 0.09999999999999999 0 0
          0.09999999999999999 0.09999999999999999 0 0.09999999999999999 0 0
          0.09999999999999999 0.09999999999999999 0 0.09999999999999999 0 0
          0.09999999999999999 0.09999999999999999 0 0.09999999999999999 0 0
          0.09999999999999999 0.09999999999999999 0 0.09999999999999999 0 0
          0.09999999999999999 0.09999999999999999 0 0.09999999999999999 0 0
          0.09999999999999999 0.09999999999999999 0 0.09999999999999999 0 0
          0.09999999999999999 0.09999999999999999 0 0.09999999999999999 0 0
          0.09999999999999999 0.09999999999999999 0 0.09999999999999999 0 0
          0.09999999999999999 0.09999999999999999 0 0.09999999999999999 0 0
          0.09999999999999999 0.09999999999999999 0 0.09999999999999999 0 0
          0.09999999999999999 0.09999999999999999 0 0.09999999999999999 0 0
          0.09999999999999999 0.09999999999999999 0 0.09999999999999999 0 0
          0.09999999999999999 0.09999999999999999 0 0.09999999999999999 0 0
          0.09999999999999999 0.09999999999999999 0 0.09999999999999999 0 0
          0.09999999999999999 0.09999999999999999 0 0.09999999999999999 0 0
          0.09999999999999999 0.09999999999999999 0 0.09999999999999999 0 0
          0.09999999999999999 0.09999999999999999 0 0.09999999999999999 0 0
          0.09999999999999999 0.09999999999999999 0 0.09999999999999999 0 0
          0.09999999999999999 0.09999999999999999 0 0.09999999999999999 0 0
          0.09999999999999999 0.09999999999999999 0 0.09999999999999999 0 0
          0.09999999999999999 0.09999999999999999 0 0.09999999999999999 0 0
          0.09999999999999999 0.09999999999999999 0 0.09999999999999999 0 0
          0.09999999999999999 0.09999999999999999 0 0.09999999999999999 0 0
          0.09999999999999999 0.09999999999999999 0 0.09999999999999999 0 0
          0.09999999999999999 0.09999999999999999 0 0.09999999999999999 0 0
          0.09999999999999999 0.09999999999999999 0 0.09999999999999999 0 0
          0.09999999999999999 0.09999999999999999 0 0.09999999999999999 0 0
          0.09999999999999999 0.09999999999999999 0 0.09999999999999999 0 0
          0.09999999999999999 0.09999999999999999 0 0.09999999999999999 0 0
          0.09999999999999999 0.09999999999999999 0 0.09999999999999999 0 0
          0.09999999999999999 0.09999999999999999 0 0.09999999999999999 0 0
          0.09999999999999999 0.09999999999999999 0 0.09999999999999999 0 0
          0.09999999999999999 0.09999999999999999 0 0.09999999999999999 0 0
          0.09999999999999999 0.09999999999999999 0 0.09999999999999999 0 0
          0.09999999999999999 0.09999999999999999 0 0.09999999999999999 0 0
          0.09999999999999999 0.09999999999999999 0 0.09999999999999999 0 0
          0.09999999999999999 0.09999999999999999 0 0.09999999999999999 0 0
          0.09999999999999999 0.09999999999999999 0 0.09999999999999999 0 0
          0.09999999999999999 0.09999999999999999 0 0.09999999999999999 0 0
          0.09999999999999999 0.09999999999999999 0 0.09999999999999999 0 0
          0.09999999999999999 0.09999999999999999 0 0.09999999999999999 0 0
          0.09999999999999999 0.09999999999999999 0 0.09999999999999999 0 0
          0.09999999999999999 0.09999999999999999 0 0.09999999999999999 0 0
          0.09999999999999999 0.09999999999999999 0 0.09999999999999999 0 0
          0.09999999999999999 0.09999999999999999 0 0.09999999999999999 0 0
          0.09999999999999999 0.09999999999999999 0 0.09999999999999999 0 0
          0.09999999999999999 0.09999999999999999 0 0.09999999999999999 0 0
          0.09999999999999999 0.09999999999999999 0 0.09999999999999999 0 0
          0.09999999999999999 0.09999999999999999 0 0.09999999999999999 0 0
          0.09999999999999999 0.09999999999999999 0 0.09999999999999999 0 0
          0.09999999999999999 0.09999999999999999 0 0.09999999999999999 0 0
          0.09999999999999999 0.09999999999999999 0 0.09999999999999999 0 0
          0.09999999999999999 0.09999999999999999 0 0.09999999999999999 0 0
          0.09999999999999999 0.09999999999999999 0 0.09999999999999999 0 0
          0.09999999999999999 0.09999999999999999 0 0.09999999999999999 0 0
          0.09999999999999999 0.09999999999999999 0 0.09999999999999999 0 0
          0.09999999999999999 0.09999999999999999 0 0.09999999999999999 0 0
          0.09999999999999999 0.09999999999999999 0 0.09999999999999999 0 0
          0.09999999999999999 0.09999999999999999 0 0.09999999999999999 0 0
          0.09999999999999999 0.09999999999999999 0 0.09999999999999999 0 0
          0.09999999999999999 0.09999999999999999 0 0.09999999999999999 0 0
          0.09999999999999999 0.09999999999999999 0 0.09999999999999999 0 0
          0.09999999999999999 0.09999999999999999 0 0.09999999999999999 0 0
          0.09999999999999999 0.09999999999999999 0 0.09999999999999999 0 0
          0.09999999999999999 0.09999999999999999 0 0.09999999999999999 0 0
          0.09999999999999999 0.09999999999999999 0 0.09999999999999999 0 0
          0.09999999999999999 0.09999999999999999 0 0.09999999999999999 0 0
          0.09999999999999999 0.09999999999999999 0 0.09999999999999999 0 0
          0.09999999999999999 0.09999999999999999 0 0.09999999999999999 0 0
          0.09999999999999999 0.09999999999999999 0 0.09999999999999999 0 0
          0.09999999999999999 0.09999999999999999 0 0.09999999999999999 0 0
          0.09999999999999999 0.09999999999999999 0 0.09999999999999999 0 0
          0.09999999999999999 0.09999999999999999 0 0.09999999999999999 0 0
          0.09999999999999999 0.09999999999999999 0 0.09999999999999999 0 0
          0.09999999999999999 0.09999999999999999 0 0.09999999999999999 0 0
          0.09999999999999999 0.09999999999999999 0 0.09999999999999999 0 0
          0.09999999999999999 0.09999999999999999 0 0.09999999999999999 0 0
          0.09999999999999999 0.09999999999999999 0 0.09999999999999999 0 0
          0.09999999999999999 0.09999999999999999 0 0.09999999999999999 0 0
          0.09999999999999999 0.09999999999999999 0 0.09999999999999999 0 0
          0.09999999999999999 0.09999999999999999 0 0.09999999999999999 0 0
          0.09999999999999999 0.09999999999999999 0 0.09999999999999999 0 0
          0.09999999999999999 0.09999999999999999 0 0.09999999999999999 0 0
          0.09999999999999999 0.09999999999999999 0 0.09999999999999999 0 0
          0.09999999999999999 0.09999999999999999 0 0.09999999999999999 0 0
          0.09999999999999999 0.09999999999999999 0 0.09999999999999999 0 0
          0.09999999999999999 0.09999999999999999 0 0.09999999999999999 0 0
          0.09999999999999999 0.09999999999999999 0 0.09999999999999999 0 0
          0.09999999999999999 0.09999999999999999 0 0.09999999999999999 0 0
          0.09999999999999999 0.09999999999999999 0 0.09999999999999999 0 0
          0.09999999999999999 0.09999999999999999 0 0.09999999999999999 0 0
          0.09999999999999999 0.09999999999999999 0 0.09999999999999999 0 0
          0.09999999999999999 0.09999999999999999 0 0.09999999999999999 0 0
          0.09999999999999999 0.09999999999999999 0 0.09999999999999999 0 0
          0.09999999999999999 0.09999999999999999 0 0.09999999999999999 0 0
          0.09999999999999999 0.09999999999999999 0 0.09999999999999999 0 0
          0.09999999999999999 0.09999999999999999 0 0.09999999999999999 0 0
          0.09999999999999999 0.09999999999999999 0 0.09999999999999999 0 0
          0.09999999999999999 0.09999999999999999 0 0.09999999999999999 0 0
          0.09999999999999999 0.09999999999999999 0 0.09999999999999999 0 0
          0.09999999999999999 0.09999999999999999 0 0.09999999999999999 0 0
          0.09999999999999999 0.09999999999999999 0 0.09999999999999999 0 0
          0.09999999999999999 0.09999999999999999 0 0.09999999999999999 0 0
          0.09999999999999999 0.09999999999999999 0 0.09999999999999999 0 0
          0.09999999999999999 0.09999999999999999 0 0.09999999999999999 0 0
          0.09999999999999999 0.09999999999999999 0 0.09999999999999999 0 0
          0.09999999999999999 0.09999999999999999 0 0.09999999999999999 0 0
          0.09999999999999999 0.09999999999999999 0 0.09999999999999999 0 0
          0.09999999999999999 0.09999999999999999 0 0.09999999999999999 0 0
          0.09999999999999999 0.09999999999999999 0 0.09999999999999999 0 0
          0.09999999999999999 0.09999999999999999 0 0.09999999999999999 0 0
          0.09999999999999999 0.09999999999999999 0 0.09999999999999999 0 0
          0.09999999999999999 0.09999999999999999 0 0.09999999999999999 0 0
          0.09999999999999999 0.09999999999999999 0 0.09999999999999999 0 0
          0.09999999999999999 0.09999999999999999 0 0.09999999999999999 0 0
          0.09999999999999999 0.09999999999999999 0 0.09999999999999999 0 0
          0.09999999999999999 0.09999999999999999 0 0.09999999999999999 0 0
          0.09999999999999999 0.09999999999999999 0 0.09999999999999999 0 0
          0.09999999999999999 0.09999999999999999 0 0.09999999999999999 0 0
          0.09999999999999999 0.09999999999999999 0 0.09999999999999999 0 0
          0.09999999999999999 0.09999999999999999 0 0.09999999999999999 0 0
          0.09999999999999999 0.09999999999999999 0 0.09999999999999999 0 0
          0.09999999999999999 0.09999999999999999 0 0.09999999999999999 0 0
          0.09999999999999999 0.09999999999999999 0 0.09999999999999999 0 0
          0.09999999999999999 0.09999999999999999 0 0.09999999999999999 0 0
          0.09999999999999999 0.09999999999999999 0 0.09999999999999999 0 0
          0.09999999999999999 0.09999999999999999 0 0.09999999999999999 0 0
          0.09999999999999999 0.09999999999999999 0 0.09999999999999999 0 0
          0.09999999999999999 0.09999999999999999 0 0.09999999999999999 0 0
          0.09999999999999999 0.09999999999999999 0 0.09999999999999999 0 0
          0.09999999999999999 0.09999999999999999 0 0.09999999999999999 0 0
          0.09999999999999999 0.09999999999999999 0 0.09999999999999999 0 0
          0.09999999999999999 0.09999999999999999 0 0.09999999999999999 0 0
          0.09999999999999999 0.09999999999999999 0 0.09999999999999999 0 0
          <InformationKey name="L2_NORM_RANGE" location="vtkDataArray" length="2">
            <Value index="0">
              0.17320508076
            </Value>
            <Value index="1">
              0.17320508076
            </Value>
          </InformationKey>
        </DataArray>
        <DataArray type="Float64" Name="Stress" NumberOfComponents="6" format="ascii" RangeMin="0" RangeMax="0">
          0 0 0 0 0 0
          0 0 0 0 0 0
          0 0 0 0 0 0
          0 0 0 0 0 0
          0 0 0 0 0 0
          0 0 0 0 0 0
          0 0 0 0 0 0
          0 0 0 0 0 0
          0 0 0 0 0 0
          0 0 0 0 0 0
          0 0 0 0 0 0
          0 0 0 0 0 0
          0 0 0 0 0 0
          0 0 0 0 0 0
          0 0 0 0 0 0
          0 0 0 0 0 0
          0 0 0 0 0 0
          0 0 0 0 0 0
          0 0 0 0 0 0
          0 0 0 0 0 0
          0 0 0 0 0 0
          0 0 0 0 0 0
          0 0 0 0 0 0
          0 0 0 0 0 0
          0 0 0 0 0 0
          0 0 0 0 0 0
          0 0 0 0 0 0
          0 0 0 0 0 0
          0 0 0 0 0 0
          0 0 0 0 0 0
          0 0 0 0 0 0
          0 0 0 0 0 0
          0 0 0 0 0 0
          0 0 0 0 0 0
          0 0 0 0 0 0
          0 0 0 0 0 0
          0 0 0 0 0 0
          0 0 0 0 0 0
          0 0 0 0 0 0
          0 0 0 0 0 0
          0 0 0 0 0 0
          0 0 0 0 0 0
          0 0 0 0 0 0
          0 0 0 0 0 0
          0 0 0 0 0 0
          0 0 0 0 0 0
          0 0 0 0 0 0
          0 0 0 0 0 0
          0 0 0 0 0 0
          0 0 0 0 0 0
          0 0 0 0 0 0
          0 0 0 0 0 0
          0 0 0 0 0 0
          0 0 0 0 0 0
          0 0 0 0 0 0
          0 0 0 0 0 0
          0 0 0 0 0 0
          0 0 0 0 0 0
          0 0 0 0 0 0
          0 0 0 0 0 0
          0 0 0 0 0 0
          0 0 0 0 0 0
          0 0 0 0 0 0
          0 0 0 0 0 0
          0 0 0 0 0 0
          0 0 0 0 0 0
          0 0 0 0 0 0
          0 0 0 0 0 0
          0 0 0 0 0 0
          0 0 0 0 0 0
          0 0 0 0 0 0
          0 0 0 0 0 0
          0 0 0 0 0 0
          0 0 0 0 0 0
          0 0 0 0 0 0
          0 0 0 0 0 0
          0 0 0 0 0 0
          0 0 0 0 0 0
          0 0 0 0 0 0
          0 0 0 0 0 0
          0 0 0 0 0 0
          0 0 0 0 0 0
          0 0 0 0 0 0
          0 0 0 0 0 0
          0 0 0 0 0 0
          0 0 0 0 0 0
          0 0 0 0 0 0
          0 0 0 0 0 0
          0 0 0 0 0 0
          0 0 0 0 0 0
          0 0 0 0 0 0
          0 0 0 0 0 0
          0 0 0 0 0 0
          0 0 0 0 0 0
          0 0 0 0 0 0
          0 0 0 0 0 0
          0 0 0 0 0 0
          0 0 0 0 0 0
          0 0 0 0 0 0
          0 0 0 0 0 0
          0 0 0 0 0 0
          0 0 0 0 0 0
          0 0 0 0 0 0
          0 0 0 0 0 0
          0 0 0 0 0 0
          0 0 0 0 0 0
          0 0 0 0 0 0
          0 0 0 0 0 0
          0 0 0 0 0 0
          0 0 0 0 0 0
          0 0 0 0 0 0
          0 0 0 0 0 0
          0 0 0 0 0 0
          0 0 0 0 0 0
          0 0 0 0 0 0
          0 0 0 0 0 0
          0 0 0 0 0 0
          0 0 0 0 0 0
          0 0 0 0 0 0
          0 0 0 0 0 0
          0 0 0 0 0 0
          0 0 0 0 0 0
          0 0 0 0 0 0
          0 0 0 0 0 0
          0 0 0 0 0 0
          0 0 0 0 0 0
          0 0 0 0 0 0
          0 0 0 0 0 0
          0 0 0 0 0 0
          0 0 0 0 0 0
          0 0 0 0 0 0
          0 0 0 0 0 0
          0 0 0 0 0 0
          0 0 0 0 0 0
          0 0 0 0 0 0
          0 0 0 0 0 0
          0 0 0 0 0 0
          0 0 0 0 0 0
          0 0 0 0 0 0
          0 0 0 0 0 0
          0 0 0 0 0 0
          0 0 0 0 0 0
          0 0 0 0 0 0
          0 0 0 0 0 0
          0 0 0 0 0 0
          0 0 0 0 0 0
          0 0 0 0 0 0
          0 0 0 0 0 0
          0 0 0 0 0 0
          0 0 0 0 0 0
          <InformationKey name="L2_NORM_RANGE" location="vtkDataArray" length="2">
            <Value index="0">
              0
            </Value>
            <Value index="1">
              0
            </Value>
          </InformationKey>
        </DataArray>
        <DataArray type="Float64" Name="Strain" NumberOfComponents="6" format="ascii" RangeMin="0" RangeMax="0">
          0 0 0 0 0 0
          0 0 0 0 0 0
          0 0 0 0 0 0
          0 0 0 0 0 0
          0 0 0 0 0 0
          0 0 0 0 0 0
          0 0 0 0 0 0
          0 0 0 0 0 0
          0 0 0 0 0 0
          0 0 0 0 0 0
          0 0 0 0 0 0
          0 0 0 0 0 0
          0 0 0 0 0 0
          0 0 0 0 0 0
          0 0 0 0 0 0
          0 0 0 0 0 0
          0 0 0 0 0 0
          0 0 0 0 0 0
          0 0 0 0 0 0
          0 0 0 0 0 0
          0 0 0 0 0 0
          0 0 0 0 0 0
          0 0 0 0 0 0
          0 0 0 0 0 0
          0 0 0 0 0 0
          0 0 0 0 0 0
          0 0 0 0 0 0
          0 0 0 0 0 0
          0 0 0 0 0 0
          0 0 0 0 0 0
          0 0 0 0 0 0
          0 0 0 0 0 0
          0 0 0 0 0 0
          0 0 0 0 0 0
          0 0 0 0 0 0
          0 0 0 0 0 0
          0 0 0 0 0 0
          0 0 0 0 0 0
          0 0 0 0 0 0
          0 0 0 0 0 0
          0 0 0 0 0 0
          0 0 0 0 0 0
          0 0 0 0 0 0
          0 0 0 0 0 0
          0 0 0 0 0 0
          0 0 0 0 0 0
          0 0 0 0 0 0
          0 0 0 0 0 0
          0 0 0 0 0 0
          0 0 0 0 0 0
          0 0 0 0 0 0
          0 0 0 0 0 0
          0 0 0 0 0 0
          0 0 0 0 0 0
          0 0 0 0 0 0
          0 0 0 0 0 0
          0 0 0 0 0 0
          0 0 0 0 0 0
          0 0 0 0 0 0
          0 0 0 0 0 0
          0 0 0 0 0 0
          0 0 0 0 0 0
          0 0 0 0 0 0
          0 0 0 0 0 0
          0 0 0 0 0 0
          0 0 0 0 0 0
          0 0 0 0 0 0
          0 0 0 0 0 0
          0 0 0 0 0 0
          0 0 0 0 0 0
          0 0 0 0 0 0
          0 0 0 0 0 0
          0 0 0 0 0 0
          0 0 0 0 0 0
          0 0 0 0 0 0
          0 0 0 0 0 0
          0 0 0 0 0 0
          0 0 0 0 0 0
          0 0 0 0 0 0
          0 0 0 0 0 0
          0 0 0 0 0 0
          0 0 0 0 0 0
          0 0 0 0 0 0
          0 0 0 0 0 0
          0 0 0 0 0 0
          0 0 0 0 0 0
          0 0 0 0 0 0
          0 0 0 0 0 0
          0 0 0 0 0 0
          0 0 0 0 0 0
          0 0 0 0 0 0
          0 0 0 0 0 0
          0 0 0 0 0 0
          0 0 0 0 0 0
          0 0 0 0 0 0
          0 0 0 0 0 0
          0 0 0 0 0 0
          0 0 0 0 0 0
          0 0 0 0 0 0
          0 0 0 0 0 0
          0 0 0 0 0 0
          0 0 0 0 0 0
          0 0 0 0 0 0
          0 0 0 0 0 0
          0 0 0 0 0 0
          0 0 0 0 0 0
          0 0 0 0 0 0
          0 0 0 0 0 0
          0 0 0 0 0 0
          0 0 0 0 0 0
          0 0 0 0 0 0
          0 0 0 0 0 0
          0 0 0 0 0 0
          0 0 0 0 0 0
          0 0 0 0 0 0
          0 0 0 0 0 0
          0 0 0 0 0 0
          0 0 0 0 0 0
          0 0 0 0 0 0
          0 0 0 0 0 0
          0 0 0 0 0 0
          0 0 0 0 0 0
          0 0 0 0 0 0
          0 0 0 0 0 0
          0 0 0 0 0 0
          0 0 0 0 0 0
          0 0 0 0 0 0
          0 0 0 0 0 0
          0 0 0 0 0 0
          0 0 0 0 0 0
          0 0 0 0 0 0
          0 0 0 0 0 0
          0 0 0 0 0 0
          0 0 0 0 0 0
          0 0 0 0 0 0
          0 0 0 0 0 0
          0 0 0 0 0 0
          0 0 0 0 0 0
          0 0 0 0 0 0
          0 0 0 0 0 0
          0 0 0 0 0 0
          0 0 0 0 0 0
          0 0 0 0 0 0
          0 0 0 0 0 0
          0 0 0 0 0 0
          0 0 0 0 0 0
          0 0 0 0 0 0
          0 0 0 0 0 0
          0 0 0 0 0 0
          0 0 0 0 0 0
          <InformationKey name="L2_NORM_RANGE" location="vtkDataArray" length="2">
            <Value index="0">
              0
            </Value>
            <Value index="1">
              0
            </Value>
          </InformationKey>
        </DataArray>
      </CellData>
      <Points>
        <DataArray type="Float32" Name="Points" NumberOfComponents="3" format="ascii" RangeMin="0" RangeMax="31.382903215220928">
          20.521530151367188 20 0 18.283540725708008 17.52022933959961 0
          17.25609016418457 15 0 16.766950607299805 20 0
          15.845529556274414 13.259160041809082 0 15.381019592285156 17.424640655517578 0
          14.208800315856934 15 0 14.336990356445312 13.107600212097168 0
          13.51276969909668 11.97500991821289 0 12.883429527282715 20 0
          13.102640151977539 13.196459770202637 0 12.788909912109375 16.992340087890625 0
          12.534299850463867 14.00767993927002 0 12.776570320129395 10.922260284423828 0
          12.229490280151367 11.916069984436035 0 11.793479919433594 13.17240047454834 0
          12.069279670715332 9.813958168029785 0 11.361470222473145 15 0
          11.58452033996582 10.91353988647461 0 11.037429809570312 11.90999984741211 0
          11 10 0 10.5 13.008990287780762 0
          10.109800338745117 17.53706932067871 0 11 8.496806144714355 0
          10.5 10.908289909362793 0 9.862959861755371 14.038040161132812 0
          9.96257495880127 11.90999984741211 0 10 10 0
          10 8.506440162658691 0 9.253846168518066 13.143170356750488 0
          9.415477752685547 10.91353988647461 0 8.828777313232422 20 0
          10 6.893710136413574 0 10 5.054046154022217 0
          8.770505905151367 11.916069984436035 0 8.9307222366333 9.815563201904297 0
          8.33652400970459 15 0 10 3.1532669067382812 0
          8.060935020446777 13.018710136413574 0 8.22342586517334 10.922260284423828 0
          10 1.503193974494934 0 8.326194763183594 8.723417282104492 0
          8.738482475280762 6.083861827850342 0 10 0 0
          7.487227916717529 11.97500991821289 0 7.619233131408691 9.827728271484375 0
          7.886951923370361 7.264598846435547 0 6.820486068725586 13.362019538879395 0
          6.463461875915527 17.636199951171875 0 8.019827842712402 4.493560791015625 0
          6.821275234222412 11.078909873962402 0 6.95460319519043 8.623793601989746 0
          6.350119113922119 12.17335033416748 0 7.078911781311035 5.963322162628174 0
          8.411846160888672 0 0 6.247642993927002 9.728070259094238 0
          5.688107967376709 13.005069732666016 0 7.599650859832764 1.4754129648208618 0
          6.223519802093506 7.299490928649902 0 6.884771823883057 2.9606289863586426 0
          5 15 0 5 11.847049713134766 0
          4.55386209487915 20 0 5 9.001420974731445 0
          6.787456035614014 0 0 5 6.318779945373535 0
          5 3.9981698989868164 0 3.073293924331665 16.91547966003418 0
          5 1.9230870008468628 0 5 0 0
          2.4224369525909424 13.400890350341797 0 2.6503889560699463 10.399840354919434 0
          2.5495519638061523 7.205644130706787 0 2.646925926208496 4.597036838531494 0
          2.96063494682312 2.148577928543091 0 3.3758440017700195 0 0
          0 20 0 0 15.455820083618164 0
          0 11.484399795532227 0 1.741044044494629 0 0
          0 7.942071914672852 0 0 4.97471809387207 0
          0 2.373173952102661 0 0 0 0
          21 15 0 24.184429168701172 20 0
          13.380769729614258 9.827728271484375 0 14.087759971618652 10.93202018737793 0
          14.910579681396484 12.065620422363281 0 16.441429138183594 12.177860260009766 0
          17.48702049255371 13.458939552307129 0 19.282169342041016 13.698100090026855 0
          12.673810005187988 8.723417282104492 0 11 6.846733093261719 0
          <InformationKey name="L2_NORM_RANGE" location="vtkDataArray" length="2">
            <Value index="0">
              0
            </Value>
            <Value index="1">
              31.382903215
            </Value>
          </InformationKey>
        </DataArray>
      </Points>
      <Cells>
        <DataArray type="Int64" Name="connectivity" format="ascii" RangeMin="0" RangeMax="93">
          17 6 11 11 6 5
          17 11 22 6 2 5
          5 2 1 11 5 9
          11 9 22 31 22 9
          1 2 84 5 1 3
          5 3 9 1 84 0
          3 1 0 0 84 85
          14 13 8 15 14 10
          13 86 87 8 13 87
          8 87 88 14 8 10
          10 8 7 15 10 12
          12 10 6 17 12 6
          7 8 88 7 88 4
          10 7 6 4 88 89
          4 89 90 7 4 6
          4 90 2 2 90 91
          4 2 6 2 91 84
          83 79 82 79 75 74
          75 69 68 74 75 68
          79 74 82 68 66 74
          66 65 73 73 65 72
          66 73 74 72 65 63
          73 72 81 72 63 71
          81 82 73 82 74 73
          71 63 61 72 71 80
          71 61 70 72 80 81
          36 17 22 36 22 48
          70 61 60 71 70 78
          71 78 80 70 60 67
          78 70 77 77 70 67
          77 67 76 48 22 31
          36 48 60 60 48 67
          48 31 62 48 62 67
          76 67 62 27 20 24
          24 20 18 27 24 30
          18 20 16 24 18 19
          30 24 26 27 30 35
          16 20 23 19 18 14
          26 24 19 26 19 21
          35 30 39 18 16 13
          30 26 34 27 35 28
          14 18 13 39 30 34
          39 34 44 13 16 86
          34 26 29 19 14 15
          35 39 45 21 19 15
          21 15 17 26 21 29
          29 21 25 86 16 92
          45 39 50 34 29 38
          35 45 41 44 34 38
          44 38 47 39 44 50
          50 44 52 92 16 23
          38 29 36 41 45 51
          45 50 55 35 41 28
          25 21 17 29 25 36
          51 45 55 51 55 63
          55 50 61 15 12 17
          41 51 46 47 38 36
          52 44 47 52 47 56
          50 52 61 61 52 56
          61 56 60 46 51 58
          41 46 32 63 55 61
          43 40 54 58 51 63
          46 58 53 56 47 60
          53 58 65 65 58 63
          46 53 42 32 28 41
          25 17 36 64 54 57
          40 37 57 23 93 92
          42 53 49 46 42 32
          32 42 33 33 42 49
          57 54 40 64 57 68
          49 53 66 69 64 68
          37 33 49 66 68 59
          53 65 66 59 68 57
          59 57 37 66 59 49
          49 59 37 47 36 60
        </DataArray>
        <DataArray type="Int64" Name="offsets" format="ascii" RangeMin="3" RangeMax="450">
          3 6 9 12 15 18
          21 24 27 30 33 36
          39 42 45 48 51 54
          57 60 63 66 69 72
          75 78 81 84 87 90
          93 96 99 102 105 108
          111 114 117 120 123 126
          129 132 135 138 141 144
          147 150 153 156 159 162
          165 168 171 174 177 180
          183 186 189 192 195 198
          201 204 207 210 213 216
          219 222 225 228 231 234
          237 240 243 246 249 252
          255 258 261 264 267 270
          273 276 279 282 285 288
          291 294 297 300 303 306
          309 312 315 318 321 324
          327 330 333 336 339 342
          345 348 351 354 357 360
          363 366 369 372 375 378
          381 384 387 390 393 396
          399 402 405 408 411 414
          417 420 423 426 429 432
          435 438 441 444 447 450
        </DataArray>
        <DataArray type="UInt8" Name="types" format="ascii" RangeMin="5" RangeMax="5">
          5 5 5 5 5 5
          5 5 5 5 5 5
          5 5 5 5 5 5
          5 5 5 5 5 5
          5 5 5 5 5 5
          5 5 5 5 5 5
          5 5 5 5 5 5
          5 5 5 5 5 5
          5 5 5 5 5 5
          5 5 5 5 5 5
          5 5 5 5 5 5
          5 5 5 5 5 5
          5 5 5 5 5 5
          5 5 5 5 5 5
          5 5 5 5 5 5
          5 5 5 5 5 5
          5 5 5 5 5 5
          5 5 5 5 5 5
          5 5 5 5 5 5
          5 5 5 5 5 5
          5 5 5 5 5 5
          5 5 5 5 5 5
          5 5 5 5 5 5
          5 5 5 5 5 5
          5 5 5 5 5 5
        </DataArray>
      </Cells>
    </Piece>
  </UnstructuredGrid>
</VTKFile>
