<?xml version="1.0"?>
<VTKFile type="UnstructuredGrid" version="0.1" byte_order="LittleEndian" header_type="UInt32" compressor="vtkZLibDataCompressor">
  <UnstructuredGrid>
    <Piece NumberOfPoints="13" NumberOfCells="14">
      <PointData>
        <DataArray type="Float64" Name="Disp" NumberOfComponents="3" format="ascii" RangeMin="0" RangeMax="0.06522849759078105">
          0.03638993514554379 -0.003311062818815528 0 0.05710230202890521 0.0056527221481957116 0
          0.012505923210930935 -0.005183062520809339 0 0.024576777710996117 0.0010046109679730465 0
          0 0 0 0.03595785379018249 0.006264022350723588 0
          0.004750483925711558 -0.0000061004577616832615 0 0.013018741006474498 0.006011466218559737 0
          0 0 0 0.04707683046961168 0.001970016815657864 0
          0.061393468133965186 0.003173242523056241 0 0.06505078205496725 0.004811720273216054 0
          0.05711567956933885 -0.00016168565552131578 0
          <InformationKey name="L2_NORM_RANGE" location="vtkDataArray" length="2">
            <Value index="0">
              0
            </Value>
            <Value index="1">
              0.065228497591
            </Value>
          </InformationKey>
        </DataArray>
        <DataArray type="Float64" Name="Nodal Stress" NumberOfComponents="6" format="ascii" RangeMin="1.044217203302382" RangeMax="32.47326871995232">
          0.6734277567239829 13.258987928198795 0 1.2635343974398885 0 0
          -1.6093212698638344 0.49210942529449525 0 0.13413981550178197 0 0
          -1.2791502605978715 -3.280332185366657 0 2.362592641654421 0 0
          -1.8932796056842152 7.53711513123282 0 4.1845312382213535 0 0
          9.65664698984259 -12.414337757962889 0 14.691041135043061 0 0
          -1.7505732947432908 2.209467958402418 0 1.1529986690599325 0 0
          2.4324056902689315 6.932192650824424 0 9.000937717836067 0 0
          -2.4717379518549 16.953113375508362 0 2.6381172127999815 0 0
          2.6484409445374415 29.099909699718992 0 14.166657947085904 0 0
          -0.38472729496515923 7.82619308520075 0 0.36350552211966225 0 0
          0.6406384046183313 7.689997318788636 0 -0.36877641464702987 0 0
          -0.5011270799786016 0.8529259768102134 0 -0.3343329111336656 0 0
          0.8776981058880712 14.934895565482675 0 0.43378885747105383 0 0
          <InformationKey name="L2_NORM_RANGE" location="vtkDataArray" length="2">
            <Value index="0">
              1.0442172033
            </Value>
            <Value index="1">
              32.47326872
            </Value>
          </InformationKey>
        </DataArray>
        <DataArray type="Float64" Name="Nodal Strain" NumberOfComponents="6" format="ascii" RangeMin="0" RangeMax="0">
          0 0 0 0 0 0
          0 0 0 0 0 0
          0 0 0 0 0 0
          0 0 0 0 0 0
          0 0 0 0 0 0
          0 0 0 0 0 0
          0 0 0 0 0 0
          0 0 0 0 0 0
          0 0 0 0 0 0
          0 0 0 0 0 0
          0 0 0 0 0 0
          0 0 0 0 0 0
          0 0 0 0 0 0
          <InformationKey name="L2_NORM_RANGE" location="vtkDataArray" length="2">
            <Value index="0">
              0
            </Value>
            <Value index="1">
              0
            </Value>
          </InformationKey>
        </DataArray>
        <DataArray type="Float64" Name="Sld_traction" NumberOfComponents="3" format="ascii" RangeMin="0" RangeMax="18.462948448261315">
          1.5472484948839946 0.10977961431471747 0 2.9748604787528485 -0.24211013204152046 0
          0.6101164098621844 2.02879439931937 0 0 0 0
          -0.48166230578741315 10.707630264494366 0 3.002439390267253 -0.10286657458758312 0
          0 0 0 2.7817585824186364 -2.12621383865515 0
          -6.788106782150988 -17.169801155437725 0 0 0 0
          0 0 0 2.313543626253239 -0.06062192437981434 0
          2.2301979733734227 0.6423920474732578 0
          <InformationKey name="L2_NORM_RANGE" location="vtkDataArray" length="2">
            <Value index="0">
              0
            </Value>
            <Value index="1">
              18.462948448
            </Value>
          </InformationKey>
        </DataArray>
        <DataArray type="Float64" Name="Fld_traction" NumberOfComponents="3" format="ascii" RangeMin="0" RangeMax="3.7581892406226545">
          1.4710566347439653 -0.05749099735075987 0 3.054068301394857 -0.05360356293735351 0
          0.7211297041770107 -0.028332032323947588 0 0 0 0
          0.19386066384472392 0.14204371918100486 0 3.2892147116792945 -0.043218271821208104 0
          0 0 0 3.7577769514149275 0.055666432853362605 0
          1.8790541423675442 -1.885857890243717 0 0 0 0
          0 0 0 2.1384316520198916 0.22736575937524228 0
          3.02157324171932 0.18167395124906363 0
          <InformationKey name="L2_NORM_RANGE" location="vtkDataArray" length="2">
            <Value index="0">
              0
            </Value>
            <Value index="1">
              3.7581892406
            </Value>
          </InformationKey>
        </DataArray>
        <DataArray type="Float64" Name="Velocity" NumberOfComponents="3" format="ascii" RangeMin="0" RangeMax="0.1623199261911977">
          0.0881929193410145 -0.012401816515972986 0 0.1449694319443473 0.00929059477682746 0
          0.024085200164059795 -0.012593202540149083 0 0.05519578229880909 0.001021685854158392 0
          0 0 0 0.08608070771824936 0.015223351113989435 0
          0.008461772330051638 -0.000029526789688806576 0 0.024753845834212584 0.013392061733903372 0
          0 0 0 0.1179227856565119 0.0013337896243450689 0
          0.15501397840716416 0.0014066065926527198 0 0.16227131557078628 0.003972226282849881 0
          0.14636801706050054 -0.00572488282292022 0
          <InformationKey name="L2_NORM_RANGE" location="vtkDataArray" length="2">
            <Value index="0">
              0
            </Value>
            <Value index="1">
              0.16231992619
            </Value>
          </InformationKey>
        </DataArray>
        <DataArray type="Float64" Name="Sigma" NumberOfComponents="6" format="ascii" RangeMin="2.129230453347542" RangeMax="45.594590746884435">
          -10.090928720824445 10.090928720824197 0 0.5605609638005501 0 0
          1.9272874207918103 -1.9272874207917357 0 0.19559881663846063 0 0
          6.034491368098702 -6.034491368098584 0 -1.8813669785679856 0 0
          -4.9535714893617975 4.953571489362009 0 8.84125124640107 0 0
          28.705824252153707 -28.705824252153672 0 20.756156035856208 0 0
          2.258665462936028 -2.2586654629361798 0 0.2573782993449703 0 0
          -2.0491959392206796 2.0491959392203745 0 8.747277367125893 0 0
          -16.21353549396558 16.213535493965733 0 -0.8171863461669368 0 0
          -28.58652110456906 28.586521104569268 0 18.957367473897165 0 0
          -4.141957218798344 4.1419572187981375 0 0.2626703132466275 0 0
          -3.4988769277120753 3.498876927711982 0 -1.2193396593695103 0 0
          1.5021672060243094 -1.5021672060244766 0 0.14356076675859836 0 0
          -10.372888334447614 10.37288833444735 0 0.8439110486178225 0 0
          <InformationKey name="L2_NORM_RANGE" location="vtkDataArray" length="2">
            <Value index="0">
              2.1292304533
            </Value>
            <Value index="1">
              45.594590747
            </Value>
          </InformationKey>
        </DataArray>
        <DataArray type="Float64" Name="Press" format="ascii" RangeMin="-10.198266320848138" RangeMax="28.978780144049225">
          12.936719346979324 -4.862922780469526 -10.198266320848138 3.0744482830051436 -9.35271829870248 -5.187481883003157
          3.8626377866770856 12.777808860217153 28.978780144049225 3.78712421852191 4.629484520448341 -4.708564313952273
          11.73380963069358
        </DataArray>
      </PointData>
      <CellData>
        <DataArray type="UInt8" Name="vtkGhostType" format="ascii" RangeMin="0" RangeMax="1">
          0 0 1 1 1 1
          1 1 0 0 0 0
          0 0
        </DataArray>
        <DataArray type="Float64" Name="Gauss Stress" NumberOfComponents="6" format="ascii" RangeMin="2.348312272443636" RangeMax="32.10203880166498">
          -1.065702510983737 4.9409700504079845 0 2.506815077211213 0 0
          -0.6540496667563017 7.869840164743776 0 3.219730169848863 0 0
          -0.14595293139622867 7.836860719728076 0 0.36020319213071594 0 0
          -1.6704749582898042 -1.6241934243592273 0 -0.293393358657484 0 0
          -0.14803549023182772 7.814949737346666 0 -0.059943264704408916 0 0
          -0.6431823545693943 7.748523067066573 0 0.43406005950097026 0 0
          1.2839596407081366 17.68780915675483 0 0.5557141085549999 0 0
          -2.0730949266737597 -2.102425369960184 0 0.23854914307668612 0 0
          7.18626894679593 8.472864141219938 0 16.15360029229309 0 0
          5.667590949386064 -16.126488837968466 0 9.207355474804704 0 0
          -0.410008582270618 30.822826442899615 0 8.962486164952043 0 0
          -1.9286865796804844 6.2234734637112075 0 2.016241347463658 0 0
          -3.1595415976181718 6.928868812534443 0 2.047565973888715 0 0
          -2.7478887533907357 9.857738926870235 0 2.760481066526367 0 0
          <InformationKey name="L2_NORM_RANGE" location="vtkDataArray" length="2">
            <Value index="0">
              2.3483122724
            </Value>
            <Value index="1">
              32.102038802
            </Value>
          </InformationKey>
        </DataArray>
        <DataArray type="Float64" Name="Gauss Strain" NumberOfComponents="6" format="ascii" RangeMin="0" RangeMax="0">
          0 0 0 0 0 0
          0 0 0 0 0 0
          0 0 0 0 0 0
          0 0 0 0 0 0
          0 0 0 0 0 0
          0 0 0 0 0 0
          0 0 0 0 0 0
          0 0 0 0 0 0
          0 0 0 0 0 0
          0 0 0 0 0 0
          0 0 0 0 0 0
          0 0 0 0 0 0
          0 0 0 0 0 0
          0 0 0 0 0 0
          <InformationKey name="L2_NORM_RANGE" location="vtkDataArray" length="2">
            <Value index="0">
              0
            </Value>
            <Value index="1">
              0
            </Value>
          </InformationKey>
        </DataArray>
        <DataArray type="Float64" Name="Btraction" NumberOfComponents="3" format="ascii" RangeMin="0" RangeMax="2.3490008858716585">
          0.7307287796403252 -0.028607676558235817 0 0 0 0
          0 0 0 1.7308333178049158 0.05792073214596291 0
          0 0 0 0 0 0
          1.497543292154428 0.041394317966101254 0 2.1144276710247167 -0.03227394491952053 0
          0 0 0 0.30499678934057817 0.037903895619019086 0
          1.8789436979274905 -0.610063819130118 0 0 0 0
          0 0 0 2.3489972210314067 0.004149387010718163 0
          <InformationKey name="L2_NORM_RANGE" location="vtkDataArray" length="2">
            <Value index="0">
              0
            </Value>
            <Value index="1">
              2.3490008859
            </Value>
          </InformationKey>
        </DataArray>
      </CellData>
      <Points>
        <DataArray type="Float32" Name="Points" NumberOfComponents="3" format="ascii" RangeMin="10" RangeMax="13.021927811442218">
          11 3.7184319496154785 0 10 6.2815680503845215 0
          11 1.6591010093688965 0 10.5 2.6568450927734375 0
          11 0 0 10 3.61250901222229 0
          10.5 0.8241099119186401 0 10 1.6373380422592163 0
          10 0 0 10.5 5 0
          10.5 7.3431549072265625 0 10 8.340899467468262 0
          11 6.387491226196289 0
          <InformationKey name="L2_NORM_RANGE" location="vtkDataArray" length="2">
            <Value index="0">
              10
            </Value>
            <Value index="1">
              13.021927811
            </Value>
          </InformationKey>
        </DataArray>
      </Points>
      <Cells>
        <DataArray type="Int64" Name="connectivity" format="ascii" RangeMin="0" RangeMax="12">
          3 2 0 5 3 0
          5 0 9 10 11 1
          12 10 1 12 1 9
          9 0 12 5 9 1
          8 4 6 6 4 2
          8 6 7 6 2 7
          7 2 3 7 3 5
        </DataArray>
        <DataArray type="Int64" Name="offsets" format="ascii" RangeMin="3" RangeMax="42">
          3 6 9 12 15 18
          21 24 27 30 33 36
          39 42
        </DataArray>
        <DataArray type="UInt8" Name="types" format="ascii" RangeMin="5" RangeMax="5">
          5 5 5 5 5 5
          5 5 5 5 5 5
          5 5
        </DataArray>
      </Cells>
    </Piece>
  </UnstructuredGrid>
</VTKFile>
