<?xml version="1.0"?>
<VTKFile type="UnstructuredGrid" version="0.1" byte_order="LittleEndian" header_type="UInt32" compressor="vtkZLibDataCompressor">
  <UnstructuredGrid>
    <Piece NumberOfPoints="13" NumberOfCells="14">
      <PointData>
        <DataArray type="Float64" Name="Disp" NumberOfComponents="3" format="ascii" RangeMin="0" RangeMax="0.044226046982038025">
          0.02516851097950475 -0.0017051601288680697 0 0.038562314660121146 0.004444923915872489 0
          0.009203049286577263 -0.0035535773611515263 0 0.017420202949447745 0.0009202416341522265 0
          0 0 0 0.025001299184725816 0.004436735510131486 0
          0.0035643293184932884 -0.0000012106328225795676 0 0.009655078672879614 0.00431468937154605 0
          0 0 0 0.03205706151294407 0.0018549462217584104 0
          0.04143747077633724 0.002972826946992368 0 0.04402521153623488 0.004209985848813037 0
          0.03842888591561145 0.0006478151975483692 0
          <InformationKey name="L2_NORM_RANGE" location="vtkDataArray" length="2">
            <Value index="0">
              0
            </Value>
            <Value index="1">
              0.044226046982
            </Value>
          </InformationKey>
        </DataArray>
        <DataArray type="Float64" Name="Nodal Stress" NumberOfComponents="6" format="ascii" RangeMin="1.9757107703473433" RangeMax="24.37998945055428">
          0.5600334126165365 11.11195663797891 0 0.7968609410572344 0 0
          -1.5618040349644602 2.043940047096514 0 0.11473697554328346 0 0
          -1.0982936607585683 -0.4375107203017873 0 1.7295648755938817 0 0
          -1.754012521459908 6.4568594847596925 0 2.613076385242318 0 0
          7.731786127373 -7.4003267703390785 0 11.521742736513247 0 0
          -1.6568753835283694 2.4094598013911424 0 0.7562471915441802 0 0
          1.9881133823620136 5.928645729541513 0 7.306976764444427 0 0
          -2.389967869036538 12.060350314567385 0 1.8792940306066912 0 0
          2.6324505270576055 21.649209207240663 0 10.897973689308404 0 0
          -0.38533899497232277 6.920388017314659 0 0.0699940058139012 0 0
          0.47083688661182904 7.166870291969043 0 0.11578862986890275 0 0
          -0.5011022208331773 1.9055605926666834 0 -0.14549377999883362 0 0
          0.8181099372721694 11.929429254309333 0 0.32082677703254286 0 0
          <InformationKey name="L2_NORM_RANGE" location="vtkDataArray" length="2">
            <Value index="0">
              1.9757107703
            </Value>
            <Value index="1">
              24.379989451
            </Value>
          </InformationKey>
        </DataArray>
        <DataArray type="Float64" Name="Nodal Strain" NumberOfComponents="6" format="ascii" RangeMin="0" RangeMax="0">
          0 0 0 0 0 0
          0 0 0 0 0 0
          0 0 0 0 0 0
          0 0 0 0 0 0
          0 0 0 0 0 0
          0 0 0 0 0 0
          0 0 0 0 0 0
          0 0 0 0 0 0
          0 0 0 0 0 0
          0 0 0 0 0 0
          0 0 0 0 0 0
          0 0 0 0 0 0
          0 0 0 0 0 0
          <InformationKey name="L2_NORM_RANGE" location="vtkDataArray" length="2">
            <Value index="0">
              0
            </Value>
            <Value index="1">
              0
            </Value>
          </InformationKey>
        </DataArray>
        <DataArray type="Float64" Name="Sld_traction" NumberOfComponents="3" format="ascii" RangeMin="0" RangeMax="14.144533471284515">
          1.4057222119630206 0.10817835935204526 0 2.8333042981422234 -0.1692776418435944 0
          0.5682314644897116 1.5226410607673968 0 0 0 0
          -0.2280314485720908 7.601987392401278 0 2.830649187025162 -0.1394406958855879 0
          0 0 0 2.6838206593288216 -1.57527234340506 0
          -5.488831859230107 -13.036124882087796 0 0 0 0
          0 0 0 2.1485380391982143 -0.02986990688086978 0
          2.1074410956621605 0.4881924723261963 0
          <InformationKey name="L2_NORM_RANGE" location="vtkDataArray" length="2">
            <Value index="0">
              0
            </Value>
            <Value index="1">
              14.144533471
            </Value>
          </InformationKey>
        </DataArray>
        <DataArray type="Float64" Name="Fld_traction" NumberOfComponents="3" format="ascii" RangeMin="0" RangeMax="3.11102535561631">
          0.7871024273196354 -0.07070351500948577 0 2.795167586095972 -0.06694908268168577 0
          0.309539091155819 -0.030765984012971093 0 0 0 0
          -0.012622939123001203 -0.10364275752616699 0 2.573653794363104 -0.051663875222599215 0
          0 0 0 3.1104750763369413 0.05851121921723523 0
          1.7058442679062897 -1.7402676467676925 0 0 0 0
          0 0 0 1.9942339961789441 0.27589696832004396 0
          1.6770835756751077 0.15395047592703257 0
          <InformationKey name="L2_NORM_RANGE" location="vtkDataArray" length="2">
            <Value index="0">
              0
            </Value>
            <Value index="1">
              3.1110253556
            </Value>
          </InformationKey>
        </DataArray>
        <DataArray type="Float64" Name="Velocity" NumberOfComponents="3" format="ascii" RangeMin="0" RangeMax="0.04757356588994682">
          0.02037627251831038 -0.0037693835123412773 0 0.03620971773486498 0.0026274542025934294 0
          0.011471372854633302 -0.003613123371587826 0 0.01602727389364081 -0.001002574644354673 0
          0 0 0 0.01994424678528589 0.000681852579716577 0
          0.0046609133636288 -0.000036756647745991005 0 0.010973861849320754 0.0028591723267926278 0
          0 0 0 0.02780706966997676 -0.0012478453171085174 0
          0.04208296462855049 0.0006192794386809704 0 0.047473065408497495 0.003090668569360095 0
          0.03578368463859544 -0.0036404686656900413 0
          <InformationKey name="L2_NORM_RANGE" location="vtkDataArray" length="2">
            <Value index="0">
              0
            </Value>
            <Value index="1">
              0.04757356589
            </Value>
          </InformationKey>
        </DataArray>
        <DataArray type="Float64" Name="Sigma" NumberOfComponents="6" format="ascii" RangeMin="0.25331588578326225" RangeMax="33.11883290616512">
          -8.091907987140747 8.091907987140589 0 0.44452515325284403 0 0
          -0.15771364977721117 0.15771364977729047 0 0.12009057972229169 0 0
          2.578710108550968 -2.578710108550897 0 -1.469005398520062 0 0
          -4.2894977443263524 4.289497744326584 0 5.590546930920927 0 0
          20.472953873561007 -20.472953873561096 0 16.080218047295524 0 0
          1.1552131232613019 -1.155213123261398 0 0.3332565955630268 0 0
          -1.7996920285748943 1.7996920285745677 0 7.613662369216944 0 0
          -11.376781243714182 11.376781243714284 0 -0.7599993160658878 0 0
          -20.417069247545584 20.417069247545587 0 14.145254308792127 0 0
          -3.6537831936015888 3.653783193601369 0 -0.2274476976336219 0 0
          -3.4139428760404984 3.4139428760405073 0 -0.11983715425455477 0 0
          0.3037675350512161 -0.30376753505127085 0 0.0936225563498121 0 0
          -7.514135490699938 7.514135490699695 0 0.5718932389390021 0 0
          <InformationKey name="L2_NORM_RANGE" location="vtkDataArray" length="2">
            <Value index="0">
              0.25331588578
            </Value>
            <Value index="1">
              33.118832906
            </Value>
          </InformationKey>
        </DataArray>
        <DataArray type="Float64" Name="Press" format="ascii" RangeMin="-5.747188922996982" RangeMax="22.06341615991236">
          10.498970080399255 -2.6852394715954473 -5.747188922996982 2.5351257240517855 -5.367059313103607 -3.804703724580393
          3.2839000869351933 7.715137524245286 22.06341615991236 3.306774773759673 4.234752854369431 -3.3265351505474037
          8.905220107229454
        </DataArray>
      </PointData>
      <CellData>
        <DataArray type="UInt8" Name="vtkGhostType" format="ascii" RangeMin="0" RangeMax="1">
          0 0 1 1 1 1
          1 1 0 0 0 0
          0 0
        </DataArray>
        <DataArray type="Float64" Name="Gauss Stress" NumberOfComponents="6" format="ascii" RangeMin="1.7538092617116208" RangeMax="23.29582324788161">
          -0.8385962471540245 5.696534168123446 0 1.522022228551237 0 0
          -0.665600176111717 6.818528229358806 0 2.122776226578932 0 0
          -0.19647897596749983 6.863839729019697 0 0.18344468372741635 0 0
          -1.6816369195133039 0.4969557409977037 0 0.031291993939182985 0 0
          -0.2103528421714035 7.180175168840312 0 0.1907155548022464 0 0
          -0.5996256415616861 6.950795914490679 0 0.15484537367589069 0 0
          1.1503794299820362 13.990263877610008 0 0.262990231519408 0 0
          -1.946484047511222 -0.17562823409963613 0 0.07529982588389891 0 0
          6.078816510394826 7.241354778767674 0 12.613044908434864 0 0
          4.4738746014572275 -9.694106700900939 0 7.408291672664136 0 0
          -0.17702958291394078 22.2186654303091 0 6.999639120647728 0 0
          -1.7819714918515364 5.283203950640484 0 1.7948858848769988 0 0
          -2.861498184729826 5.863547734930022 0 1.1205140721116589 0 0
          -2.6885021136875187 6.985541796165384 0 1.7212680701393548 0 0
          <InformationKey name="L2_NORM_RANGE" location="vtkDataArray" length="2">
            <Value index="0">
              1.7538092617
            </Value>
            <Value index="1">
              23.295823248
            </Value>
          </InformationKey>
        </DataArray>
        <DataArray type="Float64" Name="Gauss Strain" NumberOfComponents="6" format="ascii" RangeMin="0" RangeMax="0">
          0 0 0 0 0 0
          0 0 0 0 0 0
          0 0 0 0 0 0
          0 0 0 0 0 0
          0 0 0 0 0 0
          0 0 0 0 0 0
          0 0 0 0 0 0
          0 0 0 0 0 0
          0 0 0 0 0 0
          0 0 0 0 0 0
          0 0 0 0 0 0
          0 0 0 0 0 0
          0 0 0 0 0 0
          0 0 0 0 0 0
          <InformationKey name="L2_NORM_RANGE" location="vtkDataArray" length="2">
            <Value index="0">
              0
            </Value>
            <Value index="1">
              0
            </Value>
          </InformationKey>
        </DataArray>
        <DataArray type="Float64" Name="Btraction" NumberOfComponents="3" format="ascii" RangeMin="0" RangeMax="1.8947109983332708">
          0.3655471728251513 -0.033823166340818944 0 0 0 0
          0 0 0 1.5964671940916384 0.06964929521278605 0
          0 0 0 0 0 0
          0.821395334331581 0.027748986972515592 0 1.7896071268196916 -0.03953765263476165 0
          0 0 0 0.09897205067760592 -0.04480291384637934 0
          1.60543978141441 -0.5605854758501523 0 0 0 0
          0 0 0 1.8947096235666814 0.002282447998212006 0
          <InformationKey name="L2_NORM_RANGE" location="vtkDataArray" length="2">
            <Value index="0">
              0
            </Value>
            <Value index="1">
              1.8947109983
            </Value>
          </InformationKey>
        </DataArray>
      </CellData>
      <Points>
        <DataArray type="Float32" Name="Points" NumberOfComponents="3" format="ascii" RangeMin="10" RangeMax="13.021927811442218">
          11 3.7184319496154785 0 10 6.2815680503845215 0
          11 1.6591010093688965 0 10.5 2.6568450927734375 0
          11 0 0 10 3.61250901222229 0
          10.5 0.8241099119186401 0 10 1.6373380422592163 0
          10 0 0 10.5 5 0
          10.5 7.3431549072265625 0 10 8.340899467468262 0
          11 6.387491226196289 0
          <InformationKey name="L2_NORM_RANGE" location="vtkDataArray" length="2">
            <Value index="0">
              10
            </Value>
            <Value index="1">
              13.021927811
            </Value>
          </InformationKey>
        </DataArray>
      </Points>
      <Cells>
        <DataArray type="Int64" Name="connectivity" format="ascii" RangeMin="0" RangeMax="12">
          3 2 0 5 3 0
          5 0 9 10 11 1
          12 10 1 12 1 9
          9 0 12 5 9 1
          8 4 6 6 4 2
          8 6 7 6 2 7
          7 2 3 7 3 5
        </DataArray>
        <DataArray type="Int64" Name="offsets" format="ascii" RangeMin="3" RangeMax="42">
          3 6 9 12 15 18
          21 24 27 30 33 36
          39 42
        </DataArray>
        <DataArray type="UInt8" Name="types" format="ascii" RangeMin="5" RangeMax="5">
          5 5 5 5 5 5
          5 5 5 5 5 5
          5 5
        </DataArray>
      </Cells>
    </Piece>
  </UnstructuredGrid>
</VTKFile>
