<?xml version="1.0"?>
<VTKFile type="UnstructuredGrid" version="0.1" byte_order="LittleEndian" header_type="UInt32" compressor="vtkZLibDataCompressor">
  <UnstructuredGrid>
    <Piece NumberOfPoints="27" NumberOfCells="16">
      <PointData>
        <DataArray type="Float64" Name="Displacement" NumberOfComponents="3" format="ascii" RangeMin="0" RangeMax="0.0003146443550794405">
          0 0 0 -9.061123327860641e-8 5.5258562227505563e-8 0
          0 0 0 0.00001715219961439781 0.000005982514773107026 0
          0.000015824146239466452 0.000007753337640506767 0 0.000014104532067007626 0.000009604476415857136 0
          0.00006277539127196067 -0.00011107770228016801 0 0.000059001723756808527 -0.00011130126201187134 0
          0.00005557448077071018 -0.0001115619955606945 0 0.00006106553631486699 -0.00009389985044581885 0
          0.00006602064925318704 -0.00009451756020217981 0 0.00007109138191238392 -0.00009513486946600352 0
          -0.00002100341904142465 0.00017663323233441466 0 -0.000015780835669645097 0.00017610331965428583 0
          -0.000009893384306990861 0.00017567629221229897 0 -0.00008234783400371326 0.000049811217926343266 0
          -0.00008803220661496654 0.00005018126496367251 0 -0.00009568133796395884 0.0000503236380491238 0
          0.00004595896444471282 -0.00014042692597624005 0 0.000037118301907348906 -0.00013969701642731436 0
          0.0000295578031153783 -0.00013882115573009702 0 0.000051189300429122214 -0.0001372861205226823 0
          0.00006137739972448663 -0.00013767545159705698 0 0.00007179795378137402 -0.00013788677031514705 0
          -0.000018268595773714754 0.0003136281204826969 0 0.000005165258519981879 0.0003133924822196386 0
          0.00002784469983781857 0.0003134098640347793 0
          <InformationKey name="L2_NORM_RANGE" location="vtkDataArray" length="2">
            <Value index="0">
              0
            </Value>
            <Value index="1">
              0.00031464435508
            </Value>
          </InformationKey>
        </DataArray>
      </PointData>
      <CellData>
        <DataArray type="UInt8" Name="vtkGhostType" format="ascii" RangeMin="0" RangeMax="0">
          0 0 0 0 0 0
          0 0 0 0 0 0
          0 0 0 0
        </DataArray>
        <DataArray type="Float64" Name="Stress" NumberOfComponents="6" format="ascii" RangeMin="14.95559845209679" RangeMax="144.57444176938134">
          8.671890502268718 -20.09540517451912 0 11.14090573877753 0 0
          41.13112323315238 -6.640091849582069 0 -21.420082071794788 0 0
          17.19846024262127 16.972704320707543 0 -1.5124828095618597 0 0
          -88.71685782482413 -16.17447381404185 0 51.34274669093075 0 0
          -89.64221431308955 -26.230231143043593 0 -39.781174218369884 0 0
          139.3817095464371 33.4331799050043 0 0.2258060480505311 0 0
          35.129364251876375 3.2069450691230044 0 -13.162082197262425 0 0
          -56.64422410451594 -16.31522581432536 0 14.36581085394253 0 0
          10.282281761848175 -19.945302512515106 0 9.435977484848996 0 0
          43.730704119172074 -5.221717354776894 0 -20.8483754230842 0 0
          7.099295288809621 13.135763514612457 0 0.8494988821779828 0 0
          -88.84579731123497 -14.894847306529178 0 55.03529968301916 0 0
          -76.16586676443517 -23.334179408244168 0 -46.303348055897345 0 0
          140.75602309463198 32.845269902579794 0 -3.270996872261949 0 0
          15.366183478154447 0.766556378535022 0 -5.477603756550753 0 0
          -69.26038492579556 -15.003948707778132 0 11.784547770942417 0 0
          <InformationKey name="L2_NORM_RANGE" location="vtkDataArray" length="2">
            <Value index="0">
              14.955598452
            </Value>
            <Value index="1">
              144.57444177
            </Value>
          </InformationKey>
        </DataArray>
        <DataArray type="Float64" Name="Strain" NumberOfComponents="6" format="ascii" RangeMin="0.000008854108063743663" RangeMax="0.00013259547897165233">
          0.000012007362489461762 -0.000017959767705809265 0 0.00002321123364794288 0 0
          0.00003385761933663893 -0.00001590108217322347 0 -0.00004462244674392571 0 0
          0.000009014333072884827 0.000008779185846604389 0 -0.0000031503767707976414 0 0
          -0.00006512057852978904 0.000010460919040746058 0 0.00010698741777764521 0 0
          -0.00006322502006958456 0.0000028450764803449456 0 -0.00008289643183571145 0 0
          0.0001001523769389934 -0.000010171027344764709 0 4.702512719649582e-7 0 0
          0.000026598645335238296 -0.0000066513086844334165 0 -0.00002741620420651843 0 0
          -0.000040014236862878134 0.000002001548423303979 0 0.00002993295518902252 0 0
          0.000013226427612558798 -0.000018261665455132384 0 0.000019658965763307488 0 0
          0.00003551877271235288 -0.000015469771973098324 0 -0.00004343128303096689 0 0
          0.000002123683573551348 0.000008411401820194773 0 0.0000017701743143269312 0 0
          -0.00006555601698553861 0.000011492876887449894 0 0.0001146816614004331 0 0
          -0.000053447251618841185 0.00000159708551120635 0 -0.00009648400153076922 0 0
          0.00010137802768636397 -0.000010988383444344023 0 -0.000006811961711015016 0 0
          0.000011795561503537468 -0.00000341196251468645 0 -0.000011408446673900182 0 0
          -0.00005021558787898947 0.000006311491872049846 0 0.000024555188441926557 0 0
          <InformationKey name="L2_NORM_RANGE" location="vtkDataArray" length="2">
            <Value index="0">
              8.8541080637e-06
            </Value>
            <Value index="1">
              0.00013259547897
            </Value>
          </InformationKey>
        </DataArray>
      </CellData>
      <Points>
        <DataArray type="Float32" Name="Points" NumberOfComponents="3" format="ascii" RangeMin="0" RangeMax="10.000499987515525">
          0 0.10000000149011612 0 0 0.05000000074505806 0
          0 0 0 1.25 0.10000000149011612 0
          1.25 0.05000000074505806 0 1.25 0 0
          2.5 0.10000000149011612 0 2.5 0.05000000074505806 0
          2.5 0 0 3.75 0.10000000149011612 0
          3.75 0.05000000074505806 0 3.75 0 0
          5 0.10000000149011612 0 5 0.05000000074505806 0
          5 0 0 6.25 0.10000000149011612 0
          6.25 0.05000000074505806 0 6.25 0 0
          7.5 0.10000000149011612 0 7.5 0.05000000074505806 0
          7.5 0 0 8.75 0.10000000149011612 0
          8.75 0.05000000074505806 0 8.75 0 0
          10 0.10000000149011612 0 10 0.05000000074505806 0
          10 0 0
          <InformationKey name="L2_NORM_RANGE" location="vtkDataArray" length="2">
            <Value index="0">
              0
            </Value>
            <Value index="1">
              10.000499988
            </Value>
          </InformationKey>
        </DataArray>
      </Points>
      <Cells>
        <DataArray type="Int64" Name="connectivity" format="ascii" RangeMin="0" RangeMax="26">
          5 4 1 2 8 7
          4 5 11 10 7 8
          14 13 10 11 17 16
          13 14 20 19 16 17
          23 22 19 20 26 25
          22 23 4 3 0 1
          7 6 3 4 10 9
          6 7 13 12 9 10
          16 15 12 13 19 18
          15 16 22 21 18 19
          25 24 21 22
        </DataArray>
        <DataArray type="Int64" Name="offsets" format="ascii" RangeMin="4" RangeMax="64">
          4 8 12 16 20 24
          28 32 36 40 44 48
          52 56 60 64
        </DataArray>
        <DataArray type="UInt8" Name="types" format="ascii" RangeMin="9" RangeMax="9">
          9 9 9 9 9 9
          9 9 9 9 9 9
          9 9 9 9
        </DataArray>
      </Cells>
    </Piece>
  </UnstructuredGrid>
</VTKFile>
