<?xml version="1.0"?>
<VTKFile type="UnstructuredGrid" version="0.1" byte_order="LittleEndian" header_type="UInt32" compressor="vtkZLibDataCompressor">
  <UnstructuredGrid>
    <Piece NumberOfPoints="94" NumberOfCells="150">
      <PointData>
        <DataArray type="Float64" Name="Velocity" NumberOfComponents="3" format="ascii" RangeMin="2.4552746864347537e-23" RangeMax="2.7957254540071252">
          2.6798272250586224 0 0 2.614362330488782 0.20523366997085005 0
          2.697395506506939 0.32003834729933084 0 2.3208350243906635 0 0
          1.9134158688778777 0.3920235856125489 0 2.4142894186473356 0.3132729294294939 0
          2.5875317917375824 0.5381379291889264 0 1.9713555090522756 0.37382057387666395 0
          0.998533110818214 0.33085625509686123 0 1.8396319054113004 0 0
          2.145452285639212 0.5294863535028319 0 2.1792535206807786 0.422951240047162 0
          2.4264348374932068 0.7685139526957754 0 0.2808083826297723 0.2441554594756603 0
          1.2087693614180886 0.40458712474705827 0 2.41573000483243 0.8196040313442723 0
          0.07094581101460964 0.18419188173005444 0 2.2447654430840323 0.7610665579953947 0
          0.4302204167960787 0.27009503846592886 0 1.6641983890423984 0.7672386299725893 0
          0.02109742982643638 0.013780978529375962 0 2.366013330947344 1.1206870943170615 0
          1.7264614117004244 0.29958249191925823 0 0.012730309175761687 0.015872851318248393 0
          0.9357064815111802 0.5097266456556595 0 2.0978443425797852 0.90932601520788 0
          2.0665364999668068 1.339832081246672 0 0.022892830863335774 0.019290677149095874 0
          0.014511692687561318 0.020469515679077777 0 2.039402718410854 1.115466549292855 0
          1.719442642935035 1.5175959915796007 0 1.4104148782325125 0 0
          0.007501748697775049 0.018685769657584072 0 0.0032747436680175867 0.014665535856290737 0
          1.8534759362266136 1.3782926651555916 0 1.1126831738143497 1.651963281189091 0
          1.674704362794587 0.6421508817939022 0 0.0013898901589723374 0.009517123141696587 0
          1.730947847603119 1.0185923311019631 0 1.5604208160969655 1.5308840774761758 0
          0.001453235831937668 0.004560737320779672 0 1.0997059501240565 1.585658675113018 0
          0.32364117006314513 0.8054727673143209 0 2.4552746864347537e-23 0 0
          1.5294204330592112 1.1289826088995638 0 1.2362026624132216 1.4427598690753407 0
          0.9408359024683942 1.3946339893267967 0 1.4475625908090806 0.7410136737681425 0
          1.26680351800738 0.19751579946779077 0 0.4394269413344559 0.7477418518116475 0
          1.3268934334834526 1.0532984528456022 0 1.0830525530169017 1.1772483351409537 0
          1.3606651773217449 0.8256195674620779 0 0.7902469990726586 1.0333339727218158 0
          0.19199469435075706 0 0 1.1516811175996065 0.9641080191927801 0
          1.296429118827181 0.6419719072320695 0 0.3431587154663966 0.2722843741776164 0
          0.9532190004595363 0.9338042847899864 0 0.6508637992999325 0.5500695491194459 0
          1.2321405231321116 0.38111846288206197 0 1.215312482316654 0.5997287012153065 0
          1.114645243367114 0 0 1.0463970141459573 0.6813536819974574 0
          0.49089296328691656 0 0 0.8905569726910921 0.6282690470073586 0
          0.8278042069419681 0.4908864523164475 0 1.040663633028106 0.12521107034940784 0
          0.7682069961603513 0.2869742758768876 0 0.7325465459439986 0 0
          1.0508404363315635 0.2263281320907501 0 1.0496151027333687 0.3517225008411031 0
          0.9800553826174998 0.3245530414667415 0 0.9528949008226638 0.2566825992312898 0
          0.9084501967377805 0.1538424122960555 0 0.9182129834731212 0 0
          1.0000000001551186 0 0 1.0000000001551186 0 0
          1.0000000001551186 0 0 1.0019403813604784 0 0
          1.0000000001551186 0 0 1.0000000001551186 0 0
          1.0000000001551186 0 0 1.0000000001551186 0 0
          2.743634503103132 0.1501054022555168 0 2.7957254540071252 0 0
          0.1523356202083559 0.29065496181216566 0 0.2720272679014382 0.2881372611439696 0
          0.9794834619699597 0.25049068976071265 0 1.0331189804576393 0.27049519551620055 0
          1.9719713875130798 0.2530554737856844 0 2.0528351283012727 0.16928924441186763 0
          0.10216585968725946 0.257683233380418 0 0.005977244869102729 0.016173993731211315 0
          <InformationKey name="L2_NORM_RANGE" location="vtkDataArray" length="2">
            <Value index="0">
              2.4552746864e-23
            </Value>
            <Value index="1">
              2.795725454
            </Value>
          </InformationKey>
        </DataArray>
        <DataArray type="Float64" Name="Pressure" format="ascii" RangeMin="-2.8786312478241047" RangeMax="6.887695384428924">
          -1.8862191404154678 -1.62818458883191 -2.1763096105341835 -0.4213774216510354 -2.4782112158283622 -0.49657258464807075
          -1.3256092704153883 -2.1928258559161353 -2.4091373244459646 1.4021615075293288 -1.944127454867741 0.5549131960146438
          -1.1625489921095213 -2.477361253989896 -2.3291804539157006 -1.4504204975402661 -2.4390734051771323 0.3344172482158729
          -2.433101188096873 -2.09358020490608 -2.2156061701602123 -0.39623540877426594 1.916941871230898 -2.4133308951362276
          -1.9685079559306902 0.9556239543880211 -0.7513706653444057 0.12951148194998607 3.2107654339828975 1.0537626072945763
          -0.44727330029447576 2.7162645341668403 4.770098338294737 5.938418352910355 1.1029364985787349 1.5049607254924564
          2.2362985377638886 6.613007595763916 2.0997856482113537 1.9210835609590957 6.81819493330686 3.4012348861847257
          5.39032881112844 6.887695384428924 2.6125806165267225 3.192886070624792 4.567328674956922 2.8738735127310857
          3.109094744146934 6.1643095373837244 3.2990873362373216 4.187293789519857 3.2975777051771287 5.560808867659842
          6.876897044012869 4.027309488959531 3.3621701816319556 6.77136020480616 4.9846129137382515 6.486702462212493
          3.465373260657079 3.845811214735188 3.540276329257062 4.585517168236767 6.745654845632351 5.385479291502994
          6.048756518795773 3.6857235921323976 6.3927055608360845 6.442647317714051 4.047056576470346 4.5076514256257
          5.196949352314173 5.721563206648835 6.084416407656756 6.2490663389640595 3.698297760405717 3.8992464689372404
          4.417778103972685 6.13178075987237 5.091530372882369 5.632755714123038 5.961146650597528 6.071745152129988
          -2.8786312478241047 -2.566799097020801 -2.5197949918581557 -2.5346774229091897 -2.499440096717836 -2.6922828373110925
          -2.6201240055796347 -2.878344764423382 -2.4737128966673603 -2.344696630148235
        </DataArray>
        <DataArray type="Float64" Name="BTraction" NumberOfComponents="3" format="ascii" RangeMin="0" RangeMax="6.8320327453364325">
          -0.00283376147389907 1.7291964787286351 0 0 0 0
          0 0 0 -0.007713598927633205 0.31338688453521485 0
          0 0 0 0 0 0
          0 0 0 0 0 0
          0 0 0 -0.00728649843918786 -1.374856783650888 0
          0 0 0 0 0 0
          0 0 0 0 0 0
          0 0 0 0 0 0
          0 0 0 0 0 0
          0 0 0 0 0 0
          -1.5832556962149675 -0.25389504270096447 0 0 0 0
          0 0 0 -2.2696624618091183 0.6848247201810181 0
          0 0 0 0 0 0
          0 0 0 -1.008677375237947 -0.29782223983203543 0
          -3.0822981524285162 0.6934707053492353 0 0 0 0
          0 0 0 -0.0003830584942194151 -2.6830488419916336 0
          -4.6500492635003985 1.2422310971655128 0 -5.70168425788224 1.5144418880602244 0
          0 0 0 0 0 0
          0 0 0 -6.396162888176519 1.508976877364375 0
          0 0 0 0 0 0
          -6.752772166939583 1.0376605874539897 0 0 0 0
          0 0 0 -3.433375318115458 3.7777928702824033 0
          0 0 0 0 0 0
          0 0 0 0 0 0
          0 0 0 0 0 0
          0 0 0 0 0 0
          0 0 0 0 0 0
          -0.004064898208066452 6.822843770490934 0 0 0 0
          0 0 0 0 0 0
          0 0 0 0 0 0
          0 0 0 0 0 0
          0.0035814526662369187 -3.457733478581962 0 0 0 0
          -0.006735621527678837 6.655189509141707 0 0 0 0
          0 0 0 0 0 0
          0 0 0 -0.007438453406615043 6.412974718655824 0
          0 0 0 0 0 0
          0 0 0 0 0 0
          0 0 0 -0.003022301738584069 6.223214833478929 0
          1.8802510050377563 -1.8357200439763794 0 3.939039957432212 -0.009738893866247973 0
          4.426617874915525 -0.015936508484255513 0 0.000483941684616721 6.128279841914278 0
          5.049737483763935 -0.0188208289399637 0 5.591669286735033 -0.017343967787571364 0
          5.924263687141888 -0.008138733407925373 0 3.480797552776881 2.577893784803595 0
          0 0 0 -0.00034506939637544715 2.506983666488522 0
          0 0 0 0 0 0
          0 0 0 0 0 0
          0 0 0 0 0 0
          0 0 0 -2.247811378719836 0.6592783531012617 0
          <InformationKey name="L2_NORM_RANGE" location="vtkDataArray" length="2">
            <Value index="0">
              0
            </Value>
            <Value index="1">
              6.8320327453
            </Value>
          </InformationKey>
        </DataArray>
        <DataArray type="Float64" Name="ALEdispl" NumberOfComponents="3" format="ascii" RangeMin="0" RangeMax="2.644670174439314">
          0 0 0 0.8295639389749527 -0.09711009296422074 0
          1.6347146732271503 -0.34930208465888013 0 0 0 0
          2.0949677906605517 -0.5634518860321308 0 1.0389169184845652 -0.15956865911865914 0
          1.9331209232330888 -0.4259632630528432 0 2.2582587042011255 -0.5897420181757501 0
          2.4144194258606424 -0.648966673538551 0 0 0 0
          2.368829006552815 -0.5330508893436997 0 1.3398301733276936 -0.19702767899704016 0
          2.251266926396607 -0.40745141186713063 0 2.4555786944328197 -0.6714712468226561 0
          2.5404008203329367 -0.560677219987336 0 2.468871810030947 -0.42676691094812 0
          2.3618489559658697 -0.6427409275877422 0 2.108251070329793 -0.27996251485620866 0
          2.554113396202326 -0.5428958147280777 0 2.616015544697862 -0.38825636049911993 0
          2.436585722463201 -0.4804247801505787 0 2.5103929935678826 -0.2684339966473619 0
          1.1353310976005866 -0.09675105482922504 0 1.9795641809642028 -0.40885010059621835 0
          2.604459976263909 -0.31496286087059006 0 2.2634280727400564 -0.192054556834426 0
          2.6029347387531385 -0.20922332360554796 0 2.4839677384510614 -0.17615644912385522 0
          2.029406329556259 -0.10659215742036673 0 2.4305915803097298 -0.12520728051664745 0
          2.55884811186342 -0.09852003995592959 0 0 0 0
          1.5440644362884948 -0.037275355076356695 0 1.0144644140575796 0.028305238400658423 0
          2.501016113385972 -0.04129462772445467 0 2.367287932438818 0.01533709902938202 0
          1.9854141382714845 -0.0818814270168644 0 0.505245842891463 0.07501166798745769 0
          2.3135578313383114 -0.014425425112939889 0 2.420251569204883 0.06592422892611438 0
          0.15067002337012048 0.0697572968373063 0 2.0292509837627764 0.14446738903733108 0
          1.3208576562338736 0.16104413616875138 0 0 0 0
          2.3117932151082865 0.07739280004121525 0 2.2166180954822767 0.19163193310245927 0
          1.6130493598481899 0.2376836229247396 0 2.0817558399295657 0.021507358178708715 0
          0.9601094834375539 -0.13080245129365425 0 0.9055376222668103 0.2637578470814306 0
          2.195509033981656 0.17890262446771782 0 1.8876035217105227 0.3095087813801904 0
          2.081985799727859 0.12393448696252538 0 1.2647851111376471 0.3459308445356435 0
          0 0 0 1.9807075226812427 0.29787027297879826 0
          1.8715193244330692 0.09379771738605233 0 0.24329286904872413 0.1864132553711798 0
          1.529336843032289 0.3910431265354547 0 0.5798048084492661 0.30263642760260884 0
          1.4934258327317707 -0.044262453241893165 0 1.8277083313394904 0.18464500513821333 0
          0 0 0 1.6634169254068643 0.3790939012905141 0
          0 0 0 1.2067014749122646 0.4548503272221793 0
          0.7842284739385803 0.44461925709454225 0 0.7700932242836996 -0.16531191628532238 0
          0.3723929026235329 0.28985597234875626 0 0 0 0
          0.94880677022612 0.025379781814735578 0 1.1013133017889019 0.23457611081401605 0
          0.883898714608946 0.36302593544790546 0 0.6516941648529544 0.3971232078068721 0
          0.3658013192442509 0.3117068999969086 0 0 0 0
          0 0 0 0 0 0
          0 0 0 0 0 0
          0 0 0 0 0 0
          0 0 0 0 0 0
          1.3487423983003115 -0.14126026506591746 0 0 0 0
          2.2827407739011805 -0.7632146379918308 0 2.336058248329218 -0.7449137209266891 0
          2.2735923837309717 -0.6819935651610659 0 2.11285876573531 -0.6568019501971727 0
          1.887559833081554 -0.485439801077465 0 1.6975910871841393 -0.38512916485434767 0
          2.0655405378310943 -0.7004042099659292 0 1.4849958212691 -0.3295512410734753 0
          <InformationKey name="L2_NORM_RANGE" location="vtkDataArray" length="2">
            <Value index="0">
              0
            </Value>
            <Value index="1">
              2.6446701744
            </Value>
          </InformationKey>
        </DataArray>
        <DataArray type="Float64" Name="ALEveloc" NumberOfComponents="3" format="ascii" RangeMin="0" RangeMax="0.0354987057726018">
          0 0 0 0.011459385474502204 0.0009438890385494447 0
          0.022313989658991673 -0.0005987992834926015 0 0 0 0
          0.028077898470004747 -0.0023624466706517744 0 0.014349362041333968 0.00007761927606103614 0
          0.026367577598735092 -0.0011908769681869824 0 0.030230935095929556 -0.002349054388063987 0
          0.03183304972631129 -0.0026312944594700793 0 0 0 0
          0.03186989262122841 -0.0013601907452844841 0 0.01848634133385829 -0.00020298255929562803 0
          0.03066609571587353 -0.0002082902867027725 0 0.031727106078762723 -0.0025990121290051516 0
          0.0336752112679779 -0.001001080079516381 0 0.033517138099823374 0.0004956624744077986 0
          0.029553629552144578 -0.001961579288967008 0 0.029252396340846865 0.0007854257950204446 0
          0.033224022937869524 -0.00036927949558684947 0 0.0351256886492588 0.002158517947475458 0
          0.030476566781019176 0.0009887749104805499 0 0.03422552811806279 0.0035064132814907056 0
          0.016134152906958743 0.0005444505173404224 0 0.02235769003138266 0.00342450263903038 0
          0.03435953707428352 0.004008695825835407 0 0.031051464911197257 0.003909425152362533 0
          0.035060279610585 0.005561915601422773 0 0.03221759013848002 0.006423109994128151 0
          0.024040118942599165 0.008204381528301719 0 0.0330043703123688 0.006380493120148323 0
          0.03394814657234013 0.007811108892215951 0 0 0 0
          0.016813051408328672 0.008320787231871789 0 0.010988792062444297 0.007239996607042241 0
          0.03348922133559196 0.00847936265738225 0 0.030599610470385397 0.009880501221503187 0
          0.0271588487077854 0.005680245676542378 0 0.006333052193757793 0.005431433813456205 0
          0.031000144330985968 0.008288381478800656 0 0.03190401978116508 0.010381939349666053 0
          0.0029178198250720544 0.0032300102123881957 0 0.025462585354320222 0.011426918609387798 0
          0.01502671070483963 0.009782194830118773 0 0 0 0
          0.03056121790858768 0.010030753314679716 0 0.02880244890953243 0.012084205590117247 0
          0.01978464123806445 0.011572762893005184 0 0.027465873632476878 0.008428906391607295 0
          0.013295141655139897 0.001935162807517793 0 0.010492420490622711 0.008998312783596751 0
          0.028711468454277078 0.01135932170271059 0 0.024164082425441435 0.013004198648056686 0
          0.027228126819696108 0.010011453545376026 0 0.015379421282542438 0.011635352924875497 0
          0 0 0 0.025829927819332354 0.012563025790572335 0
          0.024355798364910974 0.008910120087345652 0 0.003046863169670455 0.003837186775972723 0
          0.01951778142564109 0.012920006231881276 0 0.0068079735032475774 0.0076594518439633275 0
          0.01896348506113954 0.005891769405745567 0 0.02365509320432846 0.009892160700187058 0
          0 0 0 0.021693365593271174 0.012425284018970584 0
          0 0 0 0.015622453233818057 0.012398508182833945 0
          0.009898546947644249 0.010532662628978562 0 0.009239068516885052 0.0015876302538022635 0
          0.0043614099932722805 0.005949264473422866 0 0 0 0
          0.011805034458064023 0.004339694381331215 0 0.01426470405452851 0.007653075203071458 0
          0.011733823118633246 0.008816762797625888 0 0.008620456995112935 0.008490106603195935 0
          0.0046405787686661926 0.00592160457655222 0 0 0 0
          0 0 0 0 0 0
          0 0 0 0 0 0
          0 0 0 0 0 0
          0 0 0 0 0 0
          0.018491718777633448 0.0012660916427712776 0 0 0 0
          0.028814716024485598 -0.0038102615098822845 0 0.030235031245357202 -0.003862499212311521 0
          0.030011513008827873 -0.0034045901720858307 0 0.028028450900984492 -0.003468787283093633 0
          0.025454440153955815 -0.0018549388494870644 0 0.02295948264222858 -0.0010519721488190248 0
          0.025013938577165717 -0.0023704987010846335 0 0.015290266879069314 0.004986154106348284 0
          <InformationKey name="L2_NORM_RANGE" location="vtkDataArray" length="2">
            <Value index="0">
              0
            </Value>
            <Value index="1">
              0.035498705773
            </Value>
          </InformationKey>
        </DataArray>
      </PointData>
      <CellData>
        <DataArray type="UInt8" Name="vtkGhostType" format="ascii" RangeMin="0" RangeMax="1">
          0 0 0 0 0 0
          0 0 1 0 0 1
          0 1 0 0 1 1
          1 0 0 0 0 0
          1 1 0 1 1 0
          1 1 0 1 0 0
          0 0 0 0 0 0
          0 0 0 0 0 0
          0 0 0 0 0 0
          0 0 0 0 0 0
          0 0 0 0 0 0
          0 0 0 0 0 0
          0 0 0 0 0 0
          0 0 0 0 0 0
          0 1 0 0 0 0
          0 0 0 1 0 0
          0 0 0 0 0 1
          0 0 0 0 0 0
          0 0 0 0 0 0
          0 0 0 0 0 0
          0 0 0 0 0 0
          0 0 0 0 0 0
          0 1 0 0 0 0
          0 0 0 0 0 0
          0 0 0 0 0 0
        </DataArray>
        <DataArray type="Float64" Name="PStrain" NumberOfComponents="6" format="ascii" RangeMin="0.0065965596458955654" RangeMax="2.277449654867819">
          0.010023697775678249 0.010023697775678249 0 0.010023697775678249 0 0
          0.012181828527699494 0.012181828527699494 0 0.012181828527699494 0 0
          0.014806345888564599 0.014806345888564599 0 0.014806345888564599 0 0
          0.011970751072734948 0.011970751072734948 0 0.011970751072734948 0 0
          0.008702963546058479 0.008702963546058479 0 0.008702963546058479 0 0
          0.0082884373553827 0.0082884373553827 0 0.0082884373553827 0 0
          0.007533661484724343 0.007533661484724343 0 0.007533661484724343 0 0
          0.010570071454531605 0.010570071454531605 0 0.010570071454531605 0 0
          0.009137835181622365 0.009137835181622365 0 0.009137835181622365 0 0
          0.0075410335198969215 0.0075410335198969215 0 0.0075410335198969215 0 0
          0.009356507707114787 0.009356507707114787 0 0.009356507707114787 0 0
          0.00582254696920564 0.00582254696920564 0 0.00582254696920564 0 0
          0.0071717660411284145 0.0071717660411284145 0 0.0071717660411284145 0 0
          0.004759899459310953 0.004759899459310953 0 0.004759899459310953 0 0
          0.07689843768842444 0.07689843768842444 0 0.07689843768842444 0 0
          0.051872686081335426 0.051872686081335426 0 0.051872686081335426 0 0
          0.09044851197410755 0.09044851197410755 0 0.09044851197410755 0 0
          0.09242551846846961 0.09242551846846961 0 0.09242551846846961 0 0
          0.045851198595472785 0.045851198595472785 0 0.045851198595472785 0 0
          0.05329262153399315 0.05329262153399315 0 0.05329262153399315 0 0
          0.04104672781023991 0.04104672781023991 0 0.04104672781023991 0 0
          0.023676372983578445 0.023676372983578445 0 0.023676372983578445 0 0
          0.02018612841969724 0.02018612841969724 0 0.02018612841969724 0 0
          0.02372039505049505 0.02372039505049505 0 0.02372039505049505 0 0
          0.042112001789725455 0.042112001789725455 0 0.042112001789725455 0 0
          0.024752877230582608 0.024752877230582608 0 0.024752877230582608 0 0
          0.021417196307788537 0.021417196307788537 0 0.021417196307788537 0 0
          0.028445532932903306 0.028445532932903306 0 0.028445532932903306 0 0
          0.01722899619030906 0.01722899619030906 0 0.01722899619030906 0 0
          0.024633227761884157 0.024633227761884157 0 0.024633227761884157 0 0
          0.015520714730632348 0.015520714730632348 0 0.015520714730632348 0 0
          0.013239596181850371 0.013239596181850371 0 0.013239596181850371 0 0
          0.014912880810849734 0.014912880810849734 0 0.014912880810849734 0 0
          0.006978879542889178 0.006978879542889178 0 0.006978879542889178 0 0
          0.09999999999999999 0.09999999999999999 0 0.09999999999999999 0 0
          0.004915247800292534 0.004915247800292534 0 0.004915247800292534 0 0
          0.011738090688125409 0.011738090688125409 0 0.011738090688125409 0 0
          0.007550908831568127 0.007550908831568127 0 0.007550908831568127 0 0
          0.005576373534106357 0.005576373534106357 0 0.005576373534106357 0 0
          0.014228957554574869 0.014228957554574869 0 0.014228957554574869 0 0
          0.02804413068685356 0.02804413068685356 0 0.02804413068685356 0 0
          0.03349440398849087 0.03349440398849087 0 0.03349440398849087 0 0
          0.013521814751182824 0.013521814751182824 0 0.013521814751182824 0 0
          0.04368777121636243 0.04368777121636243 0 0.04368777121636243 0 0
          0.0200236729649306 0.0200236729649306 0 0.0200236729649306 0 0
          0.056760301160955234 0.056760301160955234 0 0.056760301160955234 0 0
          0.01259397852425297 0.01259397852425297 0 0.01259397852425297 0 0
          0.008185086607853227 0.008185086607853227 0 0.008185086607853227 0 0
          0.050450426478163876 0.050450426478163876 0 0.050450426478163876 0 0
          0.032241359684191485 0.032241359684191485 0 0.032241359684191485 0 0
          0.03753746645729429 0.03753746645729429 0 0.03753746645729429 0 0
          0.02488972418454905 0.02488972418454905 0 0.02488972418454905 0 0
          0.010206479912924829 0.010206479912924829 0 0.010206479912924829 0 0
          0.015711385504613574 0.015711385504613574 0 0.015711385504613574 0 0
          0.030090756674965913 0.030090756674965913 0 0.030090756674965913 0 0
          0.03017923685828853 0.03017923685828853 0 0.03017923685828853 0 0
          0.027835726155162457 0.027835726155162457 0 0.027835726155162457 0 0
          0.01333590182848213 0.01333590182848213 0 0.01333590182848213 0 0
          0.017183367505373495 0.017183367505373495 0 0.017183367505373495 0 0
          0.012271479498170444 0.012271479498170444 0 0.012271479498170444 0 0
          0.004291008944412813 0.004291008944412813 0 0.004291008944412813 0 0
          0.0075544816975327694 0.0075544816975327694 0 0.0075544816975327694 0 0
          0.013795773402568583 0.013795773402568583 0 0.013795773402568583 0 0
          0.011214924776876361 0.011214924776876361 0 0.011214924776876361 0 0
          0.009303638400084304 0.009303638400084304 0 0.009303638400084304 0 0
          0.006297293724352828 0.006297293724352828 0 0.006297293724352828 0 0
          0.003808525487283227 0.003808525487283227 0 0.003808525487283227 0 0
          1.3148861713037556 1.3148861713037556 0 1.3148861713037556 0 0
          0.8435537431038176 0.8435537431038176 0 0.8435537431038176 0 0
          0.8626926669462192 0.8626926669462192 0 0.8626926669462192 0 0
          0.8981136282171023 0.8981136282171023 0 0.8981136282171023 0 0
          0.21152757283374835 0.21152757283374835 0 0.21152757283374835 0 0
          0.2370624093324808 0.2370624093324808 0 0.2370624093324808 0 0
          1.143107146539115 1.143107146539115 0 1.143107146539115 0 0
          0.572052662294434 0.572052662294434 0 0.572052662294434 0 0
          0.1512379097130476 0.1512379097130476 0 0.1512379097130476 0 0
          0.23252366770351718 0.23252366770351718 0 0.23252366770351718 0 0
          0.06077149257546398 0.06077149257546398 0 0.06077149257546398 0 0
          0.3020059798651849 0.3020059798651849 0 0.3020059798651849 0 0
          0.20905704042842688 0.20905704042842688 0 0.20905704042842688 0 0
          0.1976107817861878 0.1976107817861878 0 0.1976107817861878 0 0
          0.562961458007313 0.562961458007313 0 0.562961458007313 0 0
          0.1582712209265666 0.1582712209265666 0 0.1582712209265666 0 0
          0.24586703160497952 0.24586703160497952 0 0.24586703160497952 0 0
          0.12284539370895983 0.12284539370895983 0 0.12284539370895983 0 0
          0.2721971578857469 0.2721971578857469 0 0.2721971578857469 0 0
          0.08303816980406611 0.08303816980406611 0 0.08303816980406611 0 0
          0.05541031197027714 0.05541031197027714 0 0.05541031197027714 0 0
          0.3648399743094858 0.3648399743094858 0 0.3648399743094858 0 0
          0.07123985362867971 0.07123985362867971 0 0.07123985362867971 0 0
          0.021955379960932338 0.021955379960932338 0 0.021955379960932338 0 0
          0.08103936457992479 0.08103936457992479 0 0.08103936457992479 0 0
          0.02766967501465494 0.02766967501465494 0 0.02766967501465494 0 0
          0.250731452486436 0.250731452486436 0 0.250731452486436 0 0
          0.1454964749726097 0.1454964749726097 0 0.1454964749726097 0 0
          0.08122014111366349 0.08122014111366349 0 0.08122014111366349 0 0
          0.31104868957088977 0.31104868957088977 0 0.31104868957088977 0 0
          0.09272720550059042 0.09272720550059042 0 0.09272720550059042 0 0
          0.052363735629322825 0.052363735629322825 0 0.052363735629322825 0 0
          0.14618539209293152 0.14618539209293152 0 0.14618539209293152 0 0
          0.07453663241804326 0.07453663241804326 0 0.07453663241804326 0 0
          0.1461615852830079 0.1461615852830079 0 0.1461615852830079 0 0
          0.03353515274884095 0.03353515274884095 0 0.03353515274884095 0 0
          0.17960652376948325 0.17960652376948325 0 0.17960652376948325 0 0
          0.1676275383906792 0.1676275383906792 0 0.1676275383906792 0 0
          0.189345270048506 0.189345270048506 0 0.189345270048506 0 0
          0.032442717144693975 0.032442717144693975 0 0.032442717144693975 0 0
          0.029335080405456494 0.029335080405456494 0 0.029335080405456494 0 0
          0.14831662319404082 0.14831662319404082 0 0.14831662319404082 0 0
          0.08929242127146203 0.08929242127146203 0 0.08929242127146203 0 0
          0.08412158858718236 0.08412158858718236 0 0.08412158858718236 0 0
          0.027670478327071875 0.027670478327071875 0 0.027670478327071875 0 0
          0.17639800997082095 0.17639800997082095 0 0.17639800997082095 0 0
          0.04463997132211987 0.04463997132211987 0 0.04463997132211987 0 0
          0.07086806273634393 0.07086806273634393 0 0.07086806273634393 0 0
          0.0491802754556678 0.0491802754556678 0 0.0491802754556678 0 0
          0.07212818871747685 0.07212818871747685 0 0.07212818871747685 0 0
          0.056889819551845355 0.056889819551845355 0 0.056889819551845355 0 0
          0.03720594708838136 0.03720594708838136 0 0.03720594708838136 0 0
          0.08551314459651752 0.08551314459651752 0 0.08551314459651752 0 0
          0.10128736095261112 0.10128736095261112 0 0.10128736095261112 0 0
          0.09374450761044156 0.09374450761044156 0 0.09374450761044156 0 0
          0.01516205035253072 0.01516205035253072 0 0.01516205035253072 0 0
          0.10538842223509792 0.10538842223509792 0 0.10538842223509792 0 0
          0.09200729861214937 0.09200729861214937 0 0.09200729861214937 0 0
          0.02818176902107921 0.02818176902107921 0 0.02818176902107921 0 0
          0.050273096216188286 0.050273096216188286 0 0.050273096216188286 0 0
          0.06726992723475714 0.06726992723475714 0 0.06726992723475714 0 0
          0.06918150441348281 0.06918150441348281 0 0.06918150441348281 0 0
          0.263697003706005 0.263697003706005 0 0.263697003706005 0 0
          0.03131859147414275 0.03131859147414275 0 0.03131859147414275 0 0
          0.017046264314908494 0.017046264314908494 0 0.017046264314908494 0 0
          0.057101524734487055 0.057101524734487055 0 0.057101524734487055 0 0
          0.2529801428336935 0.2529801428336935 0 0.2529801428336935 0 0
          0.0735195847124748 0.0735195847124748 0 0.0735195847124748 0 0
          0.11799028321861416 0.11799028321861416 0 0.11799028321861416 0 0
          0.114619553856312 0.114619553856312 0 0.114619553856312 0 0
          0.055384317918544326 0.055384317918544326 0 0.055384317918544326 0 0
          0.018171164601515515 0.018171164601515515 0 0.018171164601515515 0 0
          0.015182885961309251 0.015182885961309251 0 0.015182885961309251 0 0
          0.03799950486058219 0.03799950486058219 0 0.03799950486058219 0 0
          0.01173809068812541 0.01173809068812541 0 0.01173809068812541 0 0
          0.08083625044614055 0.08083625044614055 0 0.08083625044614055 0 0
          0.015240315186092878 0.015240315186092878 0 0.015240315186092878 0 0
          0.04239920704643056 0.04239920704643056 0 0.04239920704643056 0 0
          0.026271331537578928 0.026271331537578928 0 0.026271331537578928 0 0
          0.026187779868294576 0.026187779868294576 0 0.026187779868294576 0 0
          0.03732819396325284 0.03732819396325284 0 0.03732819396325284 0 0
          0.04000352354025459 0.04000352354025459 0 0.04000352354025459 0 0
          0.026421888240837303 0.026421888240837303 0 0.026421888240837303 0 0
          <InformationKey name="L2_NORM_RANGE" location="vtkDataArray" length="2">
            <Value index="0">
              0.0065965596459
            </Value>
            <Value index="1">
              2.2774496549
            </Value>
          </InformationKey>
        </DataArray>
        <DataArray type="Float64" Name="Stress" NumberOfComponents="6" format="ascii" RangeMin="0" RangeMax="0.10992198321239836">
          -0.0005670430406265047 0.0007494150416034176 0 -0.0018489562028191887 0 0
          -0.0006341785967877437 0.0013249176701064388 0 -0.001969157152810351 0 0
          0.00003480974888392698 0.0008907145793716836 0 -0.0028477091941623623 0 0
          -0.0011008752588047423 0.001098060209198122 0 -0.0016652184738016776 0 0
          -0.0004919157318281351 0.0007745632091819616 0 -0.0011258540791620783 0 0
          -0.00031338485719498296 0.0005225546198042537 0 -0.001714530307249397 0 0
          -0.00007258650984620204 0.0004962635749140064 0 -0.0016587646352318717 0 0
          0.000029129032447633046 0.00041900992828518307 0 -0.0022875404624066115 0 0
          -0.0006547185035741962 0.0006648735181135679 0 -0.0009985852389243187 0 0
          -0.0004287260144921226 0.00035860433074815976 0 -0.001243879117204374 0 0
          0.00004066941500472659 0.0005850138927602979 0 -0.0017720543951032612 0 0
          -0.0003693705968351694 0.00014563376916441385 0 -0.0007244848480386658 0 0
          0.000019702601702136906 0.0002834143475615078 0 -0.0011263801113323179 0 0
          0.000009433922153172491 0.00013570334174178893 0 -0.0006028054659548742 0 0
          -0.007339599103131049 0.0050341416779428215 0 -0.0015004613793773353 0 0
          -0.0036368193885075754 0.003806047914684454 0 -0.004031543906015919 0 0
          -0.008058461033785963 0.004225163139674374 0 0.0021549331814760524 0 0
          -0.008124374507456563 0.005084425269899181 0 -0.0013750098482171924 0 0
          -0.004473050174681709 0.0031996605912241 0 -0.00020785886207417154 0 0
          -0.004844196417015345 0.003447470778208059 0 -0.0035345283555551594 0 0
          -0.00368183961683742 0.003101383169780822 0 -0.0021031499092988805 0 0
          -0.0015791334367999085 0.0021895518194590376 0 -0.003100131741016635 0 0
          -0.001351446638941543 0.0020129382435172148 0 -0.0025503593031886646 0 0
          -0.0013593291745026363 0.0015222752524253183 0 -0.002985589298650147 0 0
          -0.0038793098753069554 0.002814407259017109 0 -0.001900238742798647 0 0
          -0.002365632723051353 0.002146974526270437 0 -0.0007242588499069853 0 0
          -0.0020881434321921243 0.0016581414917323548 0 -0.0021984714566639116 0 0
          -0.002680414001668325 0.0024330450772269713 0 -0.000825135139024022 0 0
          -0.001898451764345238 0.001692520379786026 0 -0.00037265231915215637 0 0
          -0.0020957752795922237 0.0020097798127976917 0 -0.001957478848414104 0 0
          -0.0015343033016288418 0.0013546119264935472 0 -0.0010464728474452016 0 0
          -0.0010117706667877046 0.001190378657484963 0 -0.0008277050966226147 0 0
          -0.0013662934514609387 0.001442034460797539 0 -0.001119391343060387 0 0
          -0.0004821201218114569 0.0007654290191315948 0 -0.0003656515339055395 0 0
          0 0 0 0 0 0
          0.00005002478205705762 0.000719587249589983 0 0.0003928800323996822 0 0
          0.00012411528759870893 0.0017853506754583514 0 0.001067137349306781 0 0
          0.0002491443311659991 0.001125398682157055 0 0.0006382855021462225 0 0
          0.0007682444720237883 0.0005114451070127462 0 0.0005431726796717911 0 0
          0.0004359501782212749 0.001096029679311005 0 0.0013093239925406279 0 0
          0.002913856203874742 0.000326732678780188 0 0.0026774811141309844 0 0
          0.005589516562791026 -0.00000941604442306819 0 0.0020192352776170425 0 0
          0.0012503573571066762 0.0006129129023339185 0 0.0010043146133971337 0 0
          0.008437442796591473 -0.0006523949688456699 0 0.004050872084966149 0 0
          0.0052490556010514385 0.00021387801890208625 0 0.002328492288278345 0 0
          0.015562851685013871 -0.0012766704700341368 0 0.0025656056282719253 0 0
          0.0031290156216576106 0.0002175251501687109 0 0.0008870882216642981 0 0
          0.0011324795661087242 0.0004802668540820741 0 0.0009333532028575433 0 0
          0.013687000125845464 -0.0025105273195744366 0 0.0018610355545128077 0 0
          0.011711374249304636 -0.0006203396771233253 0 0.002818405996130392 0 0
          0.01214059043306254 -0.0017244391817051448 0 -0.00009512744395383004 0 0
          0.008707659989229549 0.0006053453468448348 0 0.0016638503392587705 0 0
          0.0004468188339303759 0.0004401089415791462 0 -0.002055336809755744 0 0
          0.0005925466926582654 -0.0001506216625133869 0 -0.0026021133107565968 0 0
          0.008259961423619221 -0.0016196675838530013 0 -0.0012431772915652644 0 0
          0.012269424837529705 -0.001117186421193345 0 0.0005955454927009014 0 0
          0.01167203470204135 0.0008114248723344252 0 0.0011566370853702134 0 0
          0.0036401432967608453 -0.0004921922113979129 0 -0.000589487445105658 0 0
          0.006791665885873769 0.0004721478958094065 0 0.00008452089128954367 0 0
          0.003688318453653505 -0.00034211962388430413 0 -0.0007913304596416285 0 0
          0.001085029046309566 0.00007542982674879334 0 -0.000108362712722864 0 0
          0.00029841139004372106 0.0003604184039780383 0 -0.001531010006895252 0 0
          0.002027099530023974 -0.00022716540649233235 0 -0.0019135212765515235 0 0
          0.0012367377651652872 -0.0004053763720783446 0 -0.0012910330488318945 0 0
          0.00003611623526526268 0.000519518153431086 0 -0.0017741210556557348 0 0
          0.0007962310744303955 0.00039838748098125465 0 -0.0009145826405969944 0 0
          0.000014319172871494876 0.0002059757943822724 0 -0.000446409033695473 0 0
          -0.06151662103897661 0.015099231142570921 0 -0.08983630083767334 0 0
          -0.03624864028485931 0.05364225470249143 0 -0.020452918851163033 0 0
          0.03448053577192357 -0.034721687248308486 0 -0.03668117091218921 0 0
          -0.03711623791979411 0.02074766618820082 0 0.0036707172094037977 0 0
          -0.009358017969104519 0.0077812839996137945 0 -0.01726227556982525 0 0
          0.0100602706424823 0.0003379692839372133 0 -0.019864898038256806 0 0
          0.09653644762081118 -0.023894402729848378 0 -0.020279676268008112 0 0
          -0.011722257236053833 -0.028168811005945045 0 0.03866047494030536 0 0
          -0.008900239622449773 0.010858010954991257 0 -0.008364677144105655 0 0
          0.0031197689758595162 0.003998753727351898 0 -0.017636674897993747 0 0
          0.0008638868900698565 0.0017429837017728105 0 -0.007324598558125749 0 0
          0.034803546014873184 -0.010517032248355596 0 -0.0022011560506148965 0 0
          -0.017018854732374473 0.00786806811654971 0 0.002923846300277373 0 0
          0.01657992675332929 -0.005526833692142666 0 -0.013334896574365028 0 0
          0.030328425350598945 -0.024223442561303068 0 0.03522992510327022 0 0
          -0.012672115299062712 0.007368038842842983 0 -0.005093882685774031 0 0
          0.028329367630673848 -0.005886884810330664 0 -0.013965781778188142 0 0
          0.01780074181930045 -0.005617799564618406 0 -0.005475883389715049 0 0
          -0.016297165938751038 0.007865950423493463 0 0.004049622895198902 0 0
          0.007050533796825648 -0.0005830448040648416 0 -0.009037603219259328 0 0
          -0.0033055866458053655 0.0029025490651675197 0 -0.005820357655611751 0 0
          0.04167832546772128 -0.011919473090081832 0 -0.002191529842641086 0 0
          -0.0011198968488904503 0.003235133657086421 0 -0.007811627099424994 0 0
          -0.00007743992024752648 0.0010948624976755135 0 -0.003377605241191535 0 0
          0.004283165361549914 0.00047773081312302106 0 -0.008539200953289727 0 0
          0.0011490907874459736 0.00017134162882604564 0 -0.004276965184659496 0 0
          -0.015857023265206712 -0.0006131692936350334 0 0.017069866333297483 0 0
          0.024364354790844804 -0.007991305859355546 0 0.00026774279382422094 0 0
          0.008708419422506357 -0.0020998414606568055 0 -0.0072280829783918955 0 0
          0.03582143938780826 -0.011130612973753808 0 0.01604033120137638 0 0
          0.013229286234309199 -0.0024531619865243107 0 -0.00746862926746834 0 0
          0.008362294584298054 -0.002707220260716409 0 -0.0032933565362521506 0 0
          0.02330129684719253 -0.005618386515926395 0 -0.005233226764683038 0 0
          0.014580292756867844 -0.004477099928583609 0 -0.0025127722739168384 0 0
          0.0015837312900322603 -0.005854053131139707 0 0.007585379113551173 0 0
          0.003911888024331802 -0.00045010409190010287 0 -0.004290883928236717 0 0
          0.015338286534902126 -0.004849382337877701 0 0.009052802675313392 0 0
          0.027334671239848247 -0.007683987792611256 0 0.0012113459056994152 0 0
          0.006733255958531395 -0.005778943264470565 0 0.011955791174106885 0 0
          0.0012450525867456056 0.0009703604355984735 0 -0.004473368368600296 0 0
          0.0012975041210640309 -0.00043698911811291543 0 -0.004144614253863799 0 0
          0.0231246318707298 -0.006950039394123241 0 0.0078337611363319 0 0
          0.01323032326818747 -0.002490944614298415 0 0.00574559130015606 0 0
          0.01893333440042739 -0.004897726853978222 0 0.001103983855364271 0 0
          -0.001438416317405276 0.0017976108008663414 0 -0.0033976446070038647 0 0
          0.014672963161902943 -0.003990861859023322 0 0.011728037573319649 0 0
          0.006027041557975228 -0.0008767793137656134 0 -0.004641680999902205 0 0
          0.013192081359193933 -0.003741283179579124 0 -0.004236658380715316 0 0
          0.010290533250286064 -0.0027214838420949873 0 -0.0029106830756648536 0 0
          0.013750252209627944 -0.003609312943660247 0 -0.0017015632901998777 0 0
          0.011771282321360077 -0.0026327230690623015 0 -0.0031214511823393605 0 0
          0.00889998250177497 -0.0020939361542540247 0 -0.0020239034756141835 0 0
          0.004713791702581079 -0.0005782456122076427 0 0.005923911050960286 0 0
          0.0015252653717167195 -0.0022820672068770637 0 0.006946065777721033 0 0
          0.02042742118596507 -0.0050128862144626606 0 0.0014273381796624728 0 0
          0.0000493602147088856 0.0007100277038893545 0 0.0007134937171294203 0 0
          0.01576514105204654 -0.0029125295316477814 0 0.007140942952092532 0 0
          0.004961701836752751 -0.0020207070068638316 0 0.0060738542208557825 0 0
          0.006131877177726967 -0.00190233733445538 0 -0.0019989880426321137 0 0
          0.003521039954744139 0.0002573422213436943 0 0.004485958137685298 0 0
          0.008503673577680781 -0.001316564425624572 0 0.004444655413483491 0 0
          0.0009778179004979425 -0.0009510911275795902 0 0.004805714404603743 0 0
          0.009610676790740619 -0.010713937064061135 0 0.01799816417755689 0 0
          0.0013067212209302154 0.0004249294161551792 0 -0.004264822661855586 0 0
          0.00015109040989602355 0.002173377434658185 0 0.0013196701364254506 0 0
          -0.0023540368613857404 0.000018951766826041916 0 0.004456827415475894 0 0
          0.001900883735265551 -0.0120771033267861 0 0.015683058834757915 0 0
          0.0010607506674782602 -0.0010135469996770737 0 0.004966804100277285 0 0
          0.0011965409602656479 -0.0038423292959267772 0 0.006671417271437341 0 0
          -0.0011972030993641855 -0.004186538014766977 0 0.008263178258504434 0 0
          -0.0012603479615039236 -0.0007798905354286617 0 0.004045281595631718 0 0
          -0.0006117111796695965 0.0017633696121149272 0 0.0007934057173550605 0 0
          -0.00015335332167949286 0.0020540390316389026 0 0.0011342132652969344 0 0
          0.00004494103850409282 0.00060980701558563 0 0.003246356891716714 0 0
          0.00012411528759870895 0.0017853506754583518 0 0.0010671373493067815 0 0
          -0.0018377027325408141 -0.0021225116830763885 0 0.0059185019593702825 0 0
          0.00009192988929845799 0.0011478626733139395 0 0.0011748042259333755 0 0
          0.0025403592112231447 0.00036432461806788633 0 0.0025959829960450027 0 0
          -0.00018889457155268254 0.0016870350239255355 0 0.002371756430596172 0 0
          -0.0008968989042900902 0.001037944002342215 0 0.0016374481195770764 0 0
          0.0002843787009678931 0.0008298140900069586 0 0.002533694557009002 0 0
          -0.0014838844030257386 0.0011068700633684063 0 0.0031237935637855574 0 0
          0.0038339264590469676 -0.0011313916915628875 0 -0.0025624280596282236 0 0
          <InformationKey name="L2_NORM_RANGE" location="vtkDataArray" length="2">
            <Value index="0">
              0
            </Value>
            <Value index="1">
              0.10992198321
            </Value>
          </InformationKey>
        </DataArray>
        <DataArray type="Float64" Name="Strain" NumberOfComponents="6" format="ascii" RangeMin="0" RangeMax="0.4738535299350538">
          -0.06150679657668923 0.07836452525992708 0 -0.39289659366634183 0 0
          -0.059368477916509566 0.11190609876121041 0 -0.3443083052719782 0 0
          -0.0018233424550052608 0.05974070929212234 0 -0.40966357460624364 0 0
          -0.09792512363639116 0.09770723553587302 0 -0.29629848015770427 0 0
          -0.06244499625221467 0.09253670222756546 0 -0.2755462752341757 0 0
          -0.04201451187938726 0.06539723593650493 0 -0.44060772831558614 0 0
          -0.014154296424353563 0.0662614936264771 0 -0.4689842621954715 0 0
          0 0.03928290890493235 0 -0.46096766761563923 0 0
          -0.07638331982521984 0.07741300886364527 0 -0.2327670084470888 0 0
          -0.05990412729038096 0.051288432120542106 0 -0.35133944341378986 0 0
          0 0.06195974897437995 0 -0.40340648238870097 0 0
          -0.06490140925140575 0.029297856583693972 0 -0.26503053294096285 0 0
          0 0.0391609274102924 0 -0.33453261349841046 0 0
          0 0.028252053013183495 0 -0.2697484796600623 0 0
          -0.09957390533213051 0.07179542710136011 0 -0.04156108802916314 0 0
          -0.07489350922359539 0.07791626942312177 0 -0.16554354841677865 0 0
          -0.09195177203847238 0.0526836615270928 0 0.050747188387775366 0 0
          -0.09133860977313613 0.0608636390861209 0 -0.03168790421989086 0 0
          -0.10197439075415635 0.07624204013531904 0 -0.009656004418207298 0 0
          -0.09499215287327958 0.07070856344971527 0 -0.14126806264410063 0 0
          -0.09455021877325319 0.08144754409704866 0 -0.10913681907889049 0 0
          -0.07281661443360615 0.09670469698937155 0 -0.2788974735676518 0 0
          -0.07356945303837359 0.10393213742620937 0 -0.2691088257662701 0 0
          -0.06150679657668923 0.06787168587039052 0 -0.26809440536666324 0 0
          -0.09635607335529839 0.07292604207703962 0 -0.09611294524471252 0 0
          -0.10117055132820973 0.09298573506058633 0 -0.06232291042093002 0 0
          -0.10244598963489822 0.08384326067788198 0 -0.21864412761586421 0 0
          -0.09975263267787547 0.0916951398728798 0 -0.06178607552429438 0 0
          -0.11652423082319774 0.10544954473842963 0 -0.046070556347360514 0 0
          -0.09036767970867818 0.08713306098438073 0 -0.1692603984920541 0 0
          -0.10447933029724003 0.09375217974256811 0 -0.14361369329590568 0 0
          -0.08232123422155602 0.09482080229806633 0 -0.1331620565756387 0 0
          -0.09792512363639116 0.10263097712579676 0 -0.15988215764347458 0 0
          -0.07638331982521984 0.11399678731649307 0 -0.11159925636090992 0 0
          0 0 0 0 0 0
          0 0.14507590601640183 0 0.17025275286456948 0 0
          0 0.15072431582593832 0 0.19364329467337302 0 0
          0.022538475353192367 0.1461276888666696 0 0.18005092498105443 0 0
          0.13083661758563522 0.081791961221777 0 0.20747494776393663 0 0
          0.02517651998004635 0.07458173227084697 0 0.19599890528978828 0 0
          0.10265702737843771 0.004408784814181194 0 0.20335929955469959 0 0
          0.16619351348664585 -0.011832142044705948 0 0.12840864828650705 0 0
          0.08894114612120635 0.038734989859998736 0 0.1582028866612574 0 0
          0.19334830794322067 -0.028239494562136758 0 0.19750052018552758 0 0
          0.260295533412222 -0.007510684477016583 0 0.24769124938862414 0 0
          0.27458409894156577 -0.041377774556434405 0 0.0962775016419105 0 0
          0.24620792755556986 0 0 0.1500318512141526 0 0
          0.13371249681316855 0.04885004249998656 0 0.24288592379451784 0 0
          0.2735945911177888 -0.06833248331117685 0 0.0785722937907769 0 0
          0.3630379370442395 -0.044304540453235966 0 0.18619576936456605 0 0
          0.3252396044023371 -0.06813421469988966 0 -0.005397845799001294 0 0
          0.34668785520316747 0 0 0.14238812758002406 0 0
          0.040607975169906774 0.039907828261763596 0 -0.4289301935759345 0 0
          0.03821877881444308 -0.012157064743427542 0 -0.352769738243901 0 0
          0.2770679602760803 -0.07260104295345833 0 -0.08799937002704214 0 0
          0.4073967743230569 -0.06500552854115646 0 0.04203260358800397 0 0
          0.4155289286926944 0 0 0.08850629504348836 0 0
          0.27435982539641224 -0.05564690176693442 0 -0.0941524820911165 0 0
          0.39167448739683214 0 0 0.010476962585501947 0 0
          0.30122028396831113 -0.04856773900134976 0 -0.1373537623795049 0 0
          0.2505758395661787 0 0 -0.05378981519025591 0 0
          0.03603167613660446 0.044773171911439036 0 -0.4316710854898118 0 0
          0.14745534740337957 -0.026568397937557366 0 -0.29543833463485913 0 0
          0.11231236522082233 -0.04362729473751821 0 -0.2452000747862218 0 0
          0 0.055335667693398 0 -0.4061720464665172 0 0
          0.12152658876470757 0.0542431737661672 0 -0.30934892189292007 0 0
          0 0.053594049085537554 0 -0.24966387777796845 0 0
          -0.047382015987860626 0.01467345645842949 0 -0.14552690944685553 0 0
          -0.04719186558874222 0.06629681719426622 0 -0.05164426986321329 0 0
          0.04258580803532164 -0.04284480977372214 0 -0.09056631293683379 0 0
          -0.042751471306234023 0.02586463242370279 0 0.008705610749445258 0 0
          -0.04659978647703582 0.03969325018079678 0 -0.17382436942453064 0 0
          0.04215923605720266 -0.001518084931839719 0 -0.17848562722630545 0 0
          0.08554112486710896 -0.026660829264461776 0 -0.037787980402044674 0 0
          -0.01699624072781727 -0.047615064691823084 0 0.14394970437261373 0 0
          -0.06357058185111075 0.07556475071795155 0 -0.1178061925792932 0 0
          0.01216983308885666 0.016195740514044016 0 -0.1615582529887922 0 0
          0.01216983308885666 0.027575709508644408 0 -0.2567222601853091 0 0
          0.1171650396000383 -0.04265436487627279 0 -0.015524402496608358 0 0
          -0.08366911274861755 0.04311242390658257 0 0.02978992052517343 0 0
          0.08548355242788563 -0.03365822547318861 0 -0.14373370443992037 0 0
          0.05662404612499204 -0.046576161455507956 0 0.13329463216821283 0 0
          -0.08295019160123429 0.05189911351047654 0 -0.06855301966573424 0 0
          0.11639297658828449 -0.031818471737233 0 -0.1209886294773092 0 0
          0.1474571028921976 -0.05556838972791768 0 -0.09494561633890841 0 0
          -0.06162015415960531 0.03292057920320211 0 0.03168915073828303 0 0
          0.08503446770029474 -0.012869438769839007 0 -0.23182224394449208 0 0
          -0.06303067745109452 0.05629123749738496 0 -0.22373744824073805 0 0
          0.11601623464476973 -0.04044045728460527 0 -0.01279453703958927 0 0
          -0.018797307179988287 0.04630820964266505 0 -0.23355979657820086 0 0
          -0.006964333719486904 0.04990109413052694 0 -0.3276781898805483 0 0
          0.05222151104337856 0.0022113978708154583 0 -0.22444028435796504 0 0
          0.04092475802530321 0.0032913975547263497 0 -0.3292389895616682 0 0
          -0.06280656272436036 0.0019428108333989775 0 0.14501098657293726 0 0
          0.17055130404113794 -0.06628452719773148 0 0.00391962864360082 0 0
          0.10855666777556205 -0.03316677277423935 0 -0.1895566362342202 0 0
          0.11715403958066783 -0.04360515163806715 0 0.109841020407659 0 0
          0.14389749552413106 -0.03622016536106995 0 -0.1715589319642149 0 0
          0.16260053088075677 -0.06253683123171142 0 -0.13396388431632222 0 0
          0.1613826206354505 -0.04930507080051825 0 -0.07625093622000725 0 0
          0.19894403304081498 -0.07335325960012097 0 -0.07180636916120248 0 0
          0.013562297162395875 -0.040632793792662575 0 0.11054106645449971 0 0
          0.11708665180678185 -0.021440273613217525 0 -0.27253738295437135 0 0
          0.08690764922695915 -0.03279773172626621 0 0.10735951731444728 0 0
          0.16555219133580312 -0.05693435370101839 0 0.015392260746121069 0 0
          0.037523278494199896 -0.032853405164617655 0 0.13449417138502534 0 0
          0.03614429189708246 0.027126947891432746 0 -0.2936953333046268 0 0
          0.04507479507736245 -0.017895385136626384 0 -0.3009375886724289 0 0
          0.1584990695707713 -0.05745463950986664 0 0.11250196276756502 0 0
          0.14947361269023918 -0.03803558525104908 0 0.13705653061111162 0 0
          0.22815054406826285 -0.07355655231685165 0 0.027953414235500948 0 0
          -0.05626135543277222 0.0682890350672525 0 -0.2615416664423112 0 0
          0.08439572139842952 -0.028286806315882262 0 0.14161565674863946 0 0
          0.1358036794343604 -0.02890451841254711 0 -0.22147820074634833 0 0
          0.18901793877720957 -0.06545540982957751 0 -0.12733637695863978 0 0
          0.21218771895003669 -0.06958781148345071 0 -0.12606181835550584 0 0
          0.19329491465781068 -0.06302563375729534 0 -0.05024845171590391 0 0
          0.2092430421080856 -0.06040565535033754 0 -0.11686960990135839 0 0
          0.24209389925182168 -0.07260104295345834 0 -0.11586627247568226 0 0
          0.055358799018315294 -0.010549427919692933 0 0.14755545007824764 0 0
          0.01655485158411618 -0.02347787469156876 0 0.1460707433523511 0 0
          0.22068634106672974 -0.06833248331117685 0 0.032431023429285555 0 0
          0 0.046406050607776715 0 0.10023325224164047 0 0
          0.150871916010473 -0.03787480540130113 0 0.14432523198825895 0 0
          0.05521977240587882 -0.02560278765860846 0 0.14061177412630255 0 0
          0.22133668379593713 -0.08227940393348164 0 -0.15108506948664752 0 0
          0.06938798896853215 0.00024885993768025694 0 0.19006370310235393 0 0
          0.1272319605655336 -0.028239494562136758 0 0.14073325808249643 0 0
          0.01502606674989337 -0.014668114264508092 0 0.147961102733855 0 0
          0.03910451703901763 -0.04298103361629661 0 0.1453793147416152 0 0
          0.040607975169906774 0.010622326777616854 0 -0.29005366595916005 0 0
          0 0.1263464910307689 0 0.16489814651810994 0 0
          -0.04107426207287225 0.003184326481405 0 0.16624849229691824 0 0
          0.010786973035566527 -0.0480577886691941 0 0.13204560225106043 0 0
          0.015321519991797199 -0.014726623290840065 0 0.1438976127920854 0 0
          0.012352464800161831 -0.03312921959330634 0 0.12043465275723444 0 0
          -0.007872407384592491 -0.03564813654939985 0 0.1535564316772569 0 0
          -0.021685471884260177 -0.01244662634096559 0 0.15557562361548036 0 0
          -0.04023935599995419 0.09896256631599663 0 0.09300197400805746 0 0
          -0.01942293820898662 0.13541408436200886 0 0.15911825072248278 0 0
          0.00006677118483008891 0.01589808971908481 0 0.1819692178812949 0 0
          0 0.15072431582593834 0 0.19364329467337305 0 0
          -0.02081996082136711 -0.024572256736211454 0 0.1559499494828509 0 0
          0.0007926799287614749 0.07458173227084697 0 0.1641916830907489 0 0
          0.059067279704723016 0.004408784814181194 0 0.1304138489080861 0 0
          -0.01160510235588974 0.06444224287769786 0 0.1922948286783109 0 0
          -0.03684776582187016 0.04183808330038297 0 0.13318290104163405 0 0
          0.006047260705883378 0.02160892141463483 0 0.1445762259953412 0 0
          -0.03885252932771385 0.030120232632449333 0 0.16632735574324597 0 0
          0.14745534740337957 -0.052684165041697546 0 -0.20657008754477846 0 0
          <InformationKey name="L2_NORM_RANGE" location="vtkDataArray" length="2">
            <Value index="0">
              0
            </Value>
            <Value index="1">
              0.47385352994
            </Value>
          </InformationKey>
        </DataArray>
      </CellData>
      <Points>
        <DataArray type="Float32" Name="Points" NumberOfComponents="3" format="ascii" RangeMin="0" RangeMax="31.382903215220928">
          20.521530151367188 20 0 18.283540725708008 17.52022933959961 0
          17.25609016418457 15 0 16.766950607299805 20 0
          15.845529556274414 13.259160041809082 0 15.381019592285156 17.424640655517578 0
          14.208800315856934 15 0 14.336990356445312 13.107600212097168 0
          13.51276969909668 11.97500991821289 0 12.883429527282715 20 0
          13.102640151977539 13.196459770202637 0 12.788909912109375 16.992340087890625 0
          12.534299850463867 14.00767993927002 0 12.776570320129395 10.922260284423828 0
          12.229490280151367 11.916069984436035 0 11.793479919433594 13.17240047454834 0
          12.069279670715332 9.813958168029785 0 11.361470222473145 15 0
          11.58452033996582 10.91353988647461 0 11.037429809570312 11.90999984741211 0
          11 10 0 10.5 13.008990287780762 0
          10.109800338745117 17.53706932067871 0 11 8.496806144714355 0
          10.5 10.908289909362793 0 9.862959861755371 14.038040161132812 0
          9.96257495880127 11.90999984741211 0 10 10 0
          10 8.506440162658691 0 9.253846168518066 13.143170356750488 0
          9.415477752685547 10.91353988647461 0 8.828777313232422 20 0
          10 6.893710136413574 0 10 5.054046154022217 0
          8.770505905151367 11.916069984436035 0 8.9307222366333 9.815563201904297 0
          8.33652400970459 15 0 10 3.1532669067382812 0
          8.060935020446777 13.018710136413574 0 8.22342586517334 10.922260284423828 0
          10 1.503193974494934 0 8.326194763183594 8.723417282104492 0
          8.738482475280762 6.083861827850342 0 10 0 0
          7.487227916717529 11.97500991821289 0 7.619233131408691 9.827728271484375 0
          7.886951923370361 7.264598846435547 0 6.820486068725586 13.362019538879395 0
          6.463461875915527 17.636199951171875 0 8.019827842712402 4.493560791015625 0
          6.821275234222412 11.078909873962402 0 6.95460319519043 8.623793601989746 0
          6.350119113922119 12.17335033416748 0 7.078911781311035 5.963322162628174 0
          8.411846160888672 0 0 6.247642993927002 9.728070259094238 0
          5.688107967376709 13.005069732666016 0 7.599650859832764 1.4754129648208618 0
          6.223519802093506 7.299490928649902 0 6.884771823883057 2.9606289863586426 0
          5 15 0 5 11.847049713134766 0
          4.55386209487915 20 0 5 9.001420974731445 0
          6.787456035614014 0 0 5 6.318779945373535 0
          5 3.9981698989868164 0 3.073293924331665 16.91547966003418 0
          5 1.9230870008468628 0 5 0 0
          2.4224369525909424 13.400890350341797 0 2.6503889560699463 10.399840354919434 0
          2.5495519638061523 7.205644130706787 0 2.646925926208496 4.597036838531494 0
          2.96063494682312 2.148577928543091 0 3.3758440017700195 0 0
          0 20 0 0 15.455820083618164 0
          0 11.484399795532227 0 1.741044044494629 0 0
          0 7.942071914672852 0 0 4.97471809387207 0
          0 2.373173952102661 0 0 0 0
          21 15 0 24.184429168701172 20 0
          13.380769729614258 9.827728271484375 0 14.087759971618652 10.93202018737793 0
          14.910579681396484 12.065620422363281 0 16.441429138183594 12.177860260009766 0
          17.48702049255371 13.458939552307129 0 19.282169342041016 13.698100090026855 0
          12.673810005187988 8.723417282104492 0 11 6.846733093261719 0
          <InformationKey name="L2_NORM_RANGE" location="vtkDataArray" length="2">
            <Value index="0">
              0
            </Value>
            <Value index="1">
              31.382903215
            </Value>
          </InformationKey>
        </DataArray>
      </Points>
      <Cells>
        <DataArray type="Int64" Name="connectivity" format="ascii" RangeMin="0" RangeMax="93">
          17 6 11 11 6 5
          17 11 22 6 2 5
          5 2 1 11 5 9
          11 9 22 31 22 9
          1 2 84 5 1 3
          5 3 9 1 84 0
          3 1 0 0 84 85
          14 13 8 15 14 10
          13 86 87 8 13 87
          8 87 88 14 8 10
          10 8 7 15 10 12
          12 10 6 17 12 6
          7 8 88 7 88 4
          10 7 6 4 88 89
          4 89 90 7 4 6
          4 90 2 2 90 91
          4 2 6 2 91 84
          83 79 82 79 75 74
          75 69 68 74 75 68
          79 74 82 68 66 74
          66 65 73 73 65 72
          66 73 74 72 65 63
          73 72 81 72 63 71
          81 82 73 82 74 73
          71 63 61 72 71 80
          71 61 70 72 80 81
          36 17 22 36 22 48
          70 61 60 71 70 78
          71 78 80 70 60 67
          78 70 77 77 70 67
          77 67 76 48 22 31
          36 48 60 60 48 67
          48 31 62 48 62 67
          76 67 62 27 20 24
          24 20 18 27 24 30
          18 20 16 24 18 19
          30 24 26 27 30 35
          16 20 23 19 18 14
          26 24 19 26 19 21
          35 30 39 18 16 13
          30 26 34 27 35 28
          14 18 13 39 30 34
          39 34 44 13 16 86
          34 26 29 19 14 15
          35 39 45 21 19 15
          21 15 17 26 21 29
          29 21 25 86 16 92
          45 39 50 34 29 38
          35 45 41 44 34 38
          44 38 47 39 44 50
          50 44 52 92 16 23
          38 29 36 41 45 51
          45 50 55 35 41 28
          25 21 17 29 25 36
          51 45 55 51 55 63
          55 50 61 15 12 17
          41 51 46 47 38 36
          52 44 47 52 47 56
          50 52 61 61 52 56
          61 56 60 46 51 58
          41 46 32 63 55 61
          43 40 54 58 51 63
          46 58 53 56 47 60
          53 58 65 65 58 63
          46 53 42 32 28 41
          25 17 36 64 54 57
          40 37 57 23 93 92
          42 53 49 46 42 32
          32 42 33 33 42 49
          57 54 40 64 57 68
          49 53 66 69 64 68
          37 33 49 66 68 59
          53 65 66 59 68 57
          59 57 37 66 59 49
          49 59 37 47 36 60
        </DataArray>
        <DataArray type="Int64" Name="offsets" format="ascii" RangeMin="3" RangeMax="450">
          3 6 9 12 15 18
          21 24 27 30 33 36
          39 42 45 48 51 54
          57 60 63 66 69 72
          75 78 81 84 87 90
          93 96 99 102 105 108
          111 114 117 120 123 126
          129 132 135 138 141 144
          147 150 153 156 159 162
          165 168 171 174 177 180
          183 186 189 192 195 198
          201 204 207 210 213 216
          219 222 225 228 231 234
          237 240 243 246 249 252
          255 258 261 264 267 270
          273 276 279 282 285 288
          291 294 297 300 303 306
          309 312 315 318 321 324
          327 330 333 336 339 342
          345 348 351 354 357 360
          363 366 369 372 375 378
          381 384 387 390 393 396
          399 402 405 408 411 414
          417 420 423 426 429 432
          435 438 441 444 447 450
        </DataArray>
        <DataArray type="UInt8" Name="types" format="ascii" RangeMin="5" RangeMax="5">
          5 5 5 5 5 5
          5 5 5 5 5 5
          5 5 5 5 5 5
          5 5 5 5 5 5
          5 5 5 5 5 5
          5 5 5 5 5 5
          5 5 5 5 5 5
          5 5 5 5 5 5
          5 5 5 5 5 5
          5 5 5 5 5 5
          5 5 5 5 5 5
          5 5 5 5 5 5
          5 5 5 5 5 5
          5 5 5 5 5 5
          5 5 5 5 5 5
          5 5 5 5 5 5
          5 5 5 5 5 5
          5 5 5 5 5 5
          5 5 5 5 5 5
          5 5 5 5 5 5
          5 5 5 5 5 5
          5 5 5 5 5 5
          5 5 5 5 5 5
          5 5 5 5 5 5
          5 5 5 5 5 5
        </DataArray>
      </Cells>
    </Piece>
  </UnstructuredGrid>
</VTKFile>
