<?xml version="1.0"?>
<VTKFile type="UnstructuredGrid" version="0.1" byte_order="LittleEndian" header_type="UInt32" compressor="vtkZLibDataCompressor">
  <UnstructuredGrid>
    <Piece NumberOfPoints="97" NumberOfCells="154">
      <PointData>
        <DataArray type="Float64" Name="Velocity" NumberOfComponents="3" format="ascii" RangeMin="0" RangeMax="2.7931396507607205">
          1.052671752231473 0.020349120384289883 0 1.0962885016583006 0 0
          0.9707815244242234 -0.013405932884513576 0 0.9792064964186644 -0.020561588954900553 0
          0.9698646155080194 -0.018274395267495108 0 1.2012063181437562 0 0
          0.9862513529538625 0.0006574895789459499 0 0.9560984436278143 0 0
          0.961847680208377 0.008220457465662703 0 0.9357719248607821 -0.04766119662611587 0
          1.4021152279857907 0 0 0.928864191433726 0 0
          0.8160893895956599 0 0 2.001126902072906 0 0
          0.9073359283351636 -0.6222115162739004 0 1.9206300052553713 -0.4301918276475179 0
          0.17324599958724432 0 0 2.5751461616068396 0 0
          0.12316915753581947 -0.5548286443264644 0 1.2074957955640444 -0.5721767120874415 0
          2.450968799216155 -0.19241394319078942 0 -0.4009345096652187 0 0
          2.752301186581509 0 0 -0.37936005213082147 -0.48815519776649935 0
          1.1268527852265624 -0.3469037091934434 0 2.702450509328568 -0.0611581147514174 0
          -1.037772115815431 0 0 2.7547357555108527 0 0
          -0.6785416390693971 -0.06615383436593182 0 1.7301153581589885 -0.14024078160289266 0
          0.2221330555320666 -0.016182975175750625 0 2.7931217838987825 0.009990443523870778 0
          -1.1100875124645269 0 0 2.707369360924433 0 0
          2.059044337663422 -0.09891786993228982 0 0.37520950957639637 0.13781315312972636 0
          -0.6604006164961235 0.12739172780455646 0 -0.9573437298435505 0 0
          2.747106576343032 0.10752945052893514 0 0.8121335386366564 0.20466735919793333 0
          -0.20132923434441524 0.32047381501852684 0 2.0894753269781496 0.1189849020867138 0
          -0.5576393827990208 0.20669089578080205 0 0.33036708485851063 0.37545505198352624 0
          0.6647570242466454 0.28392870440402207 0 0.0545432762878046 0.41222699386124756 0
          -0.6751979644685379 0 0 1.2662276904866903 0.1495376199571963 0
          -0.3050298385247682 0.32028826872430066 0 2.025426893908363 0.22150661845675113 0
          0.3039395318260847 0.41247236209449234 0 -0.4871810760396143 0.1686063518363326 0
          -0.09981214862523285 0.39032846569882107 0 0.46695848784071403 0.2948739221298624 0
          -0.36772035427410854 0.2826776480993471 0 0.10215095509649691 0.41924399673798574 0
          1.0825473689330678 0.253348482543795 0 -0.203780236743083 0.35866984218716397 0
          0.24895181493793023 0.3770981823848394 0 -0.40165031052192773 0 0
          -0.03156083813013868 0.4004219207842723 0 -0.3136613337350684 0.16932596002101516 0
          0.3637395909631981 0.2971531088485571 0 -0.23237597970012197 0.26519490443466254 0
          0.11755630449840493 0.4077338067818426 0 1.0175496727434066 0.26372606948737687 0
          -0.10744493432281159 0.3288322498046582 0 0.2021257561087413 0.3790927661409976 0
          0.03099287437563972 0.36827475242550883 0 0.2794638408746168 0.3109684591346602 0
          -0.1769899763164911 0.1442902137917344 0 0.13008980664692776 0.36599750401334213 0
          -0.2092428650705266 0 0 -0.1221422230086508 0.21927862742181412 0
          0.15240699062469434 0.30796562781770465 0 -0.01919776578383413 0.29096115018681423 0
          0.05851178177711166 0.29770267851461313 0 0.0941817523724479 0.269485086075397 0
          -0.08012482765519194 1.452703323302416e-23 0 -0.026749860097728374 0.17225257560146442 0
          0.02876647225376529 0.16721080194306834 0 -0.025358106655315245 0.0593605337784894 0
          -0.013327505367857019 -0.006696828927207108 0 -0.021892882781922557 -2.3281742640968526e-23 0
          -0.00750257326747354 -0.006992117741266332 0 -0.003923027571147974 -0.005478179637881041 0
          -0.0018034129848645095 -0.0026923511715486403 0 0 0 0
          2.601855560279897 0.1834488548828337 0 2.711856117348648 0.29265442311121853 0
          2.6214711781679583 0 0 0.28960528364285004 0.26734554721763615 0
          1.0249084502122996 0.3521329662002037 0 2.011479230948362 0.38231849050793265 0
          1.9682776054734608 0.37882008806825196 0 0.06232453632145343 0.19391432332130884 0
          -0.02289228516243273 -0.0035728541175229214 0
          <InformationKey name="L2_NORM_RANGE" location="vtkDataArray" length="2">
            <Value index="0">
              0
            </Value>
            <Value index="1">
              2.7931396508
            </Value>
          </InformationKey>
        </DataArray>
        <DataArray type="Float64" Name="Pressure" format="ascii" RangeMin="-3.987563454216021" RangeMax="0.060760839436306065">
          -0.05323811001886446 -0.03164850166762263 -0.008757167448881213 -0.052291649856143194 -0.06595210493713505 0.00563009959888857
          -0.0012385732919230395 -0.05856428413770057 -0.12700244563054428 -0.16043052738989044 -0.19937322165932808 -0.12955592342654493
          0.060760839436306065 -0.46003010616351014 -0.4484803861059393 -1.3530350942493135 -0.22935185057205124 -1.8956142312540711
          -1.1231819593531935 -2.2668279922952768 -2.427481195707797 -1.3116492344122692 -2.8030860532291637 -2.422737694114198
          -3.611384719495921 -3.0356647183988033 -2.90226328599039 -3.002024582067666 -3.668732261497748 -3.8231372161489703
          -3.987563454216021 -3.1180462681086634 -3.602101406656821 -2.7864491301626413 -3.6464987916206835 -3.982828473847786
          -3.870754646947226 -3.501945399380464 -3.1338834900095596 -3.715783767841729 -3.689292952209243 -3.222099855654004
          -3.3780497854983573 -3.5633927895211155 -3.451485866290672 -3.454661134528555 -3.1938718991125405 -3.286896329047582
          -3.3346856694929374 -3.035871886147288 -3.3676933830516793 -3.153544633792185 -3.300161714322751 -3.2654251575177353
          -3.156048980025166 -3.2546182762680154 -3.159263794887745 -3.1584889022609506 -3.1814250307486214 -2.998867926064902
          -3.1406192976113454 -3.0148155539793464 -3.098083109078333 -3.0240359975649618 -3.1042858157474837 -2.9657321485092853
          -3.029035236199797 -3.0518143288720996 -3.020299069433044 -2.9776828693906463 -2.9391432704756646 -2.9927757417120833
          -2.927462342684734 -2.9407502237663876 -2.945233171117866 -2.943005622690909 -2.9233409667637082 -2.8872354063708126
          -2.9174957329932516 -2.905048133609292 -2.8911125825014015 -2.912463155614922 -2.846871874799988 -2.9234370541764765
          -2.8647101789074196 -2.90409378889225 -2.9250917895902866 -2.927764047277534 -1.9635133086433878 -2.553305602528108
          -2.1995182230350534 -2.8731895620883843 -2.8349580826281313 -2.631939392452003 -2.9249960663987857 -2.8026665744400088
          -2.8111240867972036
        </DataArray>
        <DataArray type="Float64" Name="BTraction" NumberOfComponents="3" format="ascii" RangeMin="0" RangeMax="3.491512753518823">
          0.02040388373935447 0.023237723379335946 0 0.0034895084492767296 0.03028251605471979 0
          0.014074343752746826 0.0010084231442274278 0 0 0 0
          0 0 0 0.006867018667852169 0.03643847439694667 0
          0.0018819881736830235 -0.008954640979039327 0 -0.0005855669859776688 -0.059582577244290086 0
          0 0 0 0 0 0
          0.014986229773644676 0.22221826176258175 0 -0.0009057386633772694 -0.08564772010349464 0
          -0.007536031829711191 -0.007151251044221156 0 0.020260085087630064 0.6548737121170493 0
          0 0 0 0 0 0
          -0.013567980782729125 -0.3016559531018991 0 0.015517375695307967 1.7861090936711663 0
          0 0 0 0 0 0
          0 0 0 -0.014026954179782131 -1.2868852622819011 0
          0.00716252630062769 2.6825484377166835 0 0 0 0
          0 0 0 0 0 0
          -0.01756832719589305 -2.6893105446879937 0 0.0001247961216306021 2.9363067903828903 0
          0 0 0 0 0 0
          0 0 0 0 0 0
          -0.01974296070113021 -3.463813907092685 0 -0.0031209868378138683 2.7247903073078055 0
          0 0 0 0 0 0
          0 0 0 -0.015761108086508113 -3.4914771795697703 0
          0 0 0 0 0 0
          0 0 0 0 0 0
          0 0 0 0 0 0
          0 0 0 0 0 0
          -0.011321431278034214 -3.256641668784107 0 0 0 0
          0 0 0 0 0 0
          0 0 0 0 0 0
          0 0 0 0 0 0
          0 0 0 0 0 0
          0 0 0 0 0 0
          0 0 0 -0.007999944891568099 -3.0593585599523543 0
          0 0 0 0 0 0
          0 0 0 0 0 0
          0 0 0 0 0 0
          0 0 0 0 0 0
          0 0 0 0 0 0
          0 0 0 0 0 0
          -0.004014722454122128 -2.9688611755698 0 0 0 0
          0 0 0 0 0 0
          0 0 0 0 0 0
          -0.0014716909740913173 -2.939902932895868 0 0 0 0
          0 0 0 0 0 0
          -2.729551292387894 0.8067555410478577 0 -0.00039387047213847886 -2.928838939796384 0
          -2.7557655404800383 0.7649959885662525 0 -2.808023614097371 0.6759528015518399 0
          -2.874566557375179 0.45105056194875925 0 -1.4032747379157657 -1.3771970923925867 0
          0 0 0 0 0 0
          -0.005537680634307624 2.0403096673425334 0 0 0 0
          0 0 0 0 0 0
          0 0 0 0 0 0
          -2.6638732609299147 0.8097246567533128 0
          <InformationKey name="L2_NORM_RANGE" location="vtkDataArray" length="2">
            <Value index="0">
              0
            </Value>
            <Value index="1">
              3.4915127535
            </Value>
          </InformationKey>
        </DataArray>
        <DataArray type="Float64" Name="ALEdispl" NumberOfComponents="3" format="ascii" RangeMin="0" RangeMax="2.551497554853661">
          0 0 0 0 0 0
          0 0 0 0.20195150298327644 0.03365504722295878 0
          0.13210791703370064 -0.05206300589270713 0 0 0 0
          0 0 0 0 0 0
          0.18866900628965938 -0.018357437943998772 0 0.32228807410081384 0.004213207429462091 0
          0 0 0 0 0 0
          0 0 0 0 0 0
          0.5692942258900625 0.008597234732615434 0 0.412348854862516 0.06872607302755482 0
          0 0 0 0 0 0
          0.4219418626858298 -0.1345835471823185 0 0.8301197061899223 -0.05993546377500767 0
          0.4422371432946137 0.09305351128018628 0 0 0 0
          0 0 0 0.46969666661978215 -0.19978532235293273 0
          1.0622183128446814 -0.15129247164258822 0 0.5447930319683517 0.08688375978909688 0
          0 0 0 0 0 0
          0.6012854281678317 -0.270044205462581 0 1.1852960203449423 -0.1902750453087122 0
          1.1439686377691585 -0.3693320996494335 0 0.7138314502107957 0.04923267672056986 0
          0 0 0 0 0 0
          1.3070252423048405 -0.24656859430775097 0 1.4111072996134844 -0.5257769091469864 0
          0.8124538773354754 -0.4560121753655117 0 0 0 0
          1.3509443043255223 -0.1439372303151388 0 1.7530021318911808 -0.5902821379727435 0
          1.3935554079371115 -0.7694382852046355 0 1.700434394752589 -0.3892301433485012 0
          0.7018353390663304 -0.504353176928657 0 1.7358709119284947 -0.7656568893219349 0
          1.9175170907969412 -0.6756012005321912 0 1.654893123827667 -0.8422402172904438 0
          0 0 0 1.9234093856412058 -0.591291669130582 0
          1.1365523951724756 -0.7468421658598483 0 1.8908869680610716 -0.49014253157253107 0
          1.8962098615413518 -0.82334383084653 0 0.47929145548807645 -0.38047209099344786 0
          1.4674552137031551 -0.8582302195627254 0 2.062869610746176 -0.7515751102129293 0
          0.864002665475172 -0.6388528817361677 0 1.7871367500344684 -0.8909086970279178 0
          2.1165128187398237 -0.6624520736617981 0 1.2365116951142834 -0.8122544362100745 0
          2.040610809659701 -0.8556632340473979 0 0 0 0
          1.5881834357288873 -0.8847778447455961 0 0.5447210723608061 -0.448433968148042 0
          2.208151309436635 -0.7763320856225521 0 0.9211722298194889 -0.6819177206499345 0
          1.909434799478387 -0.8881469620922763 0 2.2776954537082443 -0.6878818482084766 0
          1.3006966743921942 -0.8019695012408556 0 2.1705636341613816 -0.8368659992304399 0
          1.6723769755216844 -0.8410472911524476 0 2.3400469210732155 -0.7511199186897218 0
          0.552823524992617 -0.45889837916451204 0 2.0097994635158525 -0.8311170739551275 0
          0 0 0 0.9207702473397379 -0.6285883003773961 0
          2.2863054649995544 -0.76947423474448 0 1.3167751996867272 -0.7041807803557207 0
          1.667302343516667 -0.6939742712229845 0 2.068261436148281 -0.7063137948806376 0
          0 0 0 0.8976153806335104 -0.4968563820657344 0
          1.304761933544351 -0.506892952833596 0 0.3699263286516707 -0.2673222435819057 0
          1.4854250752197256 -0.33323393989181366 0 0 0 0
          0.9435839294826607 -0.24413002488977673 0 0.4667198661873397 -0.15808408848241892 0
          0.1371210833457661 -0.0802473396700138 0 0 0 0
          0.8311095515445565 -0.0989309010543524 0 1.6377634770038356 -0.3531693640652587 0
          0 0 0 2.4599369248571996 -0.6773847489782423 0
          2.4189813650940972 -0.6547407726992257 0 2.26269753689188 -0.5950977183415604 0
          2.0988895042600717 -0.5687048655636041 0 2.365568648645801 -0.6484677039301319 0
          1.9819136624951041 -0.4132836648896141 0
          <InformationKey name="L2_NORM_RANGE" location="vtkDataArray" length="2">
            <Value index="0">
              0
            </Value>
            <Value index="1">
              2.5514975549
            </Value>
          </InformationKey>
        </DataArray>
        <DataArray type="Float64" Name="ALEveloc" NumberOfComponents="3" format="ascii" RangeMin="0" RangeMax="0.05632370914937802">
          0 0 0 0 0 0
          0 0 0 -0.004165890915476755 -0.0006966566660752127 0
          -0.0027241798203057055 0.0010716849754309615 0 0 0 0
          0 0 0 0 0 0
          -0.0038914753405679403 0.0003756161295828675 0 -0.006648092335422517 -0.00009369238924265486 0
          0 0 0 0 0 0
          0 0 0 0 0 0
          -0.011756774598602027 -0.00010892160804804041 0 -0.008542637528545116 -0.001318388031743195 0
          0 0 0 0 0 0
          -0.008679910696344217 0.0028863330079677563 0 -0.01715923943911135 0.001377786396264305 0
          -0.009085513861548988 -0.0016849541570288507 0 0 0 0
          0 0 0 -0.009696979166141206 0.0042926584138496815 0
          -0.02200173974287467 0.003477111142707323 0 -0.011062592370002955 -0.0014477169450372307 0
          0 0 0 0 0 0
          -0.012495755149311671 0.00571683489761432 0 -0.02442640450351674 0.004276052701699562 0
          -0.023843776832299213 0.007612647863804112 0 -0.014190096011277076 -0.0005185351586018405 0
          0 0 0 0 0 0
          -0.02689082655548125 0.005323730446155972 0 -0.029534949695690038 0.010823857536972126 0
          -0.017278431946279982 0.00930815669224705 0 0 0 0
          -0.026504290469718583 0.004023700751760867 0 -0.036655294193170374 0.012080885846695089 0
          -0.030757931678937922 0.015741527390137122 0 -0.03390828467095952 0.008820815863706644 0
          -0.01565921924304492 0.010458643563828418 0 -0.037422744042050926 0.015664383818146055 0
          -0.0400514419880853 0.014139814042134269 0 -0.03670931965978763 0.01731160260066167 0
          0 0 0 -0.03925013806653421 0.012874450579737573 0
          -0.026086164028681136 0.015452096985600239 0 -0.0375012066356093 0.01138331862943942 0
          -0.041108427963693295 0.01718319535215529 0 -0.01102853767680767 0.008049360149126161 0
          -0.033705398199884495 0.01787397455121642 0 -0.04332994155745551 0.016228003616027387 0
          -0.020524265065025915 0.013475184824854658 0 -0.04027909797668805 0.018860301216436115 0
          -0.04314503681480275 0.01505518802619954 0 -0.02960258117488035 0.01728929285008096 0
          -0.04464310206507305 0.01863314730549459 0 0 0 0
          -0.03733171089982523 0.019194458675944936 0 -0.013312084721630146 0.009608618419492676 0
          -0.046570030238314075 0.017749125035101843 0 -0.023338864158126693 0.014969055749187277 0
          -0.04365491497377594 0.0198256202553333 0 -0.04646320467145415 0.016730468999922588 0
          -0.032484675067863567 0.01809398554498287 0 -0.04781218531266962 0.019545087492454982 0
          -0.040245902456740534 0.0195683143938421 0 -0.0494701441881471 0.01877022280523799 0
          -0.014680950770828316 0.010073017214919378 0 -0.04655471596109173 0.02023526194693903 0
          0 0 0 -0.02521706848402472 0.015195086536573532 0
          -0.05056508033585505 0.020017474350793263 0 -0.03465382548548135 0.017673540895654316 0
          -0.04170402186662869 0.01859479042118317 0 -0.04850236191204793 0.0198798209057236 0
          0 0 0 -0.026758309995654317 0.01394476202874062 0
          -0.03677821764176592 0.015995404175617067 0 -0.012873840718881202 0.00832688808020371 0
          -0.04166355076048278 0.01516375236403733 0 0 0 0
          -0.031153237983212678 0.011765775581072557 0 -0.01906228480271721 0.00812763475854289 0
          -0.007023008153001276 0.00446656409912137 0 0 0 0
          -0.01571493128445045 0.0032363870312669962 0 -0.03154259125236081 0.008860663648421752 0
          0 0 0 -0.052018357920060154 0.019367861443123635 0
          -0.04933649327099765 0.01774613527920954 0 -0.044800243385163974 0.01552520273645508 0
          -0.041593761247253 0.01374788522303283 0 -0.05260860980613291 0.02011701733880511 0
          -0.04843468248024729 0.017636482584883706 0
          <InformationKey name="L2_NORM_RANGE" location="vtkDataArray" length="2">
            <Value index="0">
              0
            </Value>
            <Value index="1">
              0.056323709149
            </Value>
          </InformationKey>
        </DataArray>
      </PointData>
      <CellData>
        <DataArray type="UInt8" Name="vtkGhostType" format="ascii" RangeMin="0" RangeMax="0">
          0 0 0 0 0 0
          0 0 0 0 0 0
          0 0 0 0 0 0
          0 0 0 0 0 0
          0 0 0 0 0 0
          0 0 0 0 0 0
          0 0 0 0 0 0
          0 0 0 0 0 0
          0 0 0 0 0 0
          0 0 0 0 0 0
          0 0 0 0 0 0
          0 0 0 0 0 0
          0 0 0 0 0 0
          0 0 0 0 0 0
          0 0 0 0 0 0
          0 0 0 0 0 0
          0 0 0 0 0 0
          0 0 0 0 0 0
          0 0 0 0 0 0
          0 0 0 0 0 0
          0 0 0 0 0 0
          0 0 0 0 0 0
          0 0 0 0 0 0
          0 0 0 0 0 0
          0 0 0 0 0 0
          0 0 0 0
        </DataArray>
        <DataArray type="Float64" Name="PStrain" NumberOfComponents="6" format="ascii" RangeMin="6.943880932803721e-8" RangeMax="0.47334814439299366">
          0.09999999999999999 0.09999999999999999 0 0.09999999999999999 0 0
          0.00000182643613207947 0.00000182643613207947 0 0.00000182643613207947 0 0
          0.000008530899387935739 0.000008530899387935739 0 0.000008530899387935739 0 0
          0.0000016393923044011107 0.0000016393923044011107 0 0.0000016393923044011107 0 0
          0.000001679045347590311 0.000001679045347590311 0 0.000001679045347590311 0 0
          2.42214745890192e-7 2.42214745890192e-7 0 2.42214745890192e-7 0 0
          0.0000011120628741724137 0.0000011120628741724137 0 0.0000011120628741724137 0 0
          1.5722532353830872e-7 1.5722532353830872e-7 0 1.5722532353830872e-7 0 0
          5.249181885730264e-7 5.249181885730264e-7 0 5.249181885730264e-7 0 0
          4.5584471385947674e-7 4.5584471385947674e-7 0 4.5584471385947674e-7 0 0
          1.1512794168567041e-7 1.1512794168567041e-7 0 1.1512794168567041e-7 0 0
          2.0520151367436858e-7 2.0520151367436858e-7 0 2.0520151367436858e-7 0 0
          0.000013628220168009836 0.000013628220168009836 0 0.000013628220168009836 0 0
          8.680609021770367e-8 8.680609021770367e-8 0 8.680609021770367e-8 0 0
          8.680609021770367e-8 8.680609021770367e-8 0 8.680609021770367e-8 0 0
          0.000013628220168009836 0.000013628220168009836 0 0.000013628220168009836 0 0
          4.009051525774938e-8 4.009051525774938e-8 0 4.009051525774938e-8 0 0
          0.000010027824018625533 0.000010027824018625533 0 0.000010027824018625533 0 0
          0.00914353107629159 0.00914353107629159 0 0.00914353107629159 0 0
          0.005822931621744509 0.005822931621744509 0 0.005822931621744509 0 0
          0.008376531296374078 0.008376531296374078 0 0.008376531296374078 0 0
          0.004764382323863487 0.004764382323863487 0 0.004764382323863487 0 0
          0.005524379738918391 0.005524379738918391 0 0.005524379738918391 0 0
          0.005385745786300375 0.005385745786300375 0 0.005385745786300375 0 0
          0.005227222133999574 0.005227222133999574 0 0.005227222133999574 0 0
          0.002861616027923112 0.002861616027923112 0 0.002861616027923112 0 0
          0.002186647133836675 0.002186647133836675 0 0.002186647133836675 0 0
          0.004073308068356023 0.004073308068356023 0 0.004073308068356023 0 0
          0.005276048165631427 0.005276048165631427 0 0.005276048165631427 0 0
          0.0020942479237587644 0.0020942479237587644 0 0.0020942479237587644 0 0
          0.0010147096234562106 0.0010147096234562106 0 0.0010147096234562106 0 0
          0.0024719579923440952 0.0024719579923440952 0 0.0024719579923440952 0 0
          0.0036972714884231156 0.0036972714884231156 0 0.0036972714884231156 0 0
          0.0017419122036780583 0.0017419122036780583 0 0.0017419122036780583 0 0
          0.004418625606789543 0.004418625606789543 0 0.004418625606789543 0 0
          0.002204085062195716 0.002204085062195716 0 0.002204085062195716 0 0
          0.0024522473969038373 0.0024522473969038373 0 0.0024522473969038373 0 0
          0.0017624319512039555 0.0017624319512039555 0 0.0017624319512039555 0 0
          0.0006238953470213758 0.0006238953470213758 0 0.0006238953470213758 0 0
          0.0008169490197887769 0.0008169490197887769 0 0.0008169490197887769 0 0
          0.0008680942741427753 0.0008680942741427753 0 0.0008680942741427753 0 0
          0.0007129003553924837 0.0007129003553924837 0 0.0007129003553924837 0 0
          0.0009613007440646239 0.0009613007440646239 0 0.0009613007440646239 0 0
          0.0011604834299006673 0.0011604834299006673 0 0.0011604834299006673 0 0
          0.002242498460383599 0.002242498460383599 0 0.002242498460383599 0 0
          0.0010911286149960266 0.0010911286149960266 0 0.0010911286149960266 0 0
          0.0007960655902750243 0.0007960655902750243 0 0.0007960655902750243 0 0
          0.00031211290174899706 0.00031211290174899706 0 0.00031211290174899706 0 0
          0.0002685164986112306 0.0002685164986112306 0 0.0002685164986112306 0 0
          0.000298350532959278 0.000298350532959278 0 0.000298350532959278 0 0
          0.00032678859210415895 0.00032678859210415895 0 0.00032678859210415895 0 0
          0.00019116912556734004 0.00019116912556734004 0 0.00019116912556734004 0 0
          0.00024217585182650302 0.00024217585182650302 0 0.00024217585182650302 0 0
          0.00011728119979313248 0.00011728119979313248 0 0.00011728119979313248 0 0
          0.00007686652679243126 0.00007686652679243126 0 0.00007686652679243126 0 0
          0.00007418843655376547 0.00007418843655376547 0 0.00007418843655376547 0 0
          0.00010503177744905685 0.00010503177744905685 0 0.00010503177744905685 0 0
          0.0003138105062444852 0.0003138105062444852 0 0.0003138105062444852 0 0
          0.0001311254217033523 0.0001311254217033523 0 0.0001311254217033523 0 0
          0.00040259162907535474 0.00040259162907535474 0 0.00040259162907535474 0 0
          0.00005338790176119489 0.00005338790176119489 0 0.00005338790176119489 0 0
          0.00005556410765975916 0.00005556410765975916 0 0.00005556410765975916 0 0
          0.00008640540388522175 0.00008640540388522175 0 0.00008640540388522175 0 0
          0.09071974551216166 0.09071974551216166 0 0.09071974551216166 0 0
          0.09267392218519699 0.09267392218519699 0 0.09267392218519699 0 0
          0.04594242660723326 0.04594242660723326 0 0.04594242660723326 0 0
          0.11330682406054066 0.11330682406054066 0 0.11330682406054066 0 0
          0.13413385549647983 0.13413385549647983 0 0.13413385549647983 0 0
          0.099315390839312 0.099315390839312 0 0.099315390839312 0 0
          0.07375416430705733 0.07375416430705733 0 0.07375416430705733 0 0
          0.15238848800851462 0.15238848800851462 0 0.15238848800851462 0 0
          0.05067849740982045 0.05067849740982045 0 0.05067849740982045 0 0
          0.055005831299329 0.055005831299329 0 0.055005831299329 0 0
          0.028499663145097658 0.028499663145097658 0 0.028499663145097658 0 0
          0.04218772360593525 0.04218772360593525 0 0.04218772360593525 0 0
          0.024785373599017408 0.024785373599017408 0 0.024785373599017408 0 0
          0.0551510795933879 0.0551510795933879 0 0.0551510795933879 0 0
          0.0674692628678024 0.0674692628678024 0 0.0674692628678024 0 0
          0.07629337584025263 0.07629337584025263 0 0.07629337584025263 0 0
          0.04356446166844741 0.04356446166844741 0 0.04356446166844741 0 0
          0.05045369380832527 0.05045369380832527 0 0.05045369380832527 0 0
          0.039319879220772125 0.039319879220772125 0 0.039319879220772125 0 0
          0.07812526113091081 0.07812526113091081 0 0.07812526113091081 0 0
          0.029011655804420403 0.029011655804420403 0 0.029011655804420403 0 0
          0.028497109139002226 0.028497109139002226 0 0.028497109139002226 0 0
          0.017249026702069067 0.017249026702069067 0 0.017249026702069067 0 0
          0.03199422279924373 0.03199422279924373 0 0.03199422279924373 0 0
          0.017776773333531278 0.017776773333531278 0 0.017776773333531278 0 0
          0.029447282344574367 0.029447282344574367 0 0.029447282344574367 0 0
          0.045080622414522986 0.045080622414522986 0 0.045080622414522986 0 0
          0.04795272787230169 0.04795272787230169 0 0.04795272787230169 0 0
          0.028950310510940908 0.028950310510940908 0 0.028950310510940908 0 0
          0.03981581533351235 0.03981581533351235 0 0.03981581533351235 0 0
          0.025946961523446395 0.025946961523446395 0 0.025946961523446395 0 0
          0.027459749642749165 0.027459749642749165 0 0.027459749642749165 0 0
          0.02143307004664871 0.02143307004664871 0 0.02143307004664871 0 0
          0.017672418843836815 0.017672418843836815 0 0.017672418843836815 0 0
          0.009870374072490638 0.009870374072490638 0 0.009870374072490638 0 0
          0.015535889996349913 0.015535889996349913 0 0.015535889996349913 0 0
          0.013257429873516156 0.013257429873516156 0 0.013257429873516156 0 0
          0.05367214984116634 0.05367214984116634 0 0.05367214984116634 0 0
          0.016452771248517704 0.016452771248517704 0 0.016452771248517704 0 0
          0.018498588703250822 0.018498588703250822 0 0.018498588703250822 0 0
          0.012729714144571103 0.012729714144571103 0 0.012729714144571103 0 0
          0.04571219440277897 0.04571219440277897 0 0.04571219440277897 0 0
          0.0591670005600584 0.0591670005600584 0 0.0591670005600584 0 0
          0.017171689768940922 0.017171689768940922 0 0.017171689768940922 0 0
          0.033026241351646855 0.033026241351646855 0 0.033026241351646855 0 0
          0.028144910129628595 0.028144910129628595 0 0.028144910129628595 0 0
          0.01742770413107061 0.01742770413107061 0 0.01742770413107061 0 0
          0.020910852956961608 0.020910852956961608 0 0.020910852956961608 0 0
          0.010834009925904655 0.010834009925904655 0 0.010834009925904655 0 0
          0.033188618232935785 0.033188618232935785 0 0.033188618232935785 0 0
          0.020087333408954893 0.020087333408954893 0 0.020087333408954893 0 0
          0.01658164208342775 0.01658164208342775 0 0.01658164208342775 0 0
          0.012934357215810337 0.012934357215810337 0 0.012934357215810337 0 0
          0.007954647559798873 0.007954647559798873 0 0.007954647559798873 0 0
          0.038850697268349506 0.038850697268349506 0 0.038850697268349506 0 0
          0.019088899082888085 0.019088899082888085 0 0.019088899082888085 0 0
          0.010876989807413872 0.010876989807413872 0 0.010876989807413872 0 0
          0.01525605961306854 0.01525605961306854 0 0.01525605961306854 0 0
          0.03881676522862709 0.03881676522862709 0 0.03881676522862709 0 0
          0.024026981500085497 0.024026981500085497 0 0.024026981500085497 0 0
          0.024058575999347787 0.024058575999347787 0 0.024058575999347787 0 0
          0.011187670166732173 0.011187670166732173 0 0.011187670166732173 0 0
          0.023308729077154925 0.023308729077154925 0 0.023308729077154925 0 0
          0.014914916847568419 0.014914916847568419 0 0.014914916847568419 0 0
          0.025308959649980662 0.025308959649980662 0 0.025308959649980662 0 0
          0.01791596176435268 0.01791596176435268 0 0.01791596176435268 0 0
          0.01431340128557572 0.01431340128557572 0 0.01431340128557572 0 0
          0.011450704996948249 0.011450704996948249 0 0.011450704996948249 0 0
          0.018097170499033904 0.018097170499033904 0 0.018097170499033904 0 0
          0.01068840799310149 0.01068840799310149 0 0.01068840799310149 0 0
          0.006983832726168508 0.006983832726168508 0 0.006983832726168508 0 0
          0.007340892882749828 0.007340892882749828 0 0.007340892882749828 0 0
          0.011493208938362788 0.011493208938362788 0 0.011493208938362788 0 0
          0.012218605549092742 0.012218605549092742 0 0.012218605549092742 0 0
          0.028369471426921603 0.028369471426921603 0 0.028369471426921603 0 0
          0.27328767858570474 0.27328767858570474 0 0.27328767858570474 0 0
          0.2520905698783573 0.2520905698783573 0 0.2520905698783573 0 0
          0.14707876519437887 0.14707876519437887 0 0.14707876519437887 0 0
          0.08602922656535895 0.08602922656535895 0 0.08602922656535895 0 0
          0.014410573951388995 0.014410573951388995 0 0.014410573951388995 0 0
          0.06264227341966747 0.06264227341966747 0 0.06264227341966747 0 0
          0.05003625571629085 0.05003625571629085 0 0.05003625571629085 0 0
          0.2549678532731464 0.2549678532731464 0 0.2549678532731464 0 0
          0.09529759608373164 0.09529759608373164 0 0.09529759608373164 0 0
          0.1086118592091045 0.1086118592091045 0 0.1086118592091045 0 0
          0.07614040361597443 0.07614040361597443 0 0.07614040361597443 0 0
          0.027403708717000368 0.027403708717000368 0 0.027403708717000368 0 0
          0.03434709476660024 0.03434709476660024 0 0.03434709476660024 0 0
          0.044187749778893504 0.044187749778893504 0 0.044187749778893504 0 0
          0.06421329993138054 0.06421329993138054 0 0.06421329993138054 0 0
          0.07979730509428083 0.07979730509428083 0 0.07979730509428083 0 0
          <InformationKey name="L2_NORM_RANGE" location="vtkDataArray" length="2">
            <Value index="0">
              6.9438809328e-08
            </Value>
            <Value index="1">
              0.47334814439
            </Value>
          </InformationKey>
        </DataArray>
        <DataArray type="Float64" Name="Stress" NumberOfComponents="6" format="ascii" RangeMin="0" RangeMax="0.023494269936360897">
          0 0 0 0 0 0
          -6.308647121249762e-11 -9.074746243643886e-10 0 -3.2295612811497654e-8 0 0
          -1.296492157798579e-7 -1.4231799307301164e-8 0 -1.7652597486609996e-7 0 0
          -1.4351538774153051e-8 -5.539935072095006e-9 0 -2.2136714351212583e-8 0 0
          -2.4843043012879288e-8 8.735575555298063e-9 0 1.0844773476243452e-8 0 0
          -7.941333272325789e-11 -1.1423302476345557e-9 0 -3.1890858314744677e-9 0 0
          3.4684609884610593e-9 1.7468837567852815e-9 0 1.2549791759598143e-8 0 0
          -9.594577656324464e-10 1.5291717336174296e-9 0 1.6991598383985652e-10 0 0
          -3.4280759763441494e-9 -2.033635819915372e-9 0 6.5681480946986165e-9 0 0
          -9.755729964873275e-11 -1.4033242334086946e-9 0 6.710025401963138e-9 0 0
          -1.5605941327508337e-9 1.3213986793492762e-9 0 1.0553974127348804e-10 0 0
          -3.734279791979936e-9 -7.96057884053069e-10 0 -1.7915364656781322e-9 0 0
          8.219443640590774e-10 1.182335354454211e-8 0 3.642472793805868e-7 0 0
          -5.4237268360442606e-11 -7.80182244877136e-10 0 9.210290213202324e-10 0 0
          -5.4237268360442606e-11 -7.80182244877136e-10 0 9.210290213202324e-10 0 0
          -8.219443640590769e-10 -1.1823353544542107e-8 0 -3.642472793805866e-7 0 0
          -5.458990695204225e-10 -3.7950202693933114e-11 0 1.0008993193055655e-10 0 0
          -2.463244137027981e-7 -1.2136856976495298e-8 0 1.656399495950457e-7 0 0
          -0.0006567760786986881 0.0006714393254940962 0 -0.0010000074093456947 0 0
          -0.00037024522173576566 0.00014882655529606067 0 -0.0007252398926001088 0 0
          -0.00008922839278671709 -0.0012835161116243148 0 0.0008309587055617038 0 0
          0.000009621753759830656 0.000138405227160641 0 -0.0006043582313664387 0 0
          -0.00013580622886514147 -0.0004197604879562043 0 0.0005738303119561977 0 0
          -0.00014530000236373254 -0.0006206884595074435 0 0.0005785906888050488 0 0
          -0.000351787100298345 -0.000014832571464489092 0 0.000456587742129408 0 0
          -0.00002115519318900179 -0.00030430931741102574 0 0.0002522407059891771 0 0
          -0.00008006019764820445 -0.000017703964428972196 0 0.0001652418164948821 0 0
          -0.00020505226758757482 0.00017186359058614793 0 0.0002612109874258978 0 0
          -0.000589810804692779 0.00029731882877604104 0 0.00009026853920087347 0 0
          -0.0000020219399241357206 -0.000029084828139490754 0 -0.00019619429643552325 0 0
          -0.00003480923172459776 -0.000004169777593008933 0 0.00007349169869365376 0 0
          -0.00017149580357822536 0.00010944101790964187 0 0.00007070749028549458 0 0
          -0.00022043588508650094 0.000006821305397269141 0 -0.0003410181249242078 0 0
          -0.00007334106048700127 -0.00003757490972550063 0 -0.00013784931456235978 0 0
          -0.0002467704988109149 0.0004593237717414984 0 -0.0001462775878242959 0 0
          -0.0001761919561265231 0.00017427041956158336 0 -0.00012978340856926969 0 0
          -0.00021789934478399348 0.00015294872481131185 0 -0.00010426108876808668 0 0
          -0.00007859563660962821 0.00010859139147166957 0 0.000017496215983551895 0 0
          -0.0000131585769580618 0.00002799701390631189 0 0.000010941407521078034 0 0
          -0.000029830731486958608 0.00004474024315632345 0 -0.000042250768047278226 0 0
          -0.00000147058060913125 -0.000021153736454426453 0 -0.00006171030223423656 0 0
          -0.000024325613325411442 -0.00001877501411732101 0 -0.00004427417677054629 0 0
          -0.000004526536673376055 -0.00006511248907087094 0 0.00006745090172529452 0 0
          -0.00008054494008362113 0.0000032756623843347044 0 0.0000786323714455725 0 0
          -0.00008349709218699556 -0.00019541073457550207 0 0.00020799133635581091 0 0
          -0.00007611306760496749 0.00004301707486530319 0 -0.000035528997659684496 0 0
          -0.00002581626748476847 -0.00004889265971377436 0 0.00005566056244163963 0 0
          -0.000008240174844906302 0.000011369880865492604 0 -0.000012213502756048268 0 0
          -4.4408909389143986e-7 -0.000006388050812130712 0 -0.000014124349602519466 0 0
          -0.0000010333787673879867 -0.000014864756115504116 0 0.000016258831626514485 0 0
          -0.00000879319156863184 0.000004750308089368185 0 0.000015164458462686586 0 0
          -0.000004100357481597552 -0.0000037499934476291474 0 -0.000009376725597354732 0 0
          -0.000007829939107876962 -0.00000915746027638613 0 0.000013337268225045068 0 0
          -0.0000018757003420527683 0.000003396828704977921 0 -0.000004585568280337186 0 0
          -7.89812479551226e-8 -0.000001136114874431379 0 -0.000003171342556844266 0 0
          -1.4000220998166746e-7 -0.0000020138779435824474 0 0.000002937456450030194 0 0
          -0.000002160884460617376 0.0000017333117337007208 0 0.0000033148105980122165 0 0
          -0.00000861369036780351 0.000010232561111641518 0 -0.000011128865296096125 0 0
          -0.0000051221050010809555 0.0000024622381253719915 0 -0.0000033985178280855923 0 0
          -0.000024072544241103958 0.0000050781260268569186 0 0.00001534510253961891 0 0
          -0.0000014890547872922686 -5.742360002814564e-8 0 0.000002130128005739669 0 0
          -0.0000016847101742322831 -1.6509134035013562e-7 0 -0.0000018335464831897193 0 0
          -0.0000021290446224964174 0.0000014231795971905868 0 0.0000026599716323224468 0 0
          -0.008107592213301474 0.0042536069799963315 0 0.0021759798188547832 0 0
          -0.008170955645817416 0.005123362566316776 0 -0.0013714281360055608 0 0
          -0.004497090057774842 0.0032214229166221972 0 -0.00020285545867927555 0 0
          -0.008468225471234008 0.004638753083374007 0 0.002783750976523028 0 0
          -0.0036486013128031467 -0.00011761679816014287 0 0.007798087600027431 0 0
          -0.006893498498753552 0.002022460969057582 0 0.006687379474314768 0 0
          -0.0035054490314632286 0.0011092261342702326 0 0.004843730900760036 0 0
          -0.00396861445263955 -0.005855120213932584 0 0.012361015088776113 0 0
          -0.004493089591919997 0.0028083658196666776 0 0.0017126688806667696 0 0
          -0.004815227628559432 0.003468255556700997 0 -0.0001693175999057982 0 0
          -0.0028669065132676756 0.00221966662876998 0 0.00018885579807506215 0 0
          -0.003899305862601743 0.0028376318276957203 0 -0.0019031448725803923 0 0
          -0.0023767262282406955 0.0021621773946708836 0 -0.0007235526788686953 0 0
          -0.004247347975751398 0.002764267941099402 0 0.0019113020733650603 0 0
          -0.0004272935433668494 -0.002789639472593191 0 0.005243020294090009 0 0
          -0.003329902350079351 -0.0013640966787710623 0 0.006845702863700377 0 0
          -0.0011154347651817437 -0.0010126251559664159 0 0.0038794502220592126 0 0
          -0.0036688391704733023 0.0014875400814274053 0 0.003572940357603291 0 0
          -0.002179938634100927 0.0009097169996552742 0 0.0027927030071606958 0 0
          -0.0005587135907712482 -0.003694627977442859 0 0.006652738671368315 0 0
          -0.0025585897167358413 0.0018101878707087165 0 0.0012359874090742305 0 0
          -0.0026930123741526948 0.002449379637191265 0 -0.0008238724297967993 0 0
          -0.0019064329569163803 0.0017030478463544358 0 -0.00037051717432921686 0 0
          -0.0027728801502654972 0.002414086389631082 0 0.0001253209991518743 0 0
          -0.0019200991965251089 0.0015141997724424676 0 0.00013743282405120238 0 0
          -0.002307137118475964 0.0016886184399551448 0 0.001288026454017779 0 0
          0.00022357727361621452 -0.0027838327566900353 0 0.004165656180169777 0 0
          -0.0011567425405768846 -0.0022538524212953374 0 0.004739547543140336 0 0
          -0.00024017502303816108 -0.0016883856014752359 0 0.002979993593953527 0 0
          -0.00201076593176231 -0.0002942249090867863 0 0.00376161427850769 0 0
          -0.0010028150009340608 -0.00042602645291405763 0 0.0025411240036958414 0 0
          -0.0020590181759164994 0.0009551238541376751 0 0.0020514284900063034 0 0
          -0.0012058592778112281 0.0006354340847914604 0 0.0015795469854555874 0 0
          -0.0017959886548453243 0.0017680348514095023 0 -0.0004460121439549536 0 0
          -0.0008728256247840531 0.0010366999395836427 0 -0.00018235570209198742 0 0
          -0.0015404079724664304 0.001364692637194276 0 -0.0010472500193704462 0 0
          -0.0010158129164096709 0.0011995279421295668 0 -0.0008285637974886094 0 0
          0.00018157956427225698 -0.004120300402664088 0 0.004748426596323173 0 0
          -0.0013070589376345172 0.0011152712973230322 0 0.0008584770513425431 0 0
          -0.001436703329962497 0.0015088562466067427 0 0.000012906765084803523 0 0
          -0.0014411664681014697 0.0011235329198400216 0 -0.00001058083286371609 0 0
          0.0012515365978335254 -0.0038716693309873524 0 0.0038274137213464357 0 0
          0.0014938423459321182 -0.004919689610127675 0 0.004104965580411857 0 0
          -0.0014457969931782294 0.0011151036209304972 0 0.0009509664672205868 0 0
          0.00038518142061851453 -0.003119149122710766 0 0.003268077626196569 0 0
          -0.0010597082568742987 -0.0013006446054042637 0 0.0029330289655207548 0 0
          -0.0003367240510897314 -0.0009689317801838031 0 0.0018528101015133501 0 0
          -0.0010477052027115707 -0.00015912775407969507 0 0.002105837308656706 0 0
          -0.00035249399246473957 -0.00009526056736524244 0 0.0010528328559060622 0 0
          -0.0003313553792456078 -0.002844227704583136 0 0.00338161961147298 0 0
          -0.00007860631720944911 -0.002043103908234152 0 0.002244602114273947 0 0
          -0.0013319529407766898 0.0005669717396199798 0 0.0011761482991432684 0 0
          -0.0008818138826815387 0.00038428999363672846 0 0.0009383560834668773 0 0
          -0.0005428247854746498 0.0005161384683818231 0 0.0004524855738875616 0 0
          0.00031765415821740424 -0.004423583155757165 0 0.003284807168638677 0 0
          -0.0003565372580464028 -0.001849121894660031 0 0.002127003352104618 0 0
          -0.00016865418591666917 -0.0011180475375222733 0 0.0012490982530819973 0 0
          -0.0005488590632583773 -0.0007822664661888014 0 0.001591054958584495 0 0
          0.0011174906428572627 -0.004610393480047508 0 0.0031989743632611133 0 0
          0.00006236487105686089 -0.0032531922726064468 0 0.002431902050936125 0 0
          -0.0002951980283891658 -0.004246310100674923 0 0.002379903484752613 0 0
          -0.0009549657359986252 0.00044480169380602976 0 0.0008465608021346967 0 0
          -0.00019299083873255385 -0.00306566798753385 0 0.0023835342219021777 0 0
          -0.00014108350311459785 -0.0020464902900631772 0 0.0015897322596118305 0 0
          -0.000020688567234338157 -0.0044981280909895316 0 0.0024488797578653934 0 0
          -0.0002085491383882582 -0.0032297321759422724 0 0.001904753570101491 0 0
          -0.000290512597104683 -0.0019135797454764816 0 0.001521598892088446 0 0
          -0.00028438269582714787 -0.0017658548585423412 0 0.0013242200706514563 0 0
          -0.00022976020411764978 -0.0033050121669231164 0 0.0018677828464658667 0 0
          -0.0007984719672704105 0.0009948589606970702 0 -0.00010770834756480927 0 0
          -0.0004837261409357072 0.0007706135198711527 0 -0.00036550532383715015 0 0
          -0.0009087853872792892 0.0007284216887881623 0 -0.00012169867774762305 0 0
          -0.0004690196709613107 -0.0008862556425884905 0 0.0013432583835663284 0 0
          -0.00015014170139837258 -0.0021597306278073594 0 0.0012657680080506498 0 0
          0.000864020339136106 -0.004278728290447736 0 0.0019114535223195492 0 0
          -0.01639519898893299 0.007920274056160992 0 0.004097760133200286 0 0
          -0.01597631418880783 -0.0006333034018271913 0 0.017214442529002304 0 0
          0.0016041028921658586 -0.005934193314277732 0 0.007641607580114973 0 0
          0.002369790614962151 -0.004696787130359768 0 0.004965093160429515 0 0
          -0.000054316746009273575 -0.0007813255002872431 0 0.0006211310455797063 0 0
          0.0014772135996659037 -0.004271288161052037 0 0.004843497603372999 0 0
          0.002174757449374632 -0.002274008336203349 0 0.002424997291241698 0 0
          0.0019242359872139068 -0.01228792554323647 0 0.015847401201930112 0 0
          0.0026440905931165914 -0.0037773399021386565 0 0.005563801297037137 0 0
          0.0028403011765636204 -0.00491560945530407 0 0.006070849414068436 0 0
          0.0017207919440826677 -0.004626401189105292 0 0.005172612410092363 0 0
          -0.0002234473776833021 -0.0032142045866751915 0 0.002069337402280005 0 0
          0.0021228819868869377 -0.003915546653115911 0 0.0016077878562052706 0 0
          0.0023804034639962144 -0.003257640591117769 0 0.002276064423674092 0 0
          0.0022275834687828875 -0.004446354678540059 0 0.003915050023998747 0 0
          0.002637527639658699 -0.00356480884839285 0 0.004529273079639063 0 0
          <InformationKey name="L2_NORM_RANGE" location="vtkDataArray" length="2">
            <Value index="0">
              0
            </Value>
            <Value index="1">
              0.023494269936
            </Value>
          </InformationKey>
        </DataArray>
        <DataArray type="Float64" Name="Strain" NumberOfComponents="6" format="ascii" RangeMin="0" RangeMax="0.28970594855848253">
          0 0 0 0 0 0
          0 -0.0004923650859244148 0 -0.03766332371566163 0 0
          -0.015017906754042843 -0.0006091623821301009 0 -0.04407510971194041 0 0
          -0.008483266317726806 -0.0027589757269398554 0 -0.028761390084301806 0 0
          -0.015093577675157024 0.006204970828271879 0 0.01375744111828171 0 0
          0 -0.004673565642009786 0 -0.02804434055439429 0 0
          0.0029970236307022176 0.0013483041254321929 0 0.02403736071832903 0 0
          -0.0067499366256589975 0.010107337743729326 0 0.0023019259075699123 0 0
          -0.0062349028609724804 -0.0034057405287740315 0 0.02665206835324158 0 0
          0 -0.003050691918044382 0 0.031353558945925133 0 0
          -0.014292572437458264 0.01236752675259479 0 0.001952607209171617 0 0
          -0.017852672172041763 -0.002603241132718109 0 -0.01859622087364295 0 0
          0 0.0008597234732615434 0 0.056929422589006254 0 0
          0 -0.008906418870511489 0 0.02259970251502006 0 0
          0 -0.008906418870511489 0 0.02259970251502006 0 0
          0 -0.0008597234732615434 0 -0.056929422589006254 0 0
          -0.01349360415280879 0 0 0.005317755425228071 0 0
          -0.02437652662000052 0.000495244907926425 0 0.03518341486469422 0 0
          -0.07660952658539161 0.07809541110909748 0 -0.232953304815607 0 0
          -0.0650846478342744 0.02985231492766792 0 -0.26528921711353226 0 0
          0 -0.15184285422685784 0 0.21129772936114716 0 0
          0 0.028787446063027765 0 -0.2701888608651044 0 0
          -0.0192192667389309 -0.07396048660865523 0 0.22124810788369248 0 0
          -0.01888669745666119 -0.11289200831739465 0 0.2288259075074771 0 0
          -0.06681828437482351 0.001833202783898008 0 0.18605137983518466 0 0
          0 -0.1053807147268879 0 0.18775150073047572 0 0
          -0.035898058338208416 -0.005527639924167865 0 0.16096107309117752 0 0
          -0.053048572607117844 0.04549918813640602 0 0.13659153540078683 0 0
          -0.11521895382322025 0.06385315279603804 0 0.036442424796334236 0 0
          0 -0.01376244694927204 0 -0.199543638872339 0 0
          -0.03387521816301041 -0.0017172313894176713 0 0.1542680926631005 0 0
          -0.07214818731760896 0.04888854381262236 0 0.06092617867073327 0 0
          -0.05949705046733164 0.00596444150669713 0 -0.19646071660222011 0 0
          -0.040432618378803686 -0.0185652989579001 0 -0.16856133127596667 0 0
          -0.06280789690029567 0.10737859660638019 0 -0.07051316173676227 0 0
          -0.08507449105400666 0.08426671837100896 0 -0.12542104884879327 0 0
          -0.09279919954840837 0.06825844684471691 0 -0.09056024255807708 0 0
          -0.048671841804150295 0.06444128280210695 0 0.02114517954551816 0 0
          -0.024108330555578088 0.046144965096995935 0 0.037354338562005235 0 0
          -0.04015163637432804 0.0570613916988668 0 -0.11015881500656025 0 0
          0 -0.024147793159837935 0 -0.15141551750093157 0 0
          -0.03215475638838727 -0.023862730564719648 0 -0.13228215669684304 0 0
          0 -0.06712159509053121 0 0.14945418648840558 0 0
          -0.06930852554026387 0.007615400582502088 0 0.1443251552444878 0 0
          -0.031044395392631735 -0.08419405468977625 0 0.1975571240134071 0 0
          -0.07219070769413738 0.044086695342625895 0 -0.06935641131123993 0 0
          -0.028041155978425457 -0.05891343336878552 0 0.14892868056228056 0 0
          -0.028811497566134166 0.03810245957739474 0 -0.08335048222807538 0 0
          0 -0.023575159301813055 0 -0.1120410284245684 0 0
          0 -0.049372852562506515 0 0.11607591587310051 0 0
          -0.02780048211978347 0.016337616590751232 0 0.09884156701292436 0 0
          -0.020000301635939924 -0.018048429464798395 0 -0.10447516283339495 0 0
          -0.029577401600903393 -0.03541534966136951 0 0.11730476471988635 0 0
          -0.017930588866066757 0.029947872856632043 0 -0.08328070018337362 0 0
          0 -0.014646782665716476 0 -0.08787907985382556 0 0
          0 -0.026900117444024214 0 0.08433635387409641 0 0
          -0.021629103912276015 0.01785722153775581 0 0.06722295618762208 0 0
          -0.029589979889706457 0.03436982204876568 0 -0.07553756999524078 0 0
          -0.04019748781898873 0.021402508007494752 0 -0.055205488606159786 0 0
          -0.06041449761823524 0.016699534550494787 0 0.08118665677291188 0 0
          -0.027698941769966137 0.0008597234732615434 0 0.08498503410979429 0 0
          -0.029986332830412556 -0.0008597234732615434 0 -0.07028735227979781 0 0
          -0.025676276214494254 0.018107082509134155 0 0.06557158837395176 0 0
          -0.09223784229276477 0.05287584896089226 0 0.051089616576794214 0 0
          -0.09162338154738658 0.061153673335745104 0 -0.0315206463783233 0 0
          -0.10232574116892132 0.07659855440667723 0 -0.009404860798511439 0 0
          -0.07725540781319151 0.04594045683481218 0 0.052330383709510146 0 0
          -0.027025570360191813 0.0010098461584475689 0 0.123830978589103 0 0
          -0.07052661494845355 0.02508290491521148 0 0.14342307028058549 0 0
          -0.04836912901077772 0.018266146402896366 0 0.13988561751802886 0 0
          -0.023272928330186626 -0.0364571830073826 0 0.17277526985911174 0 0
          -0.09212024134235475 0.06131860177206183 0 0.07198289022502302 0 0
          -0.0915352638767013 0.06884608813478943 0 -0.006556513723732225 0 0
          -0.10556090576611664 0.08451854775900117 0 0.01411465278911822 0 0
          -0.0966932085909131 0.07337613924081948 0 -0.09608716072146482 0 0
          -0.10152605850461047 0.09350559349326243 0 -0.06218051141466023 0 0
          -0.08015725913924743 0.05524119555104606 0 0.0738167493054055 0 0
          -0.0034441673997709357 -0.040733716858101954 0 0.16552179098641262 0 0
          -0.042223900628116096 -0.014782684180609684 0 0.191122059275671 0 0
          -0.02388697201854261 -0.021373633631679767 0 0.18967820688051706 0 0
          -0.07445070922626962 0.03439253868609837 0 0.15083856874002033 0 0
          -0.056808504932867473 0.02687647363675233 0 0.151283715086027 0 0
          -0.003847569912221723 -0.046596211945033716 0 0.18137966087908436 0 0
          -0.09213848215189269 0.06823664989829287 0 0.09074467169595274 0 0
          -0.10005199784823834 0.09213056584155599 0 -0.06157986997584364 0 0
          -0.11689191510124083 0.10596686538996844 0 -0.045753397855576694 0 0
          -0.09152526943151917 0.081134632315506 0 0.00834318526405342 0 0
          -0.11345181821399139 0.09229577913268172 0 0.01646710062263651 0 0
          -0.08198665151526718 0.06252514485134045 0 0.09316636812032864 0 0
          0.009213348440443192 -0.06183473188163163 0 0.1968217648410991 0 0
          -0.02076695974691331 -0.04513308185943765 0 0.21052475458273345 0 0
          -0.0042238507340875975 -0.05749941976304851 0 0.21925106304895103 0 0
          -0.04977677110886501 -0.0038624485253277996 0 0.20123255912525811 0 0
          -0.03734874410926481 -0.013674303343388483 0 0.20860223355945443 0 0
          -0.07707416493088037 0.03982643699632338 0 0.15912536496366847 0 0
          -0.0580762552528864 0.03341681722361039 0 0.15697401593415067 0 0
          -0.10812287962684895 0.10665728531277499 0 -0.05375641416258997 0 0
          -0.09532602137738386 0.11070920191972436 0 -0.039351866768502525 0 0
          -0.10481347363910994 0.09433392956827358 0 -0.14357996495747138 0 0
          -0.08256188711345291 0.09540156710458102 0 -0.1331208918688147 0 0
          0.008683091461154348 -0.07667779269096903 0 0.18844314379244115 0 0
          -0.08379994156330439 0.07299927853538948 0 0.11113970356357805 0 0
          -0.0829838349665557 0.0865978017393278 0 0.0014861355139919592 0 0
          -0.11884431095374282 0.09572491009373549 0 -0.0017704383416438925 0 0
          0.03312606592023992 -0.08623408262389862 0 0.17834171675583144 0 0
          0.03089722916452399 -0.08454569456912653 0 0.14777792694429304 0 0
          -0.08833618411768684 0.07049263184187413 0 0.11795918761842258 0 0
          0.018151539581907683 -0.09485290403333835 0 0.2107719516030117 0 0
          -0.03429372708011669 -0.04341072940851598 0 0.22197092361586618 0 0
          -0.015390844799370362 -0.054024805212136706 0 0.2264489623270301 0 0
          -0.04936494133350443 -0.004109255936993848 0 0.21450265451488926 0 0
          -0.031789733895961736 -0.006503288747344348 0 0.20699020938848348 0 0
          -0.004009318465282697 -0.08464566818317021 0 0.21702770877304772 0 0
          0.003144253208846204 -0.10101043431720513 0 0.23801081039816596 0 0
          -0.08235457329294915 0.039608907431536 0 0.15108249620699132 0 0
          -0.06994477411918554 0.034304753381936365 0 0.1545263072942918 0 0
          -0.0724433146657627 0.06933491710113399 0 0.12116115329248792 0 0
          0.01602376938195613 -0.11394604054206095 0 0.1800904426727068 0 0
          -0.011893060149122434 -0.09516672779706373 0 0.23733779094909357 0 0
          -0.008324433763326283 -0.10128249820600776 0 0.24460621239629876 0 0
          -0.03227489601393568 -0.04856867634945336 0 0.22213777002299845 0 0
          0.036889311232236474 -0.12026434531188815 0 0.17553794999695213 0 0
          0.011957540923182741 -0.13500508765289776 0 0.21558893565034437 0 0
          0 -0.17490371654159437 0 0.2107021804890068 0 0
          -0.0877503884532651 0.04549918813640602 0 0.16117515815838507 0 0
          0.0008599960097253263 -0.13039560155401847 0 0.21781230009780228 0 0
          0.00007917342267163563 -0.13597644450932295 0 0.22702974127041414 0 0
          0.011489281388190109 -0.17692119295554393 0 0.20609752263196152 0 0
          0.000888045632732509 -0.17870376067470178 0 0.22645310130035118 0 0
          -0.010955999931290872 -0.13172160123934074 0 0.22643155008967025 0 0
          -0.014055019005168423 -0.15184285422685787 0 0.24632446222650256 0 0
          0 -0.18097543704761263 0 0.2198342256423278 0 0
          -0.0808322002042371 0.09785647256331187 0 -0.021464261137965096 0 0
          -0.07660952658539161 0.11467107693676568 0 -0.1114755135609107 0 0
          -0.13014367266812948 0.10737859660638019 0 -0.03531153331654889 0 0
          -0.03529797623700917 -0.07396048660865523 0 0.24894182054292752 0 0
          0 -0.1751601030106489 0 0.2206541365391793 0 0
          0.04076793683268848 -0.15229266722598608 0 0.14351328374334932 0 0
          -0.061745228808223196 0.03301198427595159 0 0.0319378799984185 0 0
          -0.06293362675574907 0.0018855630140989228 0 0.145450750515848 0 0
          0.013653365167795691 -0.04093157406019052 0 0.11066603750809137 0 0
          0.031209316251068264 -0.05627148067380226 0 0.12293087888777232 0 0
          0 -0.05372890253489233 0 0.09180821885010718 0 0
          0.02820223786133335 -0.0695297574982486 0 0.16469149875945305 0 0
          0.04642608230712156 -0.048263967813834394 0 0.10323003103254008 0 0
          0.01085131988358734 -0.04851283852156873 0 0.13238909975034985 0 0
          0.030372284129214555 -0.041390527929948184 0 0.12435672304132947 0 0
          0.029173462195649924 -0.04687757756269242 0 0.11905614493782482 0 0
          0.026710972412129948 -0.06206923317935924 0 0.14470194417494792 0 0
          0 -0.11623085256341215 0 0.1608427790696091 0 0
          0.0694372127762455 -0.1177962794682452 0 0.09970532171609921 0 0
          0.05874606519386244 -0.07714039539174722 0 0.1097140552909869 0 0
          0.03933719079923492 -0.07135240363827874 0 0.1298649432442905 0 0
          0.03600570187823371 -0.046772636963792205 0 0.12089821389623148 0 0
          <InformationKey name="L2_NORM_RANGE" location="vtkDataArray" length="2">
            <Value index="0">
              0
            </Value>
            <Value index="1">
              0.28970594856
            </Value>
          </InformationKey>
        </DataArray>
      </CellData>
      <Points>
        <DataArray type="Float32" Name="Points" NumberOfComponents="3" format="ascii" RangeMin="11" RangeMax="82.46211251235322">
          80 20 0 71.25 20 0
          80 10 0 66.2388916015625 12.798850059509277 0
          70.20958709716797 5.845560073852539 0 62.5 20 0
          80 0 0 71.25 0 0
          61.98773956298828 6.017467021942139 0 57.24021911621094 11.442919731140137 0
          53.75 20 0 62.5 0 0
          53.75 0 0 45 20 0
          45 10 0 40.15702819824219 15.307769775390625 0
          45 0 0 37.99734115600586 20 0
          40.049659729003906 5.003084182739258 0 36.91453170776367 10.96895980834961 0
          35.045658111572266 16.052900314331055 0 38.01533889770508 0 0
          32.61840057373047 20 0 35.31842041015625 4.04646110534668 0
          31.990219116210938 9.977960586547852 0 30.425119400024414 16.402000427246094 0
          32.72930908203125 0 0 28.12295913696289 20 0
          30.514589309692383 4.023209095001221 0 27.527999877929688 12.006360054016113 0
          27.93014907836914 7.867103099822998 0 26.15369987487793 16.422679901123047 0
          28.299869537353516 0 0 24.184429168701172 20 0
          24.478979110717773 13.194990158081055 0 24.274250030517578 9.000702857971191 0
          25.34370994567871 4.327282905578613 0 24.47154998779297 0 0
          21 15 0 21 10.843259811401367 0
          21 6.905692100524902 0 19.282169342041016 13.698100090026855 0
          21 3.321547031402588 0 19.531700134277344 9.244172096252441 0
          18.861600875854492 10.96759033203125 0 18.876230239868164 8.006454467773438 0
          21 0 0 18.122079849243164 12.307439804077148 0
          19.210899353027344 5.246811866760254 0 17.48702049255371 13.458939552307129 0
          17.920650482177734 9.497859001159668 0 19.55401039123535 2.1721389293670654 0
          18.10565948486328 6.8028388023376465 0 17.11651039123535 10.95458984375 0
          18.390689849853516 3.9656178951263428 0 17.121780395507812 8.250059127807617 0
          16.441429138183594 12.177860260009766 0 17.33510971069336 5.599215984344482 0
          16.261079788208008 9.61844539642334 0 18.331939697265625 0 0
          16.37948989868164 7.09060001373291 0 17.43825912475586 2.477871894836426 0
          15.530030250549316 10.942770004272461 0 16.465240478515625 4.240429878234863 0
          15.518770217895508 8.458972930908203 0 14.910579681396484 12.065620422363281 0
          15.580659866333008 5.842782974243164 0 14.752360343933105 9.728070259094238 0
          14.776479721069336 7.299490928649902 0 14.087759971618652 10.93202018737793 0
          15.43025016784668 2.6237199306488037 0 14.04539966583252 8.623793601989746 0
          16.123180389404297 0 0 14.639739990234375 4.373022079467773 0
          13.380769729614258 9.827728271484375 0 13.921090126037598 5.963322162628174 0
          13.11305046081543 7.256770133972168 0 12.673810005187988 8.723417282104492 0
          14.193650245666504 0 0 12.980170249938965 4.493560791015625 0
          12.261520385742188 6.083861827850342 0 12.46481990814209 2.2999250888824463 0
          11 6.846733093261719 0 12.522089958190918 0 0
          11 4.945953845977783 0 11 3.106290102005005 0
          11 1.4935599565505981 0 11 0 0
          18.283540725708008 17.52022933959961 0 17.25609016418457 15 0
          20.521530151367188 20 0 12.776570320129395 10.922260284423828 0
          13.51276969909668 11.97500991821289 0 14.336990356445312 13.107600212097168 0
          15.845529556274414 13.259160041809082 0 12.069279670715332 9.813958168029785 0
          11 8.496806144714355 0
          <InformationKey name="L2_NORM_RANGE" location="vtkDataArray" length="2">
            <Value index="0">
              11
            </Value>
            <Value index="1">
              82.462112512
            </Value>
          </InformationKey>
        </DataArray>
      </Points>
      <Cells>
        <DataArray type="Int64" Name="connectivity" format="ascii" RangeMin="0" RangeMax="96">
          0 1 2 5 10 9
          9 10 14 5 9 3
          3 9 8 5 3 1
          8 9 12 3 8 4
          4 8 11 11 8 12
          4 2 3 3 2 1
          16 12 14 11 7 4
          4 7 6 10 13 14
          6 2 4 9 14 12
          88 89 38 88 38 90
          42 46 37 90 38 33
          40 42 36 36 42 37
          40 36 35 37 32 36
          35 36 30 40 35 39
          39 35 34 27 33 31
          30 36 28 35 30 29
          31 33 38 27 31 25
          38 39 34 38 34 31
          31 34 29 29 34 35
          29 30 24 25 31 29
          27 25 22 22 25 20
          32 26 28 24 30 28
          28 36 32 29 24 25
          28 26 23 20 25 24
          22 20 17 23 26 21
          28 23 24 17 20 15
          23 21 18 15 20 19
          17 15 13 18 21 16
          23 18 19 19 20 24
          15 19 14 19 24 23
          18 16 14 13 15 14
          19 18 14 91 74 69
          92 91 69 92 69 65
          69 74 67 74 77 71
          67 74 71 67 71 64
          71 77 76 69 67 62
          65 69 62 65 62 56
          93 92 65 93 65 94
          62 67 58 71 76 68
          64 71 68 64 68 60
          67 64 58 58 64 55
          68 76 75 62 58 53
          94 65 56 94 56 49
          56 62 53 56 53 47
          53 58 50 68 75 66
          60 68 66 60 66 57
          64 60 55 55 60 52
          58 55 50 50 55 45
          49 56 47 49 47 41
          94 49 89 89 49 41
          66 75 73 53 50 44
          47 53 44 47 44 41
          73 75 79 73 79 81
          44 50 43 66 73 63
          52 60 57 52 57 48
          55 52 45 45 52 40
          57 66 63 57 63 54
          50 45 43 43 45 40
          44 43 39 63 73 70
          48 57 54 48 54 42
          52 48 40 70 73 81
          63 70 61 78 72 70
          39 43 40 54 63 61
          54 61 51 61 70 72
          51 61 59 54 51 42
          42 51 46 72 59 61
          44 39 41 89 41 38
          38 41 39 40 48 42
          51 59 46 81 78 70
          91 95 74 74 95 77
          77 95 96 76 77 82
          86 87 83 75 76 80
          85 86 81 96 82 77
          80 76 82 80 82 84
          75 80 79 83 78 81
          81 86 83 85 81 79
          80 84 79 84 85 79
        </DataArray>
        <DataArray type="Int64" Name="offsets" format="ascii" RangeMin="3" RangeMax="462">
          3 6 9 12 15 18
          21 24 27 30 33 36
          39 42 45 48 51 54
          57 60 63 66 69 72
          75 78 81 84 87 90
          93 96 99 102 105 108
          111 114 117 120 123 126
          129 132 135 138 141 144
          147 150 153 156 159 162
          165 168 171 174 177 180
          183 186 189 192 195 198
          201 204 207 210 213 216
          219 222 225 228 231 234
          237 240 243 246 249 252
          255 258 261 264 267 270
          273 276 279 282 285 288
          291 294 297 300 303 306
          309 312 315 318 321 324
          327 330 333 336 339 342
          345 348 351 354 357 360
          363 366 369 372 375 378
          381 384 387 390 393 396
          399 402 405 408 411 414
          417 420 423 426 429 432
          435 438 441 444 447 450
          453 456 459 462
        </DataArray>
        <DataArray type="UInt8" Name="types" format="ascii" RangeMin="5" RangeMax="5">
          5 5 5 5 5 5
          5 5 5 5 5 5
          5 5 5 5 5 5
          5 5 5 5 5 5
          5 5 5 5 5 5
          5 5 5 5 5 5
          5 5 5 5 5 5
          5 5 5 5 5 5
          5 5 5 5 5 5
          5 5 5 5 5 5
          5 5 5 5 5 5
          5 5 5 5 5 5
          5 5 5 5 5 5
          5 5 5 5 5 5
          5 5 5 5 5 5
          5 5 5 5 5 5
          5 5 5 5 5 5
          5 5 5 5 5 5
          5 5 5 5 5 5
          5 5 5 5 5 5
          5 5 5 5 5 5
          5 5 5 5 5 5
          5 5 5 5 5 5
          5 5 5 5 5 5
          5 5 5 5 5 5
          5 5 5 5
        </DataArray>
      </Cells>
    </Piece>
  </UnstructuredGrid>
</VTKFile>
