<?xml version="1.0"?>
<VTKFile type="UnstructuredGrid" version="0.1" byte_order="LittleEndian" header_type="UInt32" compressor="vtkZLibDataCompressor">
  <UnstructuredGrid>
    <Piece NumberOfPoints="94" NumberOfCells="150">
      <PointData>
        <DataArray type="Float64" Name="Velocity" NumberOfComponents="3" format="ascii" RangeMin="0" RangeMax="5.035513612224789">
          1.0772401144661166 0 0 1.3185116926592866 -0.10438371940095906 0
          1.5168735868885055 -0.33399033639306624 0 1.5449715950150316 0 0
          1.1214225480711613 -0.8888945445730136 0 1.291730224224145 -0.35030732255446256 0
          2.3413439598938535 -0.12328335359172467 0 2.856578400402021 -1.0816976810908967 0
          2.076068739609221 -1.615865413305902 0 1.6572865623035506 0 0
          2.001134070988755 -1.4550008121129925 0 1.7967119108462501 -0.1639676244847656 0
          1.5656339400230417 -0.08608549347274067 0 2.519202275808976 0.16183577498411805 0
          4.8312800696274865 -0.2907654455855946 0 3.6386362533347056 1.26281250132876 0
          1.6070670509755263 4.019602434168093 0 2.0066196354316337 -0.39124920239034866 0
          0.5284444432620947 0.29418929992214277 0 2.046127322010913 1.29538980335959 0
          0 0 0 3.1272416459202397 0.8251295857675001 0
          1.717028609998084 0.18852913757580805 0 0 0 0
          3.5757699241666154 2.4568261206302267 0 1.9586075893074446 0.053644672431512205 0
          2.133388238757118 -0.18085575532825215 0 0 0 0
          0 0 0 1.972182043142874 0.3449858365344561 0
          2.4878025747948724 1.2547621937787794 0 1.7783641261359118 0 0
          0 0 0 0 0 0
          2.354019912101316 1.3468143868187967 0 -0.2785547752164241 2.597941470371409 0
          1.6673747370429244 0.37861217756040283 0 0 0 0
          2.0650248283027413 0.43824652454471064 0 1.4876535478481088 0.42384888744913546 0
          0 0 0 1.1681810333027225 1.287567256343739 0
          0.32359791184390324 -0.6766433416848268 0 0 0 0
          1.1145655188510428 1.2895798427227472 0 2.4251453934614102 0.9298563253355305 0
          0.7419248847168808 0.30864644282220055 0 2.225759422088566 0.5785100632972122 0
          1.5907375575242841 0.1398222843604992 0 -0.3253681330147049 -0.22864805889368578 0
          1.3160016253308866 1.3969726348275777 0 0.6283044920542203 1.2338920643885156 0
          1.5087588769375464 0.9348011716918799 0 0.8204120182218112 1.6654487147893895 0
          0.5140190488478149 0 0 0.6807145199464244 0.9182644085537525 0
          0.8417284131830352 0.9378940994961731 0 -0.05063108101310475 0.008785578992198388 0
          0.7827083579653877 1.36901589975589 0 -0.5077770253965768 0.143995860298323 0
          1.252508815680248 0.8615424668650378 0 1.6635868385069694 1.482419318502625 0
          1.1419973342774 0 0 1.3995430865731566 1.3973573518449618 0
          0.4694220791423972 0 0 0.9762623079389062 0.5979293899269202 0
          0.5565549968212258 0.5504135546449284 0 1.055720542170286 0.2607112861919021 0
          0.1479436142347568 -0.03664255270983137 0 -0.8519716332120856 0 0
          1.0306343556248443 0.2637429764459675 0 0.9630118081808298 0.5502509427925683 0
          1.1202939087072696 1.0191123340150499 0 1.0544562746957424 1.043298596801495 0
          0.6651914001097105 0.9083718613575593 0 0.4399433076356685 0 0
          1 0 0 1 0 0
          1 0 0 0.7530228433834838 0 0
          1 0 0 1 0 0
          1 0 0 1 0 0
          1.2423247872191723 -0.18649977648685775 0 1.0472189078727823 0 0
          1.1721849685260526 -1.9259499111016356 0 3.700665235179308 -3.414890065000104 0
          2.4676079403287705 -1.1662376160298733 0 1.3424524429076756 -0.7842996147471877 0
          1.6899846563023515 -0.600831051946924 0 1.2274977140127317 -0.5774317770620431 0
          -1.8110338949564924 0.8536102108194841 0 0 0 0
          <InformationKey name="L2_NORM_RANGE" location="vtkDataArray" length="2">
            <Value index="0">
              0
            </Value>
            <Value index="1">
              5.0355136122
            </Value>
          </InformationKey>
        </DataArray>
        <DataArray type="Float64" Name="Pressure" format="ascii" RangeMin="-21.28897795182805" RangeMax="4.455756015639711">
          0.22158741494097942 -0.1878776954678297 0.020790968940973542 -0.5051508684033139 -0.25292159960110117 0.41750351825722404
          -1.3581980899005484 -4.803692265920565 0.728332144340462 0.43386197578554353 -0.4704709365158335 -0.7770924904335197
          2.736037698387862 -9.478683811038673 -15.913358340814794 -3.4902642999071336 -16.280814603347824 -0.4055566895715922
          -6.383814323218698 -2.7507039178254877 -8.385504270783331 -3.859327992427235 0.5032526306351373 -2.4807238556010986
          -9.277675866158479 -0.712177749234966 -2.92452844335367 -2.1243800071489725 4.455756015639711 0.42140112720221423
          -4.211867968150008 0.7735715067375972 4.382048627352798 3.055943543772017 -4.371438053875634 0.3307911692905768
          0.5216559791019084 2.5053598995208537 0.4669592714114387 0.8404276439296955 2.678798932937268 1.0594008630963891
          3.0325421365262226 2.834840677691309 0.5349773000874152 -1.870542439159852 2.974560123449314 -0.0757008182302884
          1.4650468704554949 2.633836026542176 -0.7968768385598481 2.090457031627598 1.681688023766512 1.9086637366769788
          3.2698755030526074 2.796668904801181 2.58912670225165 3.482696205232532 2.66103328307438 3.378884186872723
          1.6257263533851194 0.8539217470505787 1.7451706388288373 1.493446373308199 3.537754073109415 2.8366433630061163
          3.611518925495315 1.7418130261959326 3.735518111019273 3.75518467560256 1.781163006164802 2.5555214202410195
          2.9276165061921273 3.384008313044977 3.4925915402764742 4.194852915740431 1.499920312952659 1.6630727798499214
          2.1867000185043874 4.196347069845487 2.7070855346303153 3.2648520721130385 3.855273181033551 3.9750191792978837
          -0.2596769930479118 -0.1329663958884184 -21.28897795182805 -13.75246595995156 -4.241011467922212 -0.37767847986108427
          -1.2941518278443889 -0.29170000483493896 -13.665105024034242 -0.7739221259189805
        </DataArray>
        <DataArray type="Float64" Name="BTraction" NumberOfComponents="3" format="ascii" RangeMin="0" RangeMax="4.88587970620281">
          -0.005261701605471972 -0.024019064843227883 0 0 0 0
          0 0 0 0.02187881732466466 0.2493249007894546 0
          0 0 0 0 0 0
          0 0 0 0 0 0
          0 0 0 0.01438245896859748 -0.32699760788280363 0
          0 0 0 0 0 0
          0 0 0 0 0 0
          0 0 0 0 0 0
          0 0 0 0 0 0
          0 0 0 0 0 0
          -3.988010061823679 -2.8226930846759717 0 0 0 0
          0 0 0 -2.852602643008807 -0.6804055697188737 0
          0 0 0 0 0 0
          0 0 0 -0.04958274230017062 -1.9439758272964869 0
          -3.5632992862127693 -0.351803081635185 0 0 0 0
          0 0 0 -0.005907944369314258 -0.8950158885404615 0
          -4.3313214448889195 0.028721614064549292 0 -3.1507342025956104 0.1532316428459975 0
          0 0 0 0 0 0
          0 0 0 -2.542361293098936 0.02352827022247986 0
          0 0 0 0 0 0
          -2.7051485812494382 -0.06804284069357759 0 0 0 0
          0 0 0 -1.3809558810426206 1.4374195252506117 0
          0 0 0 0 0 0
          0 0 0 0 0 0
          0 0 0 0 0 0
          0 0 0 0 0 0
          0 0 0 0 0 0
          0.0331276283942632 3.2518888382110047 0 0 0 0
          0 0 0 0 0 0
          0 0 0 0 0 0
          0 0 0 0 0 0
          -0.014784338854673462 -1.5754352436426113 0 0 0 0
          -0.03642818019664183 3.634557973750272 0 0 0 0
          0 0 0 0 0 0
          0 0 0 -0.17971590093671222 3.833363050052754 0
          0 0 0 0 0 0
          0 0 0 0 0 0
          0 0 0 -0.02849467253817224 3.974209533855329 0
          0.7715494228612132 -0.8047336810674541 0 1.7154878790682848 -0.00762047162653695 0
          2.183451391922722 -0.026935613292805676 0 -0.011891531069869413 4.054624673758069 0
          2.696362396519782 -0.05657909580831855 0 3.252435106015076 -0.09401937317104674 0
          3.777205683510144 -0.06731377151608688 0 2.2623624984333515 1.6762142889233185 0
          0 0 0 -0.004317917422613856 0.08559531982185603 0
          0 0 0 0 0 0
          0 0 0 0 0 0
          0 0 0 0 0 0
          0 0 0 -0.8918902077965583 -0.20894102432088046 0
          <InformationKey name="L2_NORM_RANGE" location="vtkDataArray" length="2">
            <Value index="0">
              0
            </Value>
            <Value index="1">
              4.8858797062
            </Value>
          </InformationKey>
        </DataArray>
        <DataArray type="Float64" Name="Sigma" NumberOfComponents="6" format="ascii" RangeMin="0.002884549482678613" RangeMax="1.0948376493432423">
          -0.014676476907038868 0.01660204943423745 0 -0.01538897767494566 0 0
          -0.0217995211742409 0.02168804278956113 0 0.0010594910203171625 0 0
          -0.04062586907456504 0.039174370169300296 0 -0.013510824613416206 0 0
          -0.03069206370070668 0.026165266342029484 0 0.032711068878165134 0 0
          -0.2992241224902726 0.3108173417776188 0 0.036301545467074335 0 0
          -0.03860407109259028 0.04356328581500186 0 -0.013040399014344315 0 0
          -0.0033690055043848043 -0.001752988363429268 0 -0.005124849319733962 0 0
          0.13636254393324151 -0.1448068555957164 0 0.0560927781231347 0 0
          -0.2962613535630084 0.307305751287521 0 -0.1837552378362446 0 0
          -0.01269948423430004 0.013173525664850572 0 0.015299548148261004 0 0
          -0.42060849045917437 0.40937088405747124 0 -0.4208133951330086 0 0
          -0.054799131228557924 0.053760216753698825 0 -0.09199298726175853 0 0
          -0.27157316069246085 0.2822110677653964 0 -0.1402284832545134 0 0
          0.7037456320873696 -0.6863993893722589 0 -0.4819413263113833 0 0
          0.1187734419034853 -0.12674924462080317 0 0.025385942204975892 0 0
          0.21634199163869533 -0.1932140711914796 0 -0.4967472087068238 0 0
          0.10453515654503241 -0.1031501574364669 0 0.3383988277001817 0 0
          0.08276689182107422 -0.08066253493915054 0 -0.04088599001442135 0 0
          -0.15303747182088723 0.17495844264318552 0 0.22077186072552762 0 0
          0.18374261944558698 -0.22096558668600336 0 -0.039247366802199216 0 0
          0.3293220344778975 -0.3603912505682799 0 0.5786159228636744 0 0
          0.13351163790002338 -0.14708954442422228 0 0.42998585811735024 0 0
          0.007834791737206706 -0.010079855732921309 0 0.006708713882473349 0 0
          -0.40111945871454024 0.39027107365789165 0 0.8400773561428396 0 0
          -0.48968270835772565 0.5330281504281109 0 0.8022073348045737 0 0
          0.2058127875359981 -0.2005733565898697 0 -0.3246197614636323 0 0
          0.2653887200140448 -0.23790119302724216 0 -0.4625215334532364 0 0
          -0.09651586620911423 0.020295924232027418 0 -0.5351413476325615 0 0
          -0.17750473970708577 0.1745062640863381 0 -0.4213187193169743 0 0
          0.011223892495307607 -0.021231615683692154 0 0.004738952351877181 0 0
          0.47214426579612423 -0.4881392142391092 0 0.3303294841957683 0 0
          0.010592064835570686 -0.008658733227684654 0 -0.006763505503626999 0 0
          -0.23754453591651814 0.2431085785954139 0 0.08577677420687943 0 0
          0.07128197045044468 -0.06676305178520889 0 0.20910224974886177 0 0
          0.06960253977255687 -0.0826920920836807 0 -0.06518791385406178 0 0
          -0.3865297292127827 0.43903321997150585 0 0.3217499523292908 0 0
          -0.04771521375362308 0.046037110828239365 0 -0.06508730728698037 0 0
          0.12264583167498593 -0.12863328935897636 0 -0.0013719946789470068 0 0
          0.15342531401345036 -0.1299985141916567 0 -0.023948929020054497 0 0
          0.06995236084336105 -0.0697784304414156 0 0.10286707505624869 0 0
          -0.04116192928819471 0.04205046258234642 0 -0.08307356641059863 0 0
          -0.20365482793137063 0.19200167364015017 0 0.04911935802331953 0 0
          -0.041910482804295296 0.04865107711806481 0 -0.0688104019292392 0 0
          -0.1621041262961928 0.171669546897597 0 -0.07816793440525556 0 0
          0.01028894366531828 -0.016494821593483918 0 0.13670978493101132 0 0
          0.21025601965482177 -0.20172479633982285 0 0.10689604202349443 0 0
          -0.012419629734846952 0.0034487098863571555 0 -0.18288924981615612 0 0
          0.19943536904572162 -0.2110906517939677 0 0.022196118388372984 0 0
          0.08393265346172459 -0.08281402120147976 0 -0.005552350451288526 0 0
          -0.07364289658711297 0.06928442667621752 0 -0.0493023025628824 0 0
          0.00025084463733577797 -0.0172341689794814 0 -0.12528953341497187 0 0
          0.021926593504350934 -0.0273961695575275 0 -0.04296655797887158 0 0
          0.09873412369083459 -0.07509840534572507 0 -0.02110596797255212 0 0
          -0.15516846111136814 0.1533968824898771 0 0.03164146592656209 0 0
          0.025833381637360302 -0.024212464544952367 0 -0.027249690810591674 0 0
          -0.09675583568747724 0.09175428524283967 0 0.010684495007355835 0 0
          0.005852280604317011 -0.014628910368851758 0 -0.16091935315521855 0 0
          -0.03571353833230415 0.035553288679858665 0 -0.018589302188253536 0 0
          -0.05664261776066161 0.06911938164481524 0 0.07345659220999846 0 0
          -0.03584960965666502 0.04196078300361755 0 -0.01183611605057881 0 0
          0.07367230705612732 -0.07055190062426761 0 -0.006362589642401691 0 0
          0.0395403541342033 -0.034334416354236105 0 0.07148787500764484 0 0
          0.03624034437188047 -0.03925349049141991 0 -0.022688655533403806 0 0
          -0.03690936327375362 0.03953415813894825 0 0.040393316384470565 0 0
          0.113042032886831 -0.12280587368610225 0 -0.012341563521304978 0 0
          -0.006057379466426105 0.0013324780651008394 0 -0.009520560452453515 0 0
          -0.1262905138056832 0.12782362223734414 0 0.04356615825173295 0 0
          0.016697722093866482 -0.016209933830387397 0 0.0295579865738476 0 0
          -0.08021179711400463 0.08168719561903644 0 -0.08986290488348642 0 0
          0.09036038622454022 -0.0895192361967325 0 0.280477492143702 0 0
          0.028436083516471672 -0.03103904238869315 0 0.05203596554696936 0 0
          0.05264686214307497 -0.05671433868392273 0 0.061279541867544356 0 0
          0.020735857565601503 -0.021693586054914143 0 0.05362866082378501 0 0
          -0.02154622566380688 0.026406889894194478 0 0.036086242228997256 0 0
          -0.06394032887364116 0.05964800002724779 0 0.046457337838694 0 0
          -0.2113979224952904 0.21895632599930917 0 -0.03222472558651088 0 0
          0.011584566770965756 -0.009779832446398639 0 0.008335052506525666 0 0
          -0.0005153150633717988 -0.00035274655687176845 0 0.0028161402610840753 0 0
          -0.011269135050376295 0.014573048518286972 0 0.027405924741058702 0 0
          -0.10500486900991066 0.10020136563699047 0 0.02023940297028076 0 0
          0.002386564799867809 0.0014995251890803766 0 0.05198155883490768 0 0
          0.010101476166579741 -0.013934309993310547 0 0.11157689791775306 0 0
          -0.012003557549039283 0.012330470228081793 0 0.06680051684104905 0 0
          0.0027019277253020613 0.007487290839252311 0 0.02094301388495391 0 0
          -0.020401344952171697 0.01973931273236476 0 0.0113376600991887 0 0
          -0.0072035931466711495 0.006703801333916062 0 -0.003168843269960404 0 0
          -0.05093620316986709 0.046952303227226294 0 -0.12932084339691693 0 0
          -0.20603816303292394 0.18056446116547958 0 -0.14347777044723298 0 0
          -0.35207526973899905 0.35578374050488126 0 0.1853546248760837 0 0
          0.05755434257011573 -0.06179037116403967 0 -0.08280320493361912 0 0
          0.08165075376591381 -0.09147290402142329 0 0.03774129923042829 0 0
          -0.03559144913807095 0.03695897465807831 0 0.02750017864426971 0 0
          -0.16809212427603193 0.1611307315210884 0 -0.46809719960990653 0 0
          -0.3073470796562215 0.33042293726026206 0 0.1628733372002969 0 0
          <InformationKey name="L2_NORM_RANGE" location="vtkDataArray" length="2">
            <Value index="0">
              0.0028845494827
            </Value>
            <Value index="1">
              1.0948376493
            </Value>
          </InformationKey>
        </DataArray>
        <DataArray type="Float64" Name="ALEdispl" NumberOfComponents="3" format="ascii" RangeMin="0" RangeMax="0">
          0 0 0 0 0 0
          0 0 0 0 0 0
          0 0 0 0 0 0
          0 0 0 0 0 0
          0 0 0 0 0 0
          0 0 0 0 0 0
          0 0 0 0 0 0
          0 0 0 0 0 0
          0 0 0 0 0 0
          0 0 0 0 0 0
          0 0 0 0 0 0
          0 0 0 0 0 0
          0 0 0 0 0 0
          0 0 0 0 0 0
          0 0 0 0 0 0
          0 0 0 0 0 0
          0 0 0 0 0 0
          0 0 0 0 0 0
          0 0 0 0 0 0
          0 0 0 0 0 0
          0 0 0 0 0 0
          0 0 0 0 0 0
          0 0 0 0 0 0
          0 0 0 0 0 0
          0 0 0 0 0 0
          0 0 0 0 0 0
          0 0 0 0 0 0
          0 0 0 0 0 0
          0 0 0 0 0 0
          0 0 0 0 0 0
          0 0 0 0 0 0
          0 0 0 0 0 0
          0 0 0 0 0 0
          0 0 0 0 0 0
          0 0 0 0 0 0
          0 0 0 0 0 0
          0 0 0 0 0 0
          0 0 0 0 0 0
          0 0 0 0 0 0
          0 0 0 0 0 0
          0 0 0 0 0 0
          0 0 0 0 0 0
          0 0 0 0 0 0
          0 0 0 0 0 0
          0 0 0 0 0 0
          0 0 0 0 0 0
          0 0 0 0 0 0
          <InformationKey name="L2_NORM_RANGE" location="vtkDataArray" length="2">
            <Value index="0">
              0
            </Value>
            <Value index="1">
              0
            </Value>
          </InformationKey>
        </DataArray>
        <DataArray type="Float64" Name="ALEveloc" NumberOfComponents="3" format="ascii" RangeMin="0" RangeMax="0">
          0 0 0 0 0 0
          0 0 0 0 0 0
          0 0 0 0 0 0
          0 0 0 0 0 0
          0 0 0 0 0 0
          0 0 0 0 0 0
          0 0 0 0 0 0
          0 0 0 0 0 0
          0 0 0 0 0 0
          0 0 0 0 0 0
          0 0 0 0 0 0
          0 0 0 0 0 0
          0 0 0 0 0 0
          0 0 0 0 0 0
          0 0 0 0 0 0
          0 0 0 0 0 0
          0 0 0 0 0 0
          0 0 0 0 0 0
          0 0 0 0 0 0
          0 0 0 0 0 0
          0 0 0 0 0 0
          0 0 0 0 0 0
          0 0 0 0 0 0
          0 0 0 0 0 0
          0 0 0 0 0 0
          0 0 0 0 0 0
          0 0 0 0 0 0
          0 0 0 0 0 0
          0 0 0 0 0 0
          0 0 0 0 0 0
          0 0 0 0 0 0
          0 0 0 0 0 0
          0 0 0 0 0 0
          0 0 0 0 0 0
          0 0 0 0 0 0
          0 0 0 0 0 0
          0 0 0 0 0 0
          0 0 0 0 0 0
          0 0 0 0 0 0
          0 0 0 0 0 0
          0 0 0 0 0 0
          0 0 0 0 0 0
          0 0 0 0 0 0
          0 0 0 0 0 0
          0 0 0 0 0 0
          0 0 0 0 0 0
          0 0 0 0 0 0
          <InformationKey name="L2_NORM_RANGE" location="vtkDataArray" length="2">
            <Value index="0">
              0
            </Value>
            <Value index="1">
              0
            </Value>
          </InformationKey>
        </DataArray>
      </PointData>
      <CellData>
        <DataArray type="UInt8" Name="vtkGhostType" format="ascii" RangeMin="0" RangeMax="1">
          0 0 0 0 0 0
          0 0 1 0 0 1
          0 1 0 0 1 1
          1 0 0 0 0 0
          1 1 0 1 1 0
          1 1 0 1 0 0
          0 0 0 0 0 0
          0 0 0 0 0 0
          0 0 0 0 0 0
          0 0 0 0 0 0
          0 0 0 0 0 0
          0 0 0 0 0 0
          0 0 0 0 0 0
          0 0 0 0 0 0
          0 1 0 0 0 0
          0 0 0 1 0 0
          0 0 0 0 0 1
          0 0 0 0 0 0
          0 0 0 0 0 0
          0 0 0 0 0 0
          0 0 0 0 0 0
          0 0 0 0 0 0
          0 1 0 0 0 0
          0 0 0 0 0 0
          0 0 0 0 0 0
        </DataArray>
        <DataArray type="Float64" Name="PStrain" NumberOfComponents="6" format="ascii" RangeMin="0.1732050807568877" RangeMax="0.1732050807568877">
          0.09999999999999999 0.09999999999999999 0 0.09999999999999999 0 0
          0.09999999999999999 0.09999999999999999 0 0.09999999999999999 0 0
          0.09999999999999999 0.09999999999999999 0 0.09999999999999999 0 0
          0.09999999999999999 0.09999999999999999 0 0.09999999999999999 0 0
          0.09999999999999999 0.09999999999999999 0 0.09999999999999999 0 0
          0.09999999999999999 0.09999999999999999 0 0.09999999999999999 0 0
          0.09999999999999999 0.09999999999999999 0 0.09999999999999999 0 0
          0.09999999999999999 0.09999999999999999 0 0.09999999999999999 0 0
          0.09999999999999999 0.09999999999999999 0 0.09999999999999999 0 0
          0.09999999999999999 0.09999999999999999 0 0.09999999999999999 0 0
          0.09999999999999999 0.09999999999999999 0 0.09999999999999999 0 0
          0.09999999999999999 0.09999999999999999 0 0.09999999999999999 0 0
          0.09999999999999999 0.09999999999999999 0 0.09999999999999999 0 0
          0.09999999999999999 0.09999999999999999 0 0.09999999999999999 0 0
          0.09999999999999999 0.09999999999999999 0 0.09999999999999999 0 0
          0.09999999999999999 0.09999999999999999 0 0.09999999999999999 0 0
          0.09999999999999999 0.09999999999999999 0 0.09999999999999999 0 0
          0.09999999999999999 0.09999999999999999 0 0.09999999999999999 0 0
          0.09999999999999999 0.09999999999999999 0 0.09999999999999999 0 0
          0.09999999999999999 0.09999999999999999 0 0.09999999999999999 0 0
          0.09999999999999999 0.09999999999999999 0 0.09999999999999999 0 0
          0.09999999999999999 0.09999999999999999 0 0.09999999999999999 0 0
          0.09999999999999999 0.09999999999999999 0 0.09999999999999999 0 0
          0.09999999999999999 0.09999999999999999 0 0.09999999999999999 0 0
          0.09999999999999999 0.09999999999999999 0 0.09999999999999999 0 0
          0.09999999999999999 0.09999999999999999 0 0.09999999999999999 0 0
          0.09999999999999999 0.09999999999999999 0 0.09999999999999999 0 0
          0.09999999999999999 0.09999999999999999 0 0.09999999999999999 0 0
          0.09999999999999999 0.09999999999999999 0 0.09999999999999999 0 0
          0.09999999999999999 0.09999999999999999 0 0.09999999999999999 0 0
          0.09999999999999999 0.09999999999999999 0 0.09999999999999999 0 0
          0.09999999999999999 0.09999999999999999 0 0.09999999999999999 0 0
          0.09999999999999999 0.09999999999999999 0 0.09999999999999999 0 0
          0.09999999999999999 0.09999999999999999 0 0.09999999999999999 0 0
          0.09999999999999999 0.09999999999999999 0 0.09999999999999999 0 0
          0.09999999999999999 0.09999999999999999 0 0.09999999999999999 0 0
          0.09999999999999999 0.09999999999999999 0 0.09999999999999999 0 0
          0.09999999999999999 0.09999999999999999 0 0.09999999999999999 0 0
          0.09999999999999999 0.09999999999999999 0 0.09999999999999999 0 0
          0.09999999999999999 0.09999999999999999 0 0.09999999999999999 0 0
          0.09999999999999999 0.09999999999999999 0 0.09999999999999999 0 0
          0.09999999999999999 0.09999999999999999 0 0.09999999999999999 0 0
          0.09999999999999999 0.09999999999999999 0 0.09999999999999999 0 0
          0.09999999999999999 0.09999999999999999 0 0.09999999999999999 0 0
          0.09999999999999999 0.09999999999999999 0 0.09999999999999999 0 0
          0.09999999999999999 0.09999999999999999 0 0.09999999999999999 0 0
          0.09999999999999999 0.09999999999999999 0 0.09999999999999999 0 0
          0.09999999999999999 0.09999999999999999 0 0.09999999999999999 0 0
          0.09999999999999999 0.09999999999999999 0 0.09999999999999999 0 0
          0.09999999999999999 0.09999999999999999 0 0.09999999999999999 0 0
          0.09999999999999999 0.09999999999999999 0 0.09999999999999999 0 0
          0.09999999999999999 0.09999999999999999 0 0.09999999999999999 0 0
          0.09999999999999999 0.09999999999999999 0 0.09999999999999999 0 0
          0.09999999999999999 0.09999999999999999 0 0.09999999999999999 0 0
          0.09999999999999999 0.09999999999999999 0 0.09999999999999999 0 0
          0.09999999999999999 0.09999999999999999 0 0.09999999999999999 0 0
          0.09999999999999999 0.09999999999999999 0 0.09999999999999999 0 0
          0.09999999999999999 0.09999999999999999 0 0.09999999999999999 0 0
          0.09999999999999999 0.09999999999999999 0 0.09999999999999999 0 0
          0.09999999999999999 0.09999999999999999 0 0.09999999999999999 0 0
          0.09999999999999999 0.09999999999999999 0 0.09999999999999999 0 0
          0.09999999999999999 0.09999999999999999 0 0.09999999999999999 0 0
          0.09999999999999999 0.09999999999999999 0 0.09999999999999999 0 0
          0.09999999999999999 0.09999999999999999 0 0.09999999999999999 0 0
          0.09999999999999999 0.09999999999999999 0 0.09999999999999999 0 0
          0.09999999999999999 0.09999999999999999 0 0.09999999999999999 0 0
          0.09999999999999999 0.09999999999999999 0 0.09999999999999999 0 0
          0.09999999999999999 0.09999999999999999 0 0.09999999999999999 0 0
          0.09999999999999999 0.09999999999999999 0 0.09999999999999999 0 0
          0.09999999999999999 0.09999999999999999 0 0.09999999999999999 0 0
          0.09999999999999999 0.09999999999999999 0 0.09999999999999999 0 0
          0.09999999999999999 0.09999999999999999 0 0.09999999999999999 0 0
          0.09999999999999999 0.09999999999999999 0 0.09999999999999999 0 0
          0.09999999999999999 0.09999999999999999 0 0.09999999999999999 0 0
          0.09999999999999999 0.09999999999999999 0 0.09999999999999999 0 0
          0.09999999999999999 0.09999999999999999 0 0.09999999999999999 0 0
          0.09999999999999999 0.09999999999999999 0 0.09999999999999999 0 0
          0.09999999999999999 0.09999999999999999 0 0.09999999999999999 0 0
          0.09999999999999999 0.09999999999999999 0 0.09999999999999999 0 0
          0.09999999999999999 0.09999999999999999 0 0.09999999999999999 0 0
          0.09999999999999999 0.09999999999999999 0 0.09999999999999999 0 0
          0.09999999999999999 0.09999999999999999 0 0.09999999999999999 0 0
          0.09999999999999999 0.09999999999999999 0 0.09999999999999999 0 0
          0.09999999999999999 0.09999999999999999 0 0.09999999999999999 0 0
          0.09999999999999999 0.09999999999999999 0 0.09999999999999999 0 0
          0.09999999999999999 0.09999999999999999 0 0.09999999999999999 0 0
          0.09999999999999999 0.09999999999999999 0 0.09999999999999999 0 0
          0.09999999999999999 0.09999999999999999 0 0.09999999999999999 0 0
          0.09999999999999999 0.09999999999999999 0 0.09999999999999999 0 0
          0.09999999999999999 0.09999999999999999 0 0.09999999999999999 0 0
          0.09999999999999999 0.09999999999999999 0 0.09999999999999999 0 0
          0.09999999999999999 0.09999999999999999 0 0.09999999999999999 0 0
          0.09999999999999999 0.09999999999999999 0 0.09999999999999999 0 0
          0.09999999999999999 0.09999999999999999 0 0.09999999999999999 0 0
          0.09999999999999999 0.09999999999999999 0 0.09999999999999999 0 0
          0.09999999999999999 0.09999999999999999 0 0.09999999999999999 0 0
          0.09999999999999999 0.09999999999999999 0 0.09999999999999999 0 0
          0.09999999999999999 0.09999999999999999 0 0.09999999999999999 0 0
          0.09999999999999999 0.09999999999999999 0 0.09999999999999999 0 0
          0.09999999999999999 0.09999999999999999 0 0.09999999999999999 0 0
          0.09999999999999999 0.09999999999999999 0 0.09999999999999999 0 0
          0.09999999999999999 0.09999999999999999 0 0.09999999999999999 0 0
          0.09999999999999999 0.09999999999999999 0 0.09999999999999999 0 0
          0.09999999999999999 0.09999999999999999 0 0.09999999999999999 0 0
          0.09999999999999999 0.09999999999999999 0 0.09999999999999999 0 0
          0.09999999999999999 0.09999999999999999 0 0.09999999999999999 0 0
          0.09999999999999999 0.09999999999999999 0 0.09999999999999999 0 0
          0.09999999999999999 0.09999999999999999 0 0.09999999999999999 0 0
          0.09999999999999999 0.09999999999999999 0 0.09999999999999999 0 0
          0.09999999999999999 0.09999999999999999 0 0.09999999999999999 0 0
          0.09999999999999999 0.09999999999999999 0 0.09999999999999999 0 0
          0.09999999999999999 0.09999999999999999 0 0.09999999999999999 0 0
          0.09999999999999999 0.09999999999999999 0 0.09999999999999999 0 0
          0.09999999999999999 0.09999999999999999 0 0.09999999999999999 0 0
          0.09999999999999999 0.09999999999999999 0 0.09999999999999999 0 0
          0.09999999999999999 0.09999999999999999 0 0.09999999999999999 0 0
          0.09999999999999999 0.09999999999999999 0 0.09999999999999999 0 0
          0.09999999999999999 0.09999999999999999 0 0.09999999999999999 0 0
          0.09999999999999999 0.09999999999999999 0 0.09999999999999999 0 0
          0.09999999999999999 0.09999999999999999 0 0.09999999999999999 0 0
          0.09999999999999999 0.09999999999999999 0 0.09999999999999999 0 0
          0.09999999999999999 0.09999999999999999 0 0.09999999999999999 0 0
          0.09999999999999999 0.09999999999999999 0 0.09999999999999999 0 0
          0.09999999999999999 0.09999999999999999 0 0.09999999999999999 0 0
          0.09999999999999999 0.09999999999999999 0 0.09999999999999999 0 0
          0.09999999999999999 0.09999999999999999 0 0.09999999999999999 0 0
          0.09999999999999999 0.09999999999999999 0 0.09999999999999999 0 0
          0.09999999999999999 0.09999999999999999 0 0.09999999999999999 0 0
          0.09999999999999999 0.09999999999999999 0 0.09999999999999999 0 0
          0.09999999999999999 0.09999999999999999 0 0.09999999999999999 0 0
          0.09999999999999999 0.09999999999999999 0 0.09999999999999999 0 0
          0.09999999999999999 0.09999999999999999 0 0.09999999999999999 0 0
          0.09999999999999999 0.09999999999999999 0 0.09999999999999999 0 0
          0.09999999999999999 0.09999999999999999 0 0.09999999999999999 0 0
          0.09999999999999999 0.09999999999999999 0 0.09999999999999999 0 0
          0.09999999999999999 0.09999999999999999 0 0.09999999999999999 0 0
          0.09999999999999999 0.09999999999999999 0 0.09999999999999999 0 0
          0.09999999999999999 0.09999999999999999 0 0.09999999999999999 0 0
          0.09999999999999999 0.09999999999999999 0 0.09999999999999999 0 0
          0.09999999999999999 0.09999999999999999 0 0.09999999999999999 0 0
          0.09999999999999999 0.09999999999999999 0 0.09999999999999999 0 0
          0.09999999999999999 0.09999999999999999 0 0.09999999999999999 0 0
          0.09999999999999999 0.09999999999999999 0 0.09999999999999999 0 0
          0.09999999999999999 0.09999999999999999 0 0.09999999999999999 0 0
          0.09999999999999999 0.09999999999999999 0 0.09999999999999999 0 0
          0.09999999999999999 0.09999999999999999 0 0.09999999999999999 0 0
          0.09999999999999999 0.09999999999999999 0 0.09999999999999999 0 0
          0.09999999999999999 0.09999999999999999 0 0.09999999999999999 0 0
          0.09999999999999999 0.09999999999999999 0 0.09999999999999999 0 0
          0.09999999999999999 0.09999999999999999 0 0.09999999999999999 0 0
          <InformationKey name="L2_NORM_RANGE" location="vtkDataArray" length="2">
            <Value index="0">
              0.17320508076
            </Value>
            <Value index="1">
              0.17320508076
            </Value>
          </InformationKey>
        </DataArray>
        <DataArray type="Float64" Name="Stress" NumberOfComponents="6" format="ascii" RangeMin="0" RangeMax="0">
          0 0 0 0 0 0
          0 0 0 0 0 0
          0 0 0 0 0 0
          0 0 0 0 0 0
          0 0 0 0 0 0
          0 0 0 0 0 0
          0 0 0 0 0 0
          0 0 0 0 0 0
          0 0 0 0 0 0
          0 0 0 0 0 0
          0 0 0 0 0 0
          0 0 0 0 0 0
          0 0 0 0 0 0
          0 0 0 0 0 0
          0 0 0 0 0 0
          0 0 0 0 0 0
          0 0 0 0 0 0
          0 0 0 0 0 0
          0 0 0 0 0 0
          0 0 0 0 0 0
          0 0 0 0 0 0
          0 0 0 0 0 0
          0 0 0 0 0 0
          0 0 0 0 0 0
          0 0 0 0 0 0
          0 0 0 0 0 0
          0 0 0 0 0 0
          0 0 0 0 0 0
          0 0 0 0 0 0
          0 0 0 0 0 0
          0 0 0 0 0 0
          0 0 0 0 0 0
          0 0 0 0 0 0
          0 0 0 0 0 0
          0 0 0 0 0 0
          0 0 0 0 0 0
          0 0 0 0 0 0
          0 0 0 0 0 0
          0 0 0 0 0 0
          0 0 0 0 0 0
          0 0 0 0 0 0
          0 0 0 0 0 0
          0 0 0 0 0 0
          0 0 0 0 0 0
          0 0 0 0 0 0
          0 0 0 0 0 0
          0 0 0 0 0 0
          0 0 0 0 0 0
          0 0 0 0 0 0
          0 0 0 0 0 0
          0 0 0 0 0 0
          0 0 0 0 0 0
          0 0 0 0 0 0
          0 0 0 0 0 0
          0 0 0 0 0 0
          0 0 0 0 0 0
          0 0 0 0 0 0
          0 0 0 0 0 0
          0 0 0 0 0 0
          0 0 0 0 0 0
          0 0 0 0 0 0
          0 0 0 0 0 0
          0 0 0 0 0 0
          0 0 0 0 0 0
          0 0 0 0 0 0
          0 0 0 0 0 0
          0 0 0 0 0 0
          0 0 0 0 0 0
          0 0 0 0 0 0
          0 0 0 0 0 0
          0 0 0 0 0 0
          0 0 0 0 0 0
          0 0 0 0 0 0
          0 0 0 0 0 0
          0 0 0 0 0 0
          0 0 0 0 0 0
          0 0 0 0 0 0
          0 0 0 0 0 0
          0 0 0 0 0 0
          0 0 0 0 0 0
          0 0 0 0 0 0
          0 0 0 0 0 0
          0 0 0 0 0 0
          0 0 0 0 0 0
          0 0 0 0 0 0
          0 0 0 0 0 0
          0 0 0 0 0 0
          0 0 0 0 0 0
          0 0 0 0 0 0
          0 0 0 0 0 0
          0 0 0 0 0 0
          0 0 0 0 0 0
          0 0 0 0 0 0
          0 0 0 0 0 0
          0 0 0 0 0 0
          0 0 0 0 0 0
          0 0 0 0 0 0
          0 0 0 0 0 0
          0 0 0 0 0 0
          0 0 0 0 0 0
          0 0 0 0 0 0
          0 0 0 0 0 0
          0 0 0 0 0 0
          0 0 0 0 0 0
          0 0 0 0 0 0
          0 0 0 0 0 0
          0 0 0 0 0 0
          0 0 0 0 0 0
          0 0 0 0 0 0
          0 0 0 0 0 0
          0 0 0 0 0 0
          0 0 0 0 0 0
          0 0 0 0 0 0
          0 0 0 0 0 0
          0 0 0 0 0 0
          0 0 0 0 0 0
          0 0 0 0 0 0
          0 0 0 0 0 0
          0 0 0 0 0 0
          0 0 0 0 0 0
          0 0 0 0 0 0
          0 0 0 0 0 0
          0 0 0 0 0 0
          0 0 0 0 0 0
          0 0 0 0 0 0
          0 0 0 0 0 0
          0 0 0 0 0 0
          0 0 0 0 0 0
          0 0 0 0 0 0
          0 0 0 0 0 0
          0 0 0 0 0 0
          0 0 0 0 0 0
          0 0 0 0 0 0
          0 0 0 0 0 0
          0 0 0 0 0 0
          0 0 0 0 0 0
          0 0 0 0 0 0
          0 0 0 0 0 0
          0 0 0 0 0 0
          0 0 0 0 0 0
          0 0 0 0 0 0
          0 0 0 0 0 0
          0 0 0 0 0 0
          0 0 0 0 0 0
          0 0 0 0 0 0
          0 0 0 0 0 0
          0 0 0 0 0 0
          0 0 0 0 0 0
          0 0 0 0 0 0
          0 0 0 0 0 0
          <InformationKey name="L2_NORM_RANGE" location="vtkDataArray" length="2">
            <Value index="0">
              0
            </Value>
            <Value index="1">
              0
            </Value>
          </InformationKey>
        </DataArray>
        <DataArray type="Float64" Name="Strain" NumberOfComponents="6" format="ascii" RangeMin="0" RangeMax="0">
          0 0 0 0 0 0
          0 0 0 0 0 0
          0 0 0 0 0 0
          0 0 0 0 0 0
          0 0 0 0 0 0
          0 0 0 0 0 0
          0 0 0 0 0 0
          0 0 0 0 0 0
          0 0 0 0 0 0
          0 0 0 0 0 0
          0 0 0 0 0 0
          0 0 0 0 0 0
          0 0 0 0 0 0
          0 0 0 0 0 0
          0 0 0 0 0 0
          0 0 0 0 0 0
          0 0 0 0 0 0
          0 0 0 0 0 0
          0 0 0 0 0 0
          0 0 0 0 0 0
          0 0 0 0 0 0
          0 0 0 0 0 0
          0 0 0 0 0 0
          0 0 0 0 0 0
          0 0 0 0 0 0
          0 0 0 0 0 0
          0 0 0 0 0 0
          0 0 0 0 0 0
          0 0 0 0 0 0
          0 0 0 0 0 0
          0 0 0 0 0 0
          0 0 0 0 0 0
          0 0 0 0 0 0
          0 0 0 0 0 0
          0 0 0 0 0 0
          0 0 0 0 0 0
          0 0 0 0 0 0
          0 0 0 0 0 0
          0 0 0 0 0 0
          0 0 0 0 0 0
          0 0 0 0 0 0
          0 0 0 0 0 0
          0 0 0 0 0 0
          0 0 0 0 0 0
          0 0 0 0 0 0
          0 0 0 0 0 0
          0 0 0 0 0 0
          0 0 0 0 0 0
          0 0 0 0 0 0
          0 0 0 0 0 0
          0 0 0 0 0 0
          0 0 0 0 0 0
          0 0 0 0 0 0
          0 0 0 0 0 0
          0 0 0 0 0 0
          0 0 0 0 0 0
          0 0 0 0 0 0
          0 0 0 0 0 0
          0 0 0 0 0 0
          0 0 0 0 0 0
          0 0 0 0 0 0
          0 0 0 0 0 0
          0 0 0 0 0 0
          0 0 0 0 0 0
          0 0 0 0 0 0
          0 0 0 0 0 0
          0 0 0 0 0 0
          0 0 0 0 0 0
          0 0 0 0 0 0
          0 0 0 0 0 0
          0 0 0 0 0 0
          0 0 0 0 0 0
          0 0 0 0 0 0
          0 0 0 0 0 0
          0 0 0 0 0 0
          0 0 0 0 0 0
          0 0 0 0 0 0
          0 0 0 0 0 0
          0 0 0 0 0 0
          0 0 0 0 0 0
          0 0 0 0 0 0
          0 0 0 0 0 0
          0 0 0 0 0 0
          0 0 0 0 0 0
          0 0 0 0 0 0
          0 0 0 0 0 0
          0 0 0 0 0 0
          0 0 0 0 0 0
          0 0 0 0 0 0
          0 0 0 0 0 0
          0 0 0 0 0 0
          0 0 0 0 0 0
          0 0 0 0 0 0
          0 0 0 0 0 0
          0 0 0 0 0 0
          0 0 0 0 0 0
          0 0 0 0 0 0
          0 0 0 0 0 0
          0 0 0 0 0 0
          0 0 0 0 0 0
          0 0 0 0 0 0
          0 0 0 0 0 0
          0 0 0 0 0 0
          0 0 0 0 0 0
          0 0 0 0 0 0
          0 0 0 0 0 0
          0 0 0 0 0 0
          0 0 0 0 0 0
          0 0 0 0 0 0
          0 0 0 0 0 0
          0 0 0 0 0 0
          0 0 0 0 0 0
          0 0 0 0 0 0
          0 0 0 0 0 0
          0 0 0 0 0 0
          0 0 0 0 0 0
          0 0 0 0 0 0
          0 0 0 0 0 0
          0 0 0 0 0 0
          0 0 0 0 0 0
          0 0 0 0 0 0
          0 0 0 0 0 0
          0 0 0 0 0 0
          0 0 0 0 0 0
          0 0 0 0 0 0
          0 0 0 0 0 0
          0 0 0 0 0 0
          0 0 0 0 0 0
          0 0 0 0 0 0
          0 0 0 0 0 0
          0 0 0 0 0 0
          0 0 0 0 0 0
          0 0 0 0 0 0
          0 0 0 0 0 0
          0 0 0 0 0 0
          0 0 0 0 0 0
          0 0 0 0 0 0
          0 0 0 0 0 0
          0 0 0 0 0 0
          0 0 0 0 0 0
          0 0 0 0 0 0
          0 0 0 0 0 0
          0 0 0 0 0 0
          0 0 0 0 0 0
          0 0 0 0 0 0
          0 0 0 0 0 0
          0 0 0 0 0 0
          0 0 0 0 0 0
          0 0 0 0 0 0
          0 0 0 0 0 0
          <InformationKey name="L2_NORM_RANGE" location="vtkDataArray" length="2">
            <Value index="0">
              0
            </Value>
            <Value index="1">
              0
            </Value>
          </InformationKey>
        </DataArray>
      </CellData>
      <Points>
        <DataArray type="Float32" Name="Points" NumberOfComponents="3" format="ascii" RangeMin="0" RangeMax="31.382903215220928">
          20.521530151367188 20 0 18.283540725708008 17.52022933959961 0
          17.25609016418457 15 0 16.766950607299805 20 0
          15.845529556274414 13.259160041809082 0 15.381019592285156 17.424640655517578 0
          14.208800315856934 15 0 14.336990356445312 13.107600212097168 0
          13.51276969909668 11.97500991821289 0 12.883429527282715 20 0
          13.102640151977539 13.196459770202637 0 12.788909912109375 16.992340087890625 0
          12.534299850463867 14.00767993927002 0 12.776570320129395 10.922260284423828 0
          12.229490280151367 11.916069984436035 0 11.793479919433594 13.17240047454834 0
          12.069279670715332 9.813958168029785 0 11.361470222473145 15 0
          11.58452033996582 10.91353988647461 0 11.037429809570312 11.90999984741211 0
          11 10 0 10.5 13.008990287780762 0
          10.109800338745117 17.53706932067871 0 11 8.496806144714355 0
          10.5 10.908289909362793 0 9.862959861755371 14.038040161132812 0
          9.96257495880127 11.90999984741211 0 10 10 0
          10 8.506440162658691 0 9.253846168518066 13.143170356750488 0
          9.415477752685547 10.91353988647461 0 8.828777313232422 20 0
          10 6.893710136413574 0 10 5.054046154022217 0
          8.770505905151367 11.916069984436035 0 8.9307222366333 9.815563201904297 0
          8.33652400970459 15 0 10 3.1532669067382812 0
          8.060935020446777 13.018710136413574 0 8.22342586517334 10.922260284423828 0
          10 1.503193974494934 0 8.326194763183594 8.723417282104492 0
          8.738482475280762 6.083861827850342 0 10 0 0
          7.487227916717529 11.97500991821289 0 7.619233131408691 9.827728271484375 0
          7.886951923370361 7.264598846435547 0 6.820486068725586 13.362019538879395 0
          6.463461875915527 17.636199951171875 0 8.019827842712402 4.493560791015625 0
          6.821275234222412 11.078909873962402 0 6.95460319519043 8.623793601989746 0
          6.350119113922119 12.17335033416748 0 7.078911781311035 5.963322162628174 0
          8.411846160888672 0 0 6.247642993927002 9.728070259094238 0
          5.688107967376709 13.005069732666016 0 7.599650859832764 1.4754129648208618 0
          6.223519802093506 7.299490928649902 0 6.884771823883057 2.9606289863586426 0
          5 15 0 5 11.847049713134766 0
          4.55386209487915 20 0 5 9.001420974731445 0
          6.787456035614014 0 0 5 6.318779945373535 0
          5 3.9981698989868164 0 3.073293924331665 16.91547966003418 0
          5 1.9230870008468628 0 5 0 0
          2.4224369525909424 13.400890350341797 0 2.6503889560699463 10.399840354919434 0
          2.5495519638061523 7.205644130706787 0 2.646925926208496 4.597036838531494 0
          2.96063494682312 2.148577928543091 0 3.3758440017700195 0 0
          0 20 0 0 15.455820083618164 0
          0 11.484399795532227 0 1.741044044494629 0 0
          0 7.942071914672852 0 0 4.97471809387207 0
          0 2.373173952102661 0 0 0 0
          21 15 0 24.184429168701172 20 0
          13.380769729614258 9.827728271484375 0 14.087759971618652 10.93202018737793 0
          14.910579681396484 12.065620422363281 0 16.441429138183594 12.177860260009766 0
          17.48702049255371 13.458939552307129 0 19.282169342041016 13.698100090026855 0
          12.673810005187988 8.723417282104492 0 11 6.846733093261719 0
          <InformationKey name="L2_NORM_RANGE" location="vtkDataArray" length="2">
            <Value index="0">
              0
            </Value>
            <Value index="1">
              31.382903215
            </Value>
          </InformationKey>
        </DataArray>
      </Points>
      <Cells>
        <DataArray type="Int64" Name="connectivity" format="ascii" RangeMin="0" RangeMax="93">
          17 6 11 11 6 5
          17 11 22 6 2 5
          5 2 1 11 5 9
          11 9 22 31 22 9
          1 2 84 5 1 3
          5 3 9 1 84 0
          3 1 0 0 84 85
          14 13 8 15 14 10
          13 86 87 8 13 87
          8 87 88 14 8 10
          10 8 7 15 10 12
          12 10 6 17 12 6
          7 8 88 7 88 4
          10 7 6 4 88 89
          4 89 90 7 4 6
          4 90 2 2 90 91
          4 2 6 2 91 84
          83 79 82 79 75 74
          75 69 68 74 75 68
          79 74 82 68 66 74
          66 65 73 73 65 72
          66 73 74 72 65 63
          73 72 81 72 63 71
          81 82 73 82 74 73
          71 63 61 72 71 80
          71 61 70 72 80 81
          36 17 22 36 22 48
          70 61 60 71 70 78
          71 78 80 70 60 67
          78 70 77 77 70 67
          77 67 76 48 22 31
          36 48 60 60 48 67
          48 31 62 48 62 67
          76 67 62 27 20 24
          24 20 18 27 24 30
          18 20 16 24 18 19
          30 24 26 27 30 35
          16 20 23 19 18 14
          26 24 19 26 19 21
          35 30 39 18 16 13
          30 26 34 27 35 28
          14 18 13 39 30 34
          39 34 44 13 16 86
          34 26 29 19 14 15
          35 39 45 21 19 15
          21 15 17 26 21 29
          29 21 25 86 16 92
          45 39 50 34 29 38
          35 45 41 44 34 38
          44 38 47 39 44 50
          50 44 52 92 16 23
          38 29 36 41 45 51
          45 50 55 35 41 28
          25 21 17 29 25 36
          51 45 55 51 55 63
          55 50 61 15 12 17
          41 51 46 47 38 36
          52 44 47 52 47 56
          50 52 61 61 52 56
          61 56 60 46 51 58
          41 46 32 63 55 61
          43 40 54 58 51 63
          46 58 53 56 47 60
          53 58 65 65 58 63
          46 53 42 32 28 41
          25 17 36 64 54 57
          40 37 57 23 93 92
          42 53 49 46 42 32
          32 42 33 33 42 49
          57 54 40 64 57 68
          49 53 66 69 64 68
          37 33 49 66 68 59
          53 65 66 59 68 57
          59 57 37 66 59 49
          49 59 37 47 36 60
        </DataArray>
        <DataArray type="Int64" Name="offsets" format="ascii" RangeMin="3" RangeMax="450">
          3 6 9 12 15 18
          21 24 27 30 33 36
          39 42 45 48 51 54
          57 60 63 66 69 72
          75 78 81 84 87 90
          93 96 99 102 105 108
          111 114 117 120 123 126
          129 132 135 138 141 144
          147 150 153 156 159 162
          165 168 171 174 177 180
          183 186 189 192 195 198
          201 204 207 210 213 216
          219 222 225 228 231 234
          237 240 243 246 249 252
          255 258 261 264 267 270
          273 276 279 282 285 288
          291 294 297 300 303 306
          309 312 315 318 321 324
          327 330 333 336 339 342
          345 348 351 354 357 360
          363 366 369 372 375 378
          381 384 387 390 393 396
          399 402 405 408 411 414
          417 420 423 426 429 432
          435 438 441 444 447 450
        </DataArray>
        <DataArray type="UInt8" Name="types" format="ascii" RangeMin="5" RangeMax="5">
          5 5 5 5 5 5
          5 5 5 5 5 5
          5 5 5 5 5 5
          5 5 5 5 5 5
          5 5 5 5 5 5
          5 5 5 5 5 5
          5 5 5 5 5 5
          5 5 5 5 5 5
          5 5 5 5 5 5
          5 5 5 5 5 5
          5 5 5 5 5 5
          5 5 5 5 5 5
          5 5 5 5 5 5
          5 5 5 5 5 5
          5 5 5 5 5 5
          5 5 5 5 5 5
          5 5 5 5 5 5
          5 5 5 5 5 5
          5 5 5 5 5 5
          5 5 5 5 5 5
          5 5 5 5 5 5
          5 5 5 5 5 5
          5 5 5 5 5 5
          5 5 5 5 5 5
          5 5 5 5 5 5
        </DataArray>
      </Cells>
    </Piece>
  </UnstructuredGrid>
</VTKFile>
