<?xml version="1.0"?>
<VTKFile type="UnstructuredGrid" version="0.1" byte_order="LittleEndian" header_type="UInt32" compressor="vtkZLibDataCompressor">
  <UnstructuredGrid>
    <Piece NumberOfPoints="94" NumberOfCells="150">
      <PointData>
        <DataArray type="Float64" Name="Velocity" NumberOfComponents="3" format="ascii" RangeMin="0" RangeMax="3.3785468243452983">
          1.1003921103401408 0 0 1.362805025187127 -0.1315942209743428 0
          1.6922097677350982 -0.3796177908135593 0 1.6734065495853574 0 0
          1.8713777391077882 -1.058816668364125 0 1.382104428513672 -0.3318909817443277 0
          2.1819746472577135 -0.200686819774146 0 2.717458858887636 -0.9693459264609573 0
          3.0736821903924287 0.1627926698369523 0 1.7221292111207755 0 0
          3.0457304800048117 0.189380385147089 0 1.896595636526998 -0.1121224513132632 0
          2.2876993086873556 0.17088268292077188 0 2.060412816802167 0.6905906004555391 0
          3.0812930566325964 0.4081901435777332 0 2.692728354738642 -0.06457321409480554 0
          0.5495747924878597 1.8382681591799672 0 1.9059730404447734 -0.30631292190412335 0
          1.6334994431902654 0.2335968152985019 0 3.020154136999971 -0.16980224549690426 0
          0 0 0 2.6896532318322195 0.5255501347996043 0
          1.8006969240898882 0.18592789735939055 0 0 0 0
          2.4495046886301166 1.3559152075447827 0 2.153577334370831 0.28652081836879784 0
          2.1855267449576536 1.0846657473474908 0 0 0 0
          0 0 0 2.0889417405712116 0.4608844476757825 0
          1.5166116763552226 2.1099531353411316 0 1.7731313683708485 0 0
          0 0 0 0 0 0
          2.1433947857313216 0.8504346279504071 0 1.1610542351463289 1.8020890157715956 0
          1.8687683996116884 0.46229644292807437 0 0 0 0
          1.717260986830482 1.0310973407499429 0 1.5145983392161053 0.9639404955384916 0
          0 0 0 0.7660394968339576 1.4685813803358612 0
          0.20662373172562748 -0.31960364177363965 0 0 0 0
          1.4614910846928089 1.2544247223464886 0 1.4674580586194956 1.3554997622000136 0
          0.8320779471962699 0.8850047826218932 0 1.6465634052173035 1.2063307048237857 0
          1.4454289500474349 0.26527080046283047 0 -0.24634587293054036 -0.0934630260001869 0
          1.417601950197529 1.5276417163464713 0 0.919165629343293 1.3516844105093788 0
          1.412011270897264 1.0533195107145712 0 0.7775199061268248 1.2755634605241197 0
          0.43115309110639777 0 0 1.0422614042148577 1.2713755505404802 0
          1.378551805414682 1.1467706175549708 0 0.025486489219070332 0.05900821927732972 0
          0.902508021767816 1.0109015845514966 0 -0.3876658944465678 0.15399967801743347 0
          1.210236610230886 0.7749511245916159 0 1.478632413774157 1.172394990757361 0
          1.1349068234912003 0 0 1.3395525050267385 1.2731314319699036 0
          0.41469899100843327 0 0 1.0520130073962966 0.9217492654773368 0
          0.5604074642713686 0.6825389453016094 0 1.0318286578590372 0.1822143550537106 0
          0.20492982963853534 0.06898145043635659 0 -0.4569545914478855 0 0
          1.0413945259879995 0.1689106349244251 0 1.0100382073557932 0.4642685084669696 0
          1.1010100166306953 0.8255341416369156 0 1.0174581777232659 0.8407073168829713 0
          0.7425667628771929 0.7644248910923241 0 0.46344042220499776 0 0
          1 0 0 0.9999999999999999 0 0
          1 0 0 0.8794867353928413 0 0
          1 0 0 1 0 0
          1 0 0 1 0 0
          1.2824904621327968 -0.24055631041545145 0 1.080390238409308 0 0
          1.3133371497088406 1.011506633429736 0 2.7447799127795984 -1.8283866033436853 0
          2.7502171299786253 -1.9623670355633864 0 1.312914161705731 -0.8832250075290227 0
          1.4862903897344384 -0.7703964711126857 0 1.3180117292568048 -0.612828346277556 0
          -0.8025083594275422 1.4229412349756752 0 0 0 0
          <InformationKey name="L2_NORM_RANGE" location="vtkDataArray" length="2">
            <Value index="0">
              0
            </Value>
            <Value index="1">
              3.3785468243
            </Value>
          </InformationKey>
        </DataArray>
        <DataArray type="Float64" Name="Pressure" format="ascii" RangeMin="-14.703166948317463" RangeMax="4.394538804294017">
          0.35918198153284164 -0.010342973766829633 -0.16391784999199605 -0.3141561980243788 -1.154937359466821 0.6006369631247999
          -0.1330376475317261 -1.3121565962956456 -5.098682685667753 0.7012453582346505 -2.9255547969779885 -0.4008504325015534
          -1.3210885432568749 -7.599769881852857 -4.857887436478726 -2.772245157627345 -7.9357019967143305 -0.38222697627228214
          -4.665985857900468 -3.9339125157984474 -6.688229690420656 -2.108241604971427 0.6374192683091231 -5.488749131075393
          -8.129199153044024 -0.5582586806367402 -1.0057215657779803 -1.6610489798498742 1.9875361951444304 -0.7445445515620688
          -2.8725715083419017 1.0210884033453038 2.9288812130283084 2.617270553790597 -1.5169409074600333 0.01069910631388915
          0.8944936967887214 2.5732780311427605 0.004325981725318728 0.04616484096453144 3.0571124693037977 1.4338544675091585
          2.593793040660567 3.482388230688527 0.2541575864195967 0.05566639554310593 2.243343220604586 0.7052615968936803
          1.5311192636943542 2.630621783749658 0.11938372231712302 1.4203856889197874 1.6184567588632737 2.2220632613143865
          3.4783877405600374 1.9383484608858756 1.482466914611749 3.4048365612577376 2.7986016204113504 3.301358766781604
          1.7394362807666075 1.2906400051906601 1.8344857968153216 1.7737548456554233 3.3467906849854625 2.709729970307597
          3.6417364283211566 1.8146914948766328 3.876819179681921 3.9776523029726887 1.8412493045291978 2.289034942781116
          2.747570658056545 3.4725845803396784 3.74647911581114 4.394538804294017 1.811339123925831 1.8304259486492132
          2.157510865036528 4.219170062111477 2.6431817849197072 3.26879023697554 3.791324161673967 4.124939737661215
          -0.058276647629823375 -0.08120857663011134 -14.703166948317463 -11.072942487193336 -3.787595347316798 0.013713585346971813
          -0.3165574675078602 -0.3254886719009896 -10.266064011949288 -2.54231836058009
        </DataArray>
        <DataArray type="Float64" Name="BTraction" NumberOfComponents="3" format="ascii" RangeMin="0" RangeMax="5.199903409933676">
          -0.005738914733555237 -0.1533838553642734 0 0 0 0
          0 0 0 0.02407448774411775 0.05271580816170622 0
          0 0 0 0 0 0
          0 0 0 0 0 0
          0 0 0 0.006942985697514648 -0.5807999072700685 0
          0 0 0 0 0 0
          0 0 0 0 0 0
          0 0 0 0 0 0
          0 0 0 0 0 0
          0 0 0 0 0 0
          -3.7903907807950823 -2.212343803127759 0 0 0 0
          0 0 0 -5.187805046509937 -0.35450567279790784 0
          0 0 0 0 0 0
          0 0 0 0.14119074664413456 -1.658907525828049 0
          -1.8388973622552316 -0.23339183045935338 0 0 0 0
          0 0 0 -0.0010305833503355928 -1.1295006627885833 0
          -2.877986725028741 -0.01762658298313201 0 -2.631213437647841 0.08806854092090567 0
          0 0 0 0 0 0
          0 0 0 -2.593131276309142 0.005409230236338798 0
          0 0 0 0 0 0
          -3.0722006486282325 -0.061547523661993626 0 0 0 0
          0 0 0 -1.6440750436550204 1.7131527936388042 0
          0 0 0 0 0 0
          0 0 0 0 0 0
          0 0 0 0 0 0
          0 0 0 0 0 0
          0 0 0 0 0 0
          0.022055919870816072 3.4587351925387115 0 0 0 0
          0 0 0 0 0 0
          0 0 0 0 0 0
          0 0 0 0 0 0
          -0.004706225445901099 -1.7291272767793808 0 0 0 0
          -0.0283498816911532 3.5501021195488356 0 0 0 0
          0 0 0 0 0 0
          0 0 0 -0.10407719009704072 3.9475552556211007 0
          0 0 0 0 0 0
          0 0 0 0 0 0
          0 0 0 -0.026272998634261826 4.156745896854133 0
          0.9055824779660606 -0.9214728270964475 0 1.876549460163874 -0.00998426058458105 0
          2.1837837601751002 -0.031045341897941888 0 -0.012831187735016082 4.154955153465859 0
          2.657528682817047 -0.04017977573892863 0 3.239231187181098 -0.04890121535857865 0
          3.7559884510243773 -0.034183623652511284 0 2.318534521366788 1.728646452385607 0
          0 0 0 -0.002705762904015506 0.01367901102664374 0
          0 0 0 0 0 0
          0 0 0 0 0 0
          0 0 0 0 0 0
          0 0 0 -2.6818528001459696 -0.2796191964778567 0
          <InformationKey name="L2_NORM_RANGE" location="vtkDataArray" length="2">
            <Value index="0">
              0
            </Value>
            <Value index="1">
              5.1999034099
            </Value>
          </InformationKey>
        </DataArray>
        <DataArray type="Float64" Name="Sigma" NumberOfComponents="6" format="ascii" RangeMin="0.006475292718078011" RangeMax="0.6943723971268866">
          -0.021017499978433437 0.021925664785307875 0 -0.01904327691426613 0 0
          -0.02612400749851241 0.027276214978377893 0 0.00548710881274061 0 0
          -0.05435867010741583 0.05155799922459683 0 -0.017259504155824182 0 0
          -0.025716607018371977 0.022223613166462684 0 0.04071562065497683 0 0
          -0.3080261958562368 0.30724457892030355 0 0.1136334833301429 0 0
          -0.04518661469026781 0.047547573201556385 0 -0.021480451221938705 0 0
          0.02368753248915568 -0.02311703724731403 0 -0.08075725469360659 0 0
          -0.1286924823173018 0.13289292712270723 0 -0.2764083685873071 0 0
          -0.07039141685654607 0.05806638086345925 0 -0.2387766858988057 0 0
          -0.014105066509912733 0.015165820336096272 0 0.0003011641248777761 0 0
          0.08671659841488213 -0.08606222469330832 0 -0.2287448142909561 0 0
          -0.039074920905251165 0.037734504893114924 0 -0.023303949251523792 0 0
          0.028435221122526333 -0.02747212398230886 0 -0.08469537308032138 0 0
          0.24613053075869618 -0.24324982259671796 0 0.01640476478441283 0 0
          0.031112946226352356 -0.03236981279757939 0 0.3691769691281248 0 0
          -0.011751351924243286 0.011642555310232283 0 -0.07273942043502707 0 0
          0.055047906949841255 -0.05236619989039176 0 0.4723969674077534 0 0
          -0.01157713357252791 0.012140243903514508 0 -0.06973472679662235 0 0
          0.06440173436594747 -0.03868486261935475 0 0.497046909797798 0 0
          0.08185678861950786 -0.08030390515456481 0 -0.2095236487720805 0 0
          -0.02859004523165648 0.005661259205288149 0 0.19926278302493194 0 0
          0.19012352745228245 -0.19788943083587657 0 -0.14103694077612444 0 0
          0.017301928275607052 -0.019094914430995126 0 -0.013094746134267804 0 0
          0.14563451680963457 -0.1326837142805247 0 0.39137000978934394 0 0
          0.03164424142832667 -0.044791051374967916 0 0.12776751044147766 0 0
          0.04157237704688521 -0.034988004143257326 0 -0.07140481483071981 0 0
          0.2651516123777188 -0.25484946687778287 0 -0.0930647259554071 0 0
          -0.3983714306973676 0.37758003244996097 0 -0.42530759244452426 0 0
          -0.26675487309702567 0.2820005966092472 0 -0.24650001375429936 0 0
          0.09163520632252922 -0.09640252373201058 0 -0.054005251037456695 0 0
          -0.022823333856505812 0.01917135562156974 0 0.3711231664882017 0 0
          0.028002058769996695 -0.025948673326751465 0 0.0006024071196298296 0 0
          -0.18222017268171364 0.18268722065616683 0 -0.005161845995067582 0 0
          0.06747126686230719 -0.06409711823169616 0 0.13623014391332366 0 0
          0.15488711597552218 -0.14824510355357218 0 0.027575998696069387 0 0
          -0.07718374131291139 0.09013800805862163 0 0.2671454867915906 0 0
          0.04441161936102221 -0.04397525695273578 0 -0.06756129754682248 0 0
          0.08610164449563362 -0.09116357381266027 0 -0.011248041937044161 0 0
          0.08718648320532107 -0.08898362884585043 0 -0.06400624352524195 0 0
          0.0939965990715902 -0.08888416024774813 0 -0.09810322172827286 0 0
          -0.04195084708819951 0.04325599860536704 0 -0.07359735253619495 0 0
          -0.1433113213340245 0.13705437584005245 0 -0.03523050986211744 0 0
          -0.08296570971694725 0.08436363815768118 0 -0.09187547257375929 0 0
          -0.11929990355837396 0.12735541994882704 0 -0.06620770805535882 0 0
          -0.03504658130927138 0.02261544590155981 0 0.08949706640643224 0 0
          0.10035157566865152 -0.1022290831437543 0 0.12133459793989362 0 0
          -0.057891095809945795 0.05253085954012792 0 -0.10241346814931748 0 0
          0.1480844177688602 -0.14463742275156544 0 0.016302645712811523 0 0
          0.07861579772949809 -0.07937632311035739 0 -0.0045547863011161085 0 0
          -0.04749251491552513 0.04608424235600823 0 -0.03295221407827474 0 0
          0.04594806050675289 -0.047574767267150785 0 0.015494112698611395 0 0
          -0.08673056233034387 0.08513449006182261 0 0.0013233928235630334 0 0
          0.06425121191581323 -0.05581387413734169 0 -0.0771153445981513 0 0
          -0.16965883950705085 0.1694639802662622 0 0.08280987879729423 0 0
          0.010856993936428916 -0.010514461410065233 0 -0.01828853023469067 0 0
          -0.05853456877367089 0.05913600007026387 0 -0.008394524004893746 0 0
          -0.04676947991721761 0.040448472662055854 0 0.0013734675015169284 0 0
          -0.03654192046070377 0.03693006728096762 0 -0.016899375494569303 0 0
          -0.02444155511354627 0.03027455102047666 0 0.05979544363881377 0 0
          -0.042377677694910215 0.04634142728337641 0 -0.011193339400568138 0 0
          0.05944592871110372 -0.05810911147968455 0 0.029172567716908425 0 0
          0.05134954464902872 -0.0511301741725856 0 0.10531347485870451 0 0
          0.03577218929348696 -0.03694561558154366 0 -0.008657397970386333 0 0
          -0.02020047053052715 0.020218522262192104 0 0.05120203540433253 0 0
          0.08661010177187178 -0.09401141400435532 0 0.006209477644583894 0 0
          -0.002538496780670822 0.001196346164337483 0 -0.02613731674700412 0 0
          -0.11779893251388714 0.11813699013457117 0 0.005188732094416344 0 0
          0.009048102442663398 -0.008362102415191775 0 0.024841781222756286 0 0
          -0.07117413488932958 0.07207649291877236 0 -0.0727608840976099 0 0
          0.044933109930451354 -0.045324231389224895 0 0.15525553302890044 0 0
          0.02528326740382337 -0.026351431272087163 0 0.018248550018865464 0 0
          0.046980382533930415 -0.04767891286103583 0 0.037408724422733255 0 0
          0.03276004240062167 -0.03340433694319902 0 0.0748284828247246 0 0
          -0.022571447451337392 0.025085105386429645 0 0.08152839815334834 0 0
          -0.07261137786759982 0.07053159428476634 0 0.05179283267966689 0 0
          -0.20007768901294604 0.20613064345659324 0 -0.0032198108951528026 0 0
          0.006990047591050394 -0.006314038948198175 0 0.005630954123997535 0 0
          0.002450889294588486 -0.0033133434931970174 0 0.004994428130082026 0 0
          -0.009960198798318049 0.01132258435809328 0 0.036364004517763206 0 0
          -0.059592474393361364 0.05576251713888127 0 0.015717444446121002 0 0
          -0.008713558828355741 0.010229982766288951 0 0.03768869584801075 0 0
          0.0015306904972956182 -0.0035370751539368977 0 0.05566461141787649 0 0
          0.0021660017843270754 -0.0021014005321629108 0 0.03273473462409884 0 0
          -0.027745227716935453 0.03417416628424716 0 0.01670993391220261 0 0
          -0.02240870162985073 0.022368597641552173 0 0.01074984032315176 0 0
          -0.008832335824878084 0.00807969734240043 0 0.0005272708836563393 0 0
          0.1567674964845736 -0.163084307266545 0 -0.11421243069004046 0 0
          0.00497018403712024 0.00008668253674844195 0 -0.36147794101598524 0 0
          -0.2763812003784357 0.2802341085994071 0 -0.07576732613703029 0 0
          -0.1365309103500848 0.13459339907949008 0 0.10148787649571978 0 0
          0.05397039301354434 -0.05204856363796219 0 -0.005819118347458147 0 0
          -0.052557985531111996 0.052161740061051134 0 0.036950996802141124 0 0
          -0.10524991679823423 0.08582807257865133 0 -0.10382219848828622 0 0
          -0.4021457951611307 0.4172492524564331 0 0.35503533774330664 0 0
          <InformationKey name="L2_NORM_RANGE" location="vtkDataArray" length="2">
            <Value index="0">
              0.0064752927181
            </Value>
            <Value index="1">
              0.69437239713
            </Value>
          </InformationKey>
        </DataArray>
        <DataArray type="Float64" Name="ALEdispl" NumberOfComponents="3" format="ascii" RangeMin="0" RangeMax="0">
          0 0 0 0 0 0
          0 0 0 0 0 0
          0 0 0 0 0 0
          0 0 0 0 0 0
          0 0 0 0 0 0
          0 0 0 0 0 0
          0 0 0 0 0 0
          0 0 0 0 0 0
          0 0 0 0 0 0
          0 0 0 0 0 0
          0 0 0 0 0 0
          0 0 0 0 0 0
          0 0 0 0 0 0
          0 0 0 0 0 0
          0 0 0 0 0 0
          0 0 0 0 0 0
          0 0 0 0 0 0
          0 0 0 0 0 0
          0 0 0 0 0 0
          0 0 0 0 0 0
          0 0 0 0 0 0
          0 0 0 0 0 0
          0 0 0 0 0 0
          0 0 0 0 0 0
          0 0 0 0 0 0
          0 0 0 0 0 0
          0 0 0 0 0 0
          0 0 0 0 0 0
          0 0 0 0 0 0
          0 0 0 0 0 0
          0 0 0 0 0 0
          0 0 0 0 0 0
          0 0 0 0 0 0
          0 0 0 0 0 0
          0 0 0 0 0 0
          0 0 0 0 0 0
          0 0 0 0 0 0
          0 0 0 0 0 0
          0 0 0 0 0 0
          0 0 0 0 0 0
          0 0 0 0 0 0
          0 0 0 0 0 0
          0 0 0 0 0 0
          0 0 0 0 0 0
          0 0 0 0 0 0
          0 0 0 0 0 0
          0 0 0 0 0 0
          <InformationKey name="L2_NORM_RANGE" location="vtkDataArray" length="2">
            <Value index="0">
              0
            </Value>
            <Value index="1">
              0
            </Value>
          </InformationKey>
        </DataArray>
        <DataArray type="Float64" Name="ALEveloc" NumberOfComponents="3" format="ascii" RangeMin="0" RangeMax="0">
          0 0 0 0 0 0
          0 0 0 0 0 0
          0 0 0 0 0 0
          0 0 0 0 0 0
          0 0 0 0 0 0
          0 0 0 0 0 0
          0 0 0 0 0 0
          0 0 0 0 0 0
          0 0 0 0 0 0
          0 0 0 0 0 0
          0 0 0 0 0 0
          0 0 0 0 0 0
          0 0 0 0 0 0
          0 0 0 0 0 0
          0 0 0 0 0 0
          0 0 0 0 0 0
          0 0 0 0 0 0
          0 0 0 0 0 0
          0 0 0 0 0 0
          0 0 0 0 0 0
          0 0 0 0 0 0
          0 0 0 0 0 0
          0 0 0 0 0 0
          0 0 0 0 0 0
          0 0 0 0 0 0
          0 0 0 0 0 0
          0 0 0 0 0 0
          0 0 0 0 0 0
          0 0 0 0 0 0
          0 0 0 0 0 0
          0 0 0 0 0 0
          0 0 0 0 0 0
          0 0 0 0 0 0
          0 0 0 0 0 0
          0 0 0 0 0 0
          0 0 0 0 0 0
          0 0 0 0 0 0
          0 0 0 0 0 0
          0 0 0 0 0 0
          0 0 0 0 0 0
          0 0 0 0 0 0
          0 0 0 0 0 0
          0 0 0 0 0 0
          0 0 0 0 0 0
          0 0 0 0 0 0
          0 0 0 0 0 0
          0 0 0 0 0 0
          <InformationKey name="L2_NORM_RANGE" location="vtkDataArray" length="2">
            <Value index="0">
              0
            </Value>
            <Value index="1">
              0
            </Value>
          </InformationKey>
        </DataArray>
      </PointData>
      <CellData>
        <DataArray type="UInt8" Name="vtkGhostType" format="ascii" RangeMin="0" RangeMax="1">
          0 0 0 0 0 0
          0 0 1 0 0 1
          0 1 0 0 1 1
          1 0 0 0 0 0
          1 1 0 1 1 0
          1 1 0 1 0 0
          0 0 0 0 0 0
          0 0 0 0 0 0
          0 0 0 0 0 0
          0 0 0 0 0 0
          0 0 0 0 0 0
          0 0 0 0 0 0
          0 0 0 0 0 0
          0 0 0 0 0 0
          0 1 0 0 0 0
          0 0 0 1 0 0
          0 0 0 0 0 1
          0 0 0 0 0 0
          0 0 0 0 0 0
          0 0 0 0 0 0
          0 0 0 0 0 0
          0 0 0 0 0 0
          0 1 0 0 0 0
          0 0 0 0 0 0
          0 0 0 0 0 0
        </DataArray>
        <DataArray type="Float64" Name="PStrain" NumberOfComponents="6" format="ascii" RangeMin="0.1732050807568877" RangeMax="0.1732050807568877">
          0.09999999999999999 0.09999999999999999 0 0.09999999999999999 0 0
          0.09999999999999999 0.09999999999999999 0 0.09999999999999999 0 0
          0.09999999999999999 0.09999999999999999 0 0.09999999999999999 0 0
          0.09999999999999999 0.09999999999999999 0 0.09999999999999999 0 0
          0.09999999999999999 0.09999999999999999 0 0.09999999999999999 0 0
          0.09999999999999999 0.09999999999999999 0 0.09999999999999999 0 0
          0.09999999999999999 0.09999999999999999 0 0.09999999999999999 0 0
          0.09999999999999999 0.09999999999999999 0 0.09999999999999999 0 0
          0.09999999999999999 0.09999999999999999 0 0.09999999999999999 0 0
          0.09999999999999999 0.09999999999999999 0 0.09999999999999999 0 0
          0.09999999999999999 0.09999999999999999 0 0.09999999999999999 0 0
          0.09999999999999999 0.09999999999999999 0 0.09999999999999999 0 0
          0.09999999999999999 0.09999999999999999 0 0.09999999999999999 0 0
          0.09999999999999999 0.09999999999999999 0 0.09999999999999999 0 0
          0.09999999999999999 0.09999999999999999 0 0.09999999999999999 0 0
          0.09999999999999999 0.09999999999999999 0 0.09999999999999999 0 0
          0.09999999999999999 0.09999999999999999 0 0.09999999999999999 0 0
          0.09999999999999999 0.09999999999999999 0 0.09999999999999999 0 0
          0.09999999999999999 0.09999999999999999 0 0.09999999999999999 0 0
          0.09999999999999999 0.09999999999999999 0 0.09999999999999999 0 0
          0.09999999999999999 0.09999999999999999 0 0.09999999999999999 0 0
          0.09999999999999999 0.09999999999999999 0 0.09999999999999999 0 0
          0.09999999999999999 0.09999999999999999 0 0.09999999999999999 0 0
          0.09999999999999999 0.09999999999999999 0 0.09999999999999999 0 0
          0.09999999999999999 0.09999999999999999 0 0.09999999999999999 0 0
          0.09999999999999999 0.09999999999999999 0 0.09999999999999999 0 0
          0.09999999999999999 0.09999999999999999 0 0.09999999999999999 0 0
          0.09999999999999999 0.09999999999999999 0 0.09999999999999999 0 0
          0.09999999999999999 0.09999999999999999 0 0.09999999999999999 0 0
          0.09999999999999999 0.09999999999999999 0 0.09999999999999999 0 0
          0.09999999999999999 0.09999999999999999 0 0.09999999999999999 0 0
          0.09999999999999999 0.09999999999999999 0 0.09999999999999999 0 0
          0.09999999999999999 0.09999999999999999 0 0.09999999999999999 0 0
          0.09999999999999999 0.09999999999999999 0 0.09999999999999999 0 0
          0.09999999999999999 0.09999999999999999 0 0.09999999999999999 0 0
          0.09999999999999999 0.09999999999999999 0 0.09999999999999999 0 0
          0.09999999999999999 0.09999999999999999 0 0.09999999999999999 0 0
          0.09999999999999999 0.09999999999999999 0 0.09999999999999999 0 0
          0.09999999999999999 0.09999999999999999 0 0.09999999999999999 0 0
          0.09999999999999999 0.09999999999999999 0 0.09999999999999999 0 0
          0.09999999999999999 0.09999999999999999 0 0.09999999999999999 0 0
          0.09999999999999999 0.09999999999999999 0 0.09999999999999999 0 0
          0.09999999999999999 0.09999999999999999 0 0.09999999999999999 0 0
          0.09999999999999999 0.09999999999999999 0 0.09999999999999999 0 0
          0.09999999999999999 0.09999999999999999 0 0.09999999999999999 0 0
          0.09999999999999999 0.09999999999999999 0 0.09999999999999999 0 0
          0.09999999999999999 0.09999999999999999 0 0.09999999999999999 0 0
          0.09999999999999999 0.09999999999999999 0 0.09999999999999999 0 0
          0.09999999999999999 0.09999999999999999 0 0.09999999999999999 0 0
          0.09999999999999999 0.09999999999999999 0 0.09999999999999999 0 0
          0.09999999999999999 0.09999999999999999 0 0.09999999999999999 0 0
          0.09999999999999999 0.09999999999999999 0 0.09999999999999999 0 0
          0.09999999999999999 0.09999999999999999 0 0.09999999999999999 0 0
          0.09999999999999999 0.09999999999999999 0 0.09999999999999999 0 0
          0.09999999999999999 0.09999999999999999 0 0.09999999999999999 0 0
          0.09999999999999999 0.09999999999999999 0 0.09999999999999999 0 0
          0.09999999999999999 0.09999999999999999 0 0.09999999999999999 0 0
          0.09999999999999999 0.09999999999999999 0 0.09999999999999999 0 0
          0.09999999999999999 0.09999999999999999 0 0.09999999999999999 0 0
          0.09999999999999999 0.09999999999999999 0 0.09999999999999999 0 0
          0.09999999999999999 0.09999999999999999 0 0.09999999999999999 0 0
          0.09999999999999999 0.09999999999999999 0 0.09999999999999999 0 0
          0.09999999999999999 0.09999999999999999 0 0.09999999999999999 0 0
          0.09999999999999999 0.09999999999999999 0 0.09999999999999999 0 0
          0.09999999999999999 0.09999999999999999 0 0.09999999999999999 0 0
          0.09999999999999999 0.09999999999999999 0 0.09999999999999999 0 0
          0.09999999999999999 0.09999999999999999 0 0.09999999999999999 0 0
          0.09999999999999999 0.09999999999999999 0 0.09999999999999999 0 0
          0.09999999999999999 0.09999999999999999 0 0.09999999999999999 0 0
          0.09999999999999999 0.09999999999999999 0 0.09999999999999999 0 0
          0.09999999999999999 0.09999999999999999 0 0.09999999999999999 0 0
          0.09999999999999999 0.09999999999999999 0 0.09999999999999999 0 0
          0.09999999999999999 0.09999999999999999 0 0.09999999999999999 0 0
          0.09999999999999999 0.09999999999999999 0 0.09999999999999999 0 0
          0.09999999999999999 0.09999999999999999 0 0.09999999999999999 0 0
          0.09999999999999999 0.09999999999999999 0 0.09999999999999999 0 0
          0.09999999999999999 0.09999999999999999 0 0.09999999999999999 0 0
          0.09999999999999999 0.09999999999999999 0 0.09999999999999999 0 0
          0.09999999999999999 0.09999999999999999 0 0.09999999999999999 0 0
          0.09999999999999999 0.09999999999999999 0 0.09999999999999999 0 0
          0.09999999999999999 0.09999999999999999 0 0.09999999999999999 0 0
          0.09999999999999999 0.09999999999999999 0 0.09999999999999999 0 0
          0.09999999999999999 0.09999999999999999 0 0.09999999999999999 0 0
          0.09999999999999999 0.09999999999999999 0 0.09999999999999999 0 0
          0.09999999999999999 0.09999999999999999 0 0.09999999999999999 0 0
          0.09999999999999999 0.09999999999999999 0 0.09999999999999999 0 0
          0.09999999999999999 0.09999999999999999 0 0.09999999999999999 0 0
          0.09999999999999999 0.09999999999999999 0 0.09999999999999999 0 0
          0.09999999999999999 0.09999999999999999 0 0.09999999999999999 0 0
          0.09999999999999999 0.09999999999999999 0 0.09999999999999999 0 0
          0.09999999999999999 0.09999999999999999 0 0.09999999999999999 0 0
          0.09999999999999999 0.09999999999999999 0 0.09999999999999999 0 0
          0.09999999999999999 0.09999999999999999 0 0.09999999999999999 0 0
          0.09999999999999999 0.09999999999999999 0 0.09999999999999999 0 0
          0.09999999999999999 0.09999999999999999 0 0.09999999999999999 0 0
          0.09999999999999999 0.09999999999999999 0 0.09999999999999999 0 0
          0.09999999999999999 0.09999999999999999 0 0.09999999999999999 0 0
          0.09999999999999999 0.09999999999999999 0 0.09999999999999999 0 0
          0.09999999999999999 0.09999999999999999 0 0.09999999999999999 0 0
          0.09999999999999999 0.09999999999999999 0 0.09999999999999999 0 0
          0.09999999999999999 0.09999999999999999 0 0.09999999999999999 0 0
          0.09999999999999999 0.09999999999999999 0 0.09999999999999999 0 0
          0.09999999999999999 0.09999999999999999 0 0.09999999999999999 0 0
          0.09999999999999999 0.09999999999999999 0 0.09999999999999999 0 0
          0.09999999999999999 0.09999999999999999 0 0.09999999999999999 0 0
          0.09999999999999999 0.09999999999999999 0 0.09999999999999999 0 0
          0.09999999999999999 0.09999999999999999 0 0.09999999999999999 0 0
          0.09999999999999999 0.09999999999999999 0 0.09999999999999999 0 0
          0.09999999999999999 0.09999999999999999 0 0.09999999999999999 0 0
          0.09999999999999999 0.09999999999999999 0 0.09999999999999999 0 0
          0.09999999999999999 0.09999999999999999 0 0.09999999999999999 0 0
          0.09999999999999999 0.09999999999999999 0 0.09999999999999999 0 0
          0.09999999999999999 0.09999999999999999 0 0.09999999999999999 0 0
          0.09999999999999999 0.09999999999999999 0 0.09999999999999999 0 0
          0.09999999999999999 0.09999999999999999 0 0.09999999999999999 0 0
          0.09999999999999999 0.09999999999999999 0 0.09999999999999999 0 0
          0.09999999999999999 0.09999999999999999 0 0.09999999999999999 0 0
          0.09999999999999999 0.09999999999999999 0 0.09999999999999999 0 0
          0.09999999999999999 0.09999999999999999 0 0.09999999999999999 0 0
          0.09999999999999999 0.09999999999999999 0 0.09999999999999999 0 0
          0.09999999999999999 0.09999999999999999 0 0.09999999999999999 0 0
          0.09999999999999999 0.09999999999999999 0 0.09999999999999999 0 0
          0.09999999999999999 0.09999999999999999 0 0.09999999999999999 0 0
          0.09999999999999999 0.09999999999999999 0 0.09999999999999999 0 0
          0.09999999999999999 0.09999999999999999 0 0.09999999999999999 0 0
          0.09999999999999999 0.09999999999999999 0 0.09999999999999999 0 0
          0.09999999999999999 0.09999999999999999 0 0.09999999999999999 0 0
          0.09999999999999999 0.09999999999999999 0 0.09999999999999999 0 0
          0.09999999999999999 0.09999999999999999 0 0.09999999999999999 0 0
          0.09999999999999999 0.09999999999999999 0 0.09999999999999999 0 0
          0.09999999999999999 0.09999999999999999 0 0.09999999999999999 0 0
          0.09999999999999999 0.09999999999999999 0 0.09999999999999999 0 0
          0.09999999999999999 0.09999999999999999 0 0.09999999999999999 0 0
          0.09999999999999999 0.09999999999999999 0 0.09999999999999999 0 0
          0.09999999999999999 0.09999999999999999 0 0.09999999999999999 0 0
          0.09999999999999999 0.09999999999999999 0 0.09999999999999999 0 0
          0.09999999999999999 0.09999999999999999 0 0.09999999999999999 0 0
          0.09999999999999999 0.09999999999999999 0 0.09999999999999999 0 0
          0.09999999999999999 0.09999999999999999 0 0.09999999999999999 0 0
          0.09999999999999999 0.09999999999999999 0 0.09999999999999999 0 0
          0.09999999999999999 0.09999999999999999 0 0.09999999999999999 0 0
          0.09999999999999999 0.09999999999999999 0 0.09999999999999999 0 0
          0.09999999999999999 0.09999999999999999 0 0.09999999999999999 0 0
          0.09999999999999999 0.09999999999999999 0 0.09999999999999999 0 0
          0.09999999999999999 0.09999999999999999 0 0.09999999999999999 0 0
          0.09999999999999999 0.09999999999999999 0 0.09999999999999999 0 0
          0.09999999999999999 0.09999999999999999 0 0.09999999999999999 0 0
          0.09999999999999999 0.09999999999999999 0 0.09999999999999999 0 0
          0.09999999999999999 0.09999999999999999 0 0.09999999999999999 0 0
          0.09999999999999999 0.09999999999999999 0 0.09999999999999999 0 0
          <InformationKey name="L2_NORM_RANGE" location="vtkDataArray" length="2">
            <Value index="0">
              0.17320508076
            </Value>
            <Value index="1">
              0.17320508076
            </Value>
          </InformationKey>
        </DataArray>
        <DataArray type="Float64" Name="Stress" NumberOfComponents="6" format="ascii" RangeMin="0" RangeMax="0">
          0 0 0 0 0 0
          0 0 0 0 0 0
          0 0 0 0 0 0
          0 0 0 0 0 0
          0 0 0 0 0 0
          0 0 0 0 0 0
          0 0 0 0 0 0
          0 0 0 0 0 0
          0 0 0 0 0 0
          0 0 0 0 0 0
          0 0 0 0 0 0
          0 0 0 0 0 0
          0 0 0 0 0 0
          0 0 0 0 0 0
          0 0 0 0 0 0
          0 0 0 0 0 0
          0 0 0 0 0 0
          0 0 0 0 0 0
          0 0 0 0 0 0
          0 0 0 0 0 0
          0 0 0 0 0 0
          0 0 0 0 0 0
          0 0 0 0 0 0
          0 0 0 0 0 0
          0 0 0 0 0 0
          0 0 0 0 0 0
          0 0 0 0 0 0
          0 0 0 0 0 0
          0 0 0 0 0 0
          0 0 0 0 0 0
          0 0 0 0 0 0
          0 0 0 0 0 0
          0 0 0 0 0 0
          0 0 0 0 0 0
          0 0 0 0 0 0
          0 0 0 0 0 0
          0 0 0 0 0 0
          0 0 0 0 0 0
          0 0 0 0 0 0
          0 0 0 0 0 0
          0 0 0 0 0 0
          0 0 0 0 0 0
          0 0 0 0 0 0
          0 0 0 0 0 0
          0 0 0 0 0 0
          0 0 0 0 0 0
          0 0 0 0 0 0
          0 0 0 0 0 0
          0 0 0 0 0 0
          0 0 0 0 0 0
          0 0 0 0 0 0
          0 0 0 0 0 0
          0 0 0 0 0 0
          0 0 0 0 0 0
          0 0 0 0 0 0
          0 0 0 0 0 0
          0 0 0 0 0 0
          0 0 0 0 0 0
          0 0 0 0 0 0
          0 0 0 0 0 0
          0 0 0 0 0 0
          0 0 0 0 0 0
          0 0 0 0 0 0
          0 0 0 0 0 0
          0 0 0 0 0 0
          0 0 0 0 0 0
          0 0 0 0 0 0
          0 0 0 0 0 0
          0 0 0 0 0 0
          0 0 0 0 0 0
          0 0 0 0 0 0
          0 0 0 0 0 0
          0 0 0 0 0 0
          0 0 0 0 0 0
          0 0 0 0 0 0
          0 0 0 0 0 0
          0 0 0 0 0 0
          0 0 0 0 0 0
          0 0 0 0 0 0
          0 0 0 0 0 0
          0 0 0 0 0 0
          0 0 0 0 0 0
          0 0 0 0 0 0
          0 0 0 0 0 0
          0 0 0 0 0 0
          0 0 0 0 0 0
          0 0 0 0 0 0
          0 0 0 0 0 0
          0 0 0 0 0 0
          0 0 0 0 0 0
          0 0 0 0 0 0
          0 0 0 0 0 0
          0 0 0 0 0 0
          0 0 0 0 0 0
          0 0 0 0 0 0
          0 0 0 0 0 0
          0 0 0 0 0 0
          0 0 0 0 0 0
          0 0 0 0 0 0
          0 0 0 0 0 0
          0 0 0 0 0 0
          0 0 0 0 0 0
          0 0 0 0 0 0
          0 0 0 0 0 0
          0 0 0 0 0 0
          0 0 0 0 0 0
          0 0 0 0 0 0
          0 0 0 0 0 0
          0 0 0 0 0 0
          0 0 0 0 0 0
          0 0 0 0 0 0
          0 0 0 0 0 0
          0 0 0 0 0 0
          0 0 0 0 0 0
          0 0 0 0 0 0
          0 0 0 0 0 0
          0 0 0 0 0 0
          0 0 0 0 0 0
          0 0 0 0 0 0
          0 0 0 0 0 0
          0 0 0 0 0 0
          0 0 0 0 0 0
          0 0 0 0 0 0
          0 0 0 0 0 0
          0 0 0 0 0 0
          0 0 0 0 0 0
          0 0 0 0 0 0
          0 0 0 0 0 0
          0 0 0 0 0 0
          0 0 0 0 0 0
          0 0 0 0 0 0
          0 0 0 0 0 0
          0 0 0 0 0 0
          0 0 0 0 0 0
          0 0 0 0 0 0
          0 0 0 0 0 0
          0 0 0 0 0 0
          0 0 0 0 0 0
          0 0 0 0 0 0
          0 0 0 0 0 0
          0 0 0 0 0 0
          0 0 0 0 0 0
          0 0 0 0 0 0
          0 0 0 0 0 0
          0 0 0 0 0 0
          0 0 0 0 0 0
          0 0 0 0 0 0
          0 0 0 0 0 0
          0 0 0 0 0 0
          0 0 0 0 0 0
          <InformationKey name="L2_NORM_RANGE" location="vtkDataArray" length="2">
            <Value index="0">
              0
            </Value>
            <Value index="1">
              0
            </Value>
          </InformationKey>
        </DataArray>
        <DataArray type="Float64" Name="Strain" NumberOfComponents="6" format="ascii" RangeMin="0" RangeMax="0">
          0 0 0 0 0 0
          0 0 0 0 0 0
          0 0 0 0 0 0
          0 0 0 0 0 0
          0 0 0 0 0 0
          0 0 0 0 0 0
          0 0 0 0 0 0
          0 0 0 0 0 0
          0 0 0 0 0 0
          0 0 0 0 0 0
          0 0 0 0 0 0
          0 0 0 0 0 0
          0 0 0 0 0 0
          0 0 0 0 0 0
          0 0 0 0 0 0
          0 0 0 0 0 0
          0 0 0 0 0 0
          0 0 0 0 0 0
          0 0 0 0 0 0
          0 0 0 0 0 0
          0 0 0 0 0 0
          0 0 0 0 0 0
          0 0 0 0 0 0
          0 0 0 0 0 0
          0 0 0 0 0 0
          0 0 0 0 0 0
          0 0 0 0 0 0
          0 0 0 0 0 0
          0 0 0 0 0 0
          0 0 0 0 0 0
          0 0 0 0 0 0
          0 0 0 0 0 0
          0 0 0 0 0 0
          0 0 0 0 0 0
          0 0 0 0 0 0
          0 0 0 0 0 0
          0 0 0 0 0 0
          0 0 0 0 0 0
          0 0 0 0 0 0
          0 0 0 0 0 0
          0 0 0 0 0 0
          0 0 0 0 0 0
          0 0 0 0 0 0
          0 0 0 0 0 0
          0 0 0 0 0 0
          0 0 0 0 0 0
          0 0 0 0 0 0
          0 0 0 0 0 0
          0 0 0 0 0 0
          0 0 0 0 0 0
          0 0 0 0 0 0
          0 0 0 0 0 0
          0 0 0 0 0 0
          0 0 0 0 0 0
          0 0 0 0 0 0
          0 0 0 0 0 0
          0 0 0 0 0 0
          0 0 0 0 0 0
          0 0 0 0 0 0
          0 0 0 0 0 0
          0 0 0 0 0 0
          0 0 0 0 0 0
          0 0 0 0 0 0
          0 0 0 0 0 0
          0 0 0 0 0 0
          0 0 0 0 0 0
          0 0 0 0 0 0
          0 0 0 0 0 0
          0 0 0 0 0 0
          0 0 0 0 0 0
          0 0 0 0 0 0
          0 0 0 0 0 0
          0 0 0 0 0 0
          0 0 0 0 0 0
          0 0 0 0 0 0
          0 0 0 0 0 0
          0 0 0 0 0 0
          0 0 0 0 0 0
          0 0 0 0 0 0
          0 0 0 0 0 0
          0 0 0 0 0 0
          0 0 0 0 0 0
          0 0 0 0 0 0
          0 0 0 0 0 0
          0 0 0 0 0 0
          0 0 0 0 0 0
          0 0 0 0 0 0
          0 0 0 0 0 0
          0 0 0 0 0 0
          0 0 0 0 0 0
          0 0 0 0 0 0
          0 0 0 0 0 0
          0 0 0 0 0 0
          0 0 0 0 0 0
          0 0 0 0 0 0
          0 0 0 0 0 0
          0 0 0 0 0 0
          0 0 0 0 0 0
          0 0 0 0 0 0
          0 0 0 0 0 0
          0 0 0 0 0 0
          0 0 0 0 0 0
          0 0 0 0 0 0
          0 0 0 0 0 0
          0 0 0 0 0 0
          0 0 0 0 0 0
          0 0 0 0 0 0
          0 0 0 0 0 0
          0 0 0 0 0 0
          0 0 0 0 0 0
          0 0 0 0 0 0
          0 0 0 0 0 0
          0 0 0 0 0 0
          0 0 0 0 0 0
          0 0 0 0 0 0
          0 0 0 0 0 0
          0 0 0 0 0 0
          0 0 0 0 0 0
          0 0 0 0 0 0
          0 0 0 0 0 0
          0 0 0 0 0 0
          0 0 0 0 0 0
          0 0 0 0 0 0
          0 0 0 0 0 0
          0 0 0 0 0 0
          0 0 0 0 0 0
          0 0 0 0 0 0
          0 0 0 0 0 0
          0 0 0 0 0 0
          0 0 0 0 0 0
          0 0 0 0 0 0
          0 0 0 0 0 0
          0 0 0 0 0 0
          0 0 0 0 0 0
          0 0 0 0 0 0
          0 0 0 0 0 0
          0 0 0 0 0 0
          0 0 0 0 0 0
          0 0 0 0 0 0
          0 0 0 0 0 0
          0 0 0 0 0 0
          0 0 0 0 0 0
          0 0 0 0 0 0
          0 0 0 0 0 0
          0 0 0 0 0 0
          0 0 0 0 0 0
          0 0 0 0 0 0
          0 0 0 0 0 0
          0 0 0 0 0 0
          0 0 0 0 0 0
          <InformationKey name="L2_NORM_RANGE" location="vtkDataArray" length="2">
            <Value index="0">
              0
            </Value>
            <Value index="1">
              0
            </Value>
          </InformationKey>
        </DataArray>
      </CellData>
      <Points>
        <DataArray type="Float32" Name="Points" NumberOfComponents="3" format="ascii" RangeMin="0" RangeMax="31.382903215220928">
          20.521530151367188 20 0 18.283540725708008 17.52022933959961 0
          17.25609016418457 15 0 16.766950607299805 20 0
          15.845529556274414 13.259160041809082 0 15.381019592285156 17.424640655517578 0
          14.208800315856934 15 0 14.336990356445312 13.107600212097168 0
          13.51276969909668 11.97500991821289 0 12.883429527282715 20 0
          13.102640151977539 13.196459770202637 0 12.788909912109375 16.992340087890625 0
          12.534299850463867 14.00767993927002 0 12.776570320129395 10.922260284423828 0
          12.229490280151367 11.916069984436035 0 11.793479919433594 13.17240047454834 0
          12.069279670715332 9.813958168029785 0 11.361470222473145 15 0
          11.58452033996582 10.91353988647461 0 11.037429809570312 11.90999984741211 0
          11 10 0 10.5 13.008990287780762 0
          10.109800338745117 17.53706932067871 0 11 8.496806144714355 0
          10.5 10.908289909362793 0 9.862959861755371 14.038040161132812 0
          9.96257495880127 11.90999984741211 0 10 10 0
          10 8.506440162658691 0 9.253846168518066 13.143170356750488 0
          9.415477752685547 10.91353988647461 0 8.828777313232422 20 0
          10 6.893710136413574 0 10 5.054046154022217 0
          8.770505905151367 11.916069984436035 0 8.9307222366333 9.815563201904297 0
          8.33652400970459 15 0 10 3.1532669067382812 0
          8.060935020446777 13.018710136413574 0 8.22342586517334 10.922260284423828 0
          10 1.503193974494934 0 8.326194763183594 8.723417282104492 0
          8.738482475280762 6.083861827850342 0 10 0 0
          7.487227916717529 11.97500991821289 0 7.619233131408691 9.827728271484375 0
          7.886951923370361 7.264598846435547 0 6.820486068725586 13.362019538879395 0
          6.463461875915527 17.636199951171875 0 8.019827842712402 4.493560791015625 0
          6.821275234222412 11.078909873962402 0 6.95460319519043 8.623793601989746 0
          6.350119113922119 12.17335033416748 0 7.078911781311035 5.963322162628174 0
          8.411846160888672 0 0 6.247642993927002 9.728070259094238 0
          5.688107967376709 13.005069732666016 0 7.599650859832764 1.4754129648208618 0
          6.223519802093506 7.299490928649902 0 6.884771823883057 2.9606289863586426 0
          5 15 0 5 11.847049713134766 0
          4.55386209487915 20 0 5 9.001420974731445 0
          6.787456035614014 0 0 5 6.318779945373535 0
          5 3.9981698989868164 0 3.073293924331665 16.91547966003418 0
          5 1.9230870008468628 0 5 0 0
          2.4224369525909424 13.400890350341797 0 2.6503889560699463 10.399840354919434 0
          2.5495519638061523 7.205644130706787 0 2.646925926208496 4.597036838531494 0
          2.96063494682312 2.148577928543091 0 3.3758440017700195 0 0
          0 20 0 0 15.455820083618164 0
          0 11.484399795532227 0 1.741044044494629 0 0
          0 7.942071914672852 0 0 4.97471809387207 0
          0 2.373173952102661 0 0 0 0
          21 15 0 24.184429168701172 20 0
          13.380769729614258 9.827728271484375 0 14.087759971618652 10.93202018737793 0
          14.910579681396484 12.065620422363281 0 16.441429138183594 12.177860260009766 0
          17.48702049255371 13.458939552307129 0 19.282169342041016 13.698100090026855 0
          12.673810005187988 8.723417282104492 0 11 6.846733093261719 0
          <InformationKey name="L2_NORM_RANGE" location="vtkDataArray" length="2">
            <Value index="0">
              0
            </Value>
            <Value index="1">
              31.382903215
            </Value>
          </InformationKey>
        </DataArray>
      </Points>
      <Cells>
        <DataArray type="Int64" Name="connectivity" format="ascii" RangeMin="0" RangeMax="93">
          17 6 11 11 6 5
          17 11 22 6 2 5
          5 2 1 11 5 9
          11 9 22 31 22 9
          1 2 84 5 1 3
          5 3 9 1 84 0
          3 1 0 0 84 85
          14 13 8 15 14 10
          13 86 87 8 13 87
          8 87 88 14 8 10
          10 8 7 15 10 12
          12 10 6 17 12 6
          7 8 88 7 88 4
          10 7 6 4 88 89
          4 89 90 7 4 6
          4 90 2 2 90 91
          4 2 6 2 91 84
          83 79 82 79 75 74
          75 69 68 74 75 68
          79 74 82 68 66 74
          66 65 73 73 65 72
          66 73 74 72 65 63
          73 72 81 72 63 71
          81 82 73 82 74 73
          71 63 61 72 71 80
          71 61 70 72 80 81
          36 17 22 36 22 48
          70 61 60 71 70 78
          71 78 80 70 60 67
          78 70 77 77 70 67
          77 67 76 48 22 31
          36 48 60 60 48 67
          48 31 62 48 62 67
          76 67 62 27 20 24
          24 20 18 27 24 30
          18 20 16 24 18 19
          30 24 26 27 30 35
          16 20 23 19 18 14
          26 24 19 26 19 21
          35 30 39 18 16 13
          30 26 34 27 35 28
          14 18 13 39 30 34
          39 34 44 13 16 86
          34 26 29 19 14 15
          35 39 45 21 19 15
          21 15 17 26 21 29
          29 21 25 86 16 92
          45 39 50 34 29 38
          35 45 41 44 34 38
          44 38 47 39 44 50
          50 44 52 92 16 23
          38 29 36 41 45 51
          45 50 55 35 41 28
          25 21 17 29 25 36
          51 45 55 51 55 63
          55 50 61 15 12 17
          41 51 46 47 38 36
          52 44 47 52 47 56
          50 52 61 61 52 56
          61 56 60 46 51 58
          41 46 32 63 55 61
          43 40 54 58 51 63
          46 58 53 56 47 60
          53 58 65 65 58 63
          46 53 42 32 28 41
          25 17 36 64 54 57
          40 37 57 23 93 92
          42 53 49 46 42 32
          32 42 33 33 42 49
          57 54 40 64 57 68
          49 53 66 69 64 68
          37 33 49 66 68 59
          53 65 66 59 68 57
          59 57 37 66 59 49
          49 59 37 47 36 60
        </DataArray>
        <DataArray type="Int64" Name="offsets" format="ascii" RangeMin="3" RangeMax="450">
          3 6 9 12 15 18
          21 24 27 30 33 36
          39 42 45 48 51 54
          57 60 63 66 69 72
          75 78 81 84 87 90
          93 96 99 102 105 108
          111 114 117 120 123 126
          129 132 135 138 141 144
          147 150 153 156 159 162
          165 168 171 174 177 180
          183 186 189 192 195 198
          201 204 207 210 213 216
          219 222 225 228 231 234
          237 240 243 246 249 252
          255 258 261 264 267 270
          273 276 279 282 285 288
          291 294 297 300 303 306
          309 312 315 318 321 324
          327 330 333 336 339 342
          345 348 351 354 357 360
          363 366 369 372 375 378
          381 384 387 390 393 396
          399 402 405 408 411 414
          417 420 423 426 429 432
          435 438 441 444 447 450
        </DataArray>
        <DataArray type="UInt8" Name="types" format="ascii" RangeMin="5" RangeMax="5">
          5 5 5 5 5 5
          5 5 5 5 5 5
          5 5 5 5 5 5
          5 5 5 5 5 5
          5 5 5 5 5 5
          5 5 5 5 5 5
          5 5 5 5 5 5
          5 5 5 5 5 5
          5 5 5 5 5 5
          5 5 5 5 5 5
          5 5 5 5 5 5
          5 5 5 5 5 5
          5 5 5 5 5 5
          5 5 5 5 5 5
          5 5 5 5 5 5
          5 5 5 5 5 5
          5 5 5 5 5 5
          5 5 5 5 5 5
          5 5 5 5 5 5
          5 5 5 5 5 5
          5 5 5 5 5 5
          5 5 5 5 5 5
          5 5 5 5 5 5
          5 5 5 5 5 5
          5 5 5 5 5 5
        </DataArray>
      </Cells>
    </Piece>
  </UnstructuredGrid>
</VTKFile>
