<?xml version="1.0"?>
<VTKFile type="UnstructuredGrid" version="0.1" byte_order="LittleEndian" header_type="UInt32" compressor="vtkZLibDataCompressor">
  <UnstructuredGrid>
    <Piece NumberOfPoints="97" NumberOfCells="154">
      <PointData>
        <DataArray type="Float64" Name="Velocity" NumberOfComponents="3" format="ascii" RangeMin="0" RangeMax="3.574312020548256">
          0.7113675461768608 0.4582826120474783 0 1.1430077046409362 0 0
          0.8728364096236982 -0.007336127211179733 0 0.9523561858800133 0.029469303802169288 0
          1.0535954287761542 0.0540370435067076 0 0.996256154235443 0 0
          0.757524322162735 -0.4393577449959632 0 1.0611425673391655 0 0
          1.0017360082405062 -0.040728291727936294 0 1.0048318747828937 0.0034284970157359386 0
          0.9977332561123767 0 0 0.9658219921295321 0 0
          1.007313028386915 0 0 0.9978022472209673 0 0
          0.9971778702079376 0.0021153885762995547 0 0.9978057875206966 0.0024228158825073264 0
          1.0043547206842762 0 0 0.9939205552231145 0 0
          1.0015391478630093 0.004445549923623039 0 0.9963877843024976 -0.002613988993941244 0
          0.9998360998569352 -0.002473487453780441 0 1.0160675654952802 0 0
          0.9931236570786733 0 0 1.0000308934124296 0.01137299614014427 0
          0.9973793917123891 -0.023155965981850934 0 1.006285756442014 -0.012580475857927813 0
          1.0267634379401542 0 0 1.0308235723307435 0 0
          0.9738124917797953 -0.008983049094037446 0 1.0236759539252172 -0.0863461051617195 0
          0.9652402963851394 -0.05057250054674246 0 1.0269577207112326 -0.04471154166370339 0
          1.086285067177139 0 0 1.0763732179932153 0 0
          1.0549196959550247 -0.17207718236443711 0 0.9358896994980765 -0.21129193799367563 0
          0.9099795011365525 -0.01818460920666278 0 1.0174243009041501 0 0
          1.2782222910810328 -0.23425943379169992 0 1.061344284846007 -0.4483504383507879 0
          0.7261193170887149 -0.3790193972306719 0 1.3049054190928424 -0.6089556280043572 0
          0.7747466317453433 -0.07654343635406552 0 1.0396051438202587 -0.8256043046659385 0
          0.9898192982340941 -0.6309208205249393 0 0.6698859684793691 -0.6058134617876823 0
          1.1488827936578703 0 0 1.433408565839582 -0.7040332002663209 0
          0.46335091401051426 -0.2972675307919876 0 1.520887917289916 -0.7655667394523287 0
          0.9171629723232995 -1.0631747364772555 0 0.7345158345639238 -0.02144258527018343 0
          0.46488983388488203 -0.8323421519626896 0 1.567805236567267 -1.3881492097473909 0
          0.5669251042620176 -0.35763652356075415 0 0.4787199409709159 -1.1677954039581036 0
          1.3052440477544043 -0.8483625067378672 0 0.19102678561448683 -0.6845021863705416 0
          1.0151031146682374 -1.9563647737393386 0 1.2734473298533924 0 0
          0.19259617883578456 -1.2727398101998832 0 0.3629423454254021 -0.2838226131426302 0
          1.754640503529924 -2.1943326584021317 0 -0.149564379846945 -0.5632604086922104 0
          0.25674787315652525 -2.393824865639452 0 2.7257357466110763 -1.896437965162015 0
          -0.06752379278887326 -0.7675911010199598 0 1.1973398798323296 -2.7271346779998464 0
          -1.1139281371969396 -0.9368575906439968 0 2.8596411640362414 -2.1443317917675913 0
          0.711446411429896 -0.3669236286470014 0 -0.5516487016388574 -2.1417591239956675 0
          0.8861106305453785 0 0 -0.06010412064535141 -0.33176914261769413 0
          1.4644484142767036 0.7673461561012688 0 -0.7447919859677116 -0.801212453644011 0
          -1.2084707078931856 0.2361258509716752 0 -0.9245558839149368 1.357382144336544 0
          0.1472436288020723 0 0 0.12913474849551643 -0.2614839296304506 0
          -0.2915080217154603 0.27354754701331674 0 -0.009445777830269609 -0.5336308374847136 0
          0 0 0 0.14411420838354969 0 0
          0 0 0 0 0 0
          0 0 0 0 0 0
          1.3585938130097408 -0.12619328336884272 0 1.6694473214659593 -0.37343775855741457 0
          1.095953073671535 0 0 2.0036376842574564 0.794485896081202 0
          2.960074268177471 -0.18050166331576867 0 2.7197506250702386 -1.0452114880290078 0
          1.7560461314435232 -1.0327375086314547 0 0.585113360896729 2.0678181158755526 0
          0 0 0
          <InformationKey name="L2_NORM_RANGE" location="vtkDataArray" length="2">
            <Value index="0">
              0
            </Value>
            <Value index="1">
              3.5743120205
            </Value>
          </InformationKey>
        </DataArray>
        <DataArray type="Float64" Name="Pressure" format="ascii" RangeMin="-15.79816222935482" RangeMax="0.36449701625327374">
          0.06296878059105271 -0.1575608783810485 0.10113414547747115 -0.11712545605980383 -0.12993888223650524 -0.06627846160471054
          0.05888804527610958 -0.2858196303132358 -0.090430574774052 -0.1100643170044525 -0.09055854057224234 -0.06531637306762447
          -0.11651693183877763 -0.09019950364402159 -0.10741796424483871 -0.09443922159783327 -0.10880965403008097 -0.08399417906547457
          -0.11557784125586565 -0.09305632910872744 -0.08715145975779784 -0.1266325923927971 -0.05775590745158247 -0.13373598806959403
          -0.09878175583704055 -0.07330343126954632 -0.09791508744344385 -0.0456233218614832 -0.15974507706256635 -0.11611328276030936
          -0.1031396548535331 0.048872121927675614 -0.25397324282235095 -0.06396065227105105 -0.03013077297931873 -0.15243955992595476
          -0.2377248148502764 -0.26481901808220243 -0.034197439064736546 -0.296340640568364 -0.23857038602585398 -0.2936521131818952
          -0.451007232856768 -0.7011877117307819 -0.0958777757756594 -0.5888214706884093 -0.467259267806095 -0.9011442792044788
          -0.4340830214109863 -0.41759789728754304 -0.6598049968890778 -0.5680552916335402 -0.828405206748174 -2.239406664533305
          -0.749828275473608 -1.069971105933686 0.01057382150302244 -0.7817322844229807 -2.7239914788278927 -0.8683856950969535
          -1.2696371998991434 -0.5845860726002824 -3.071383057771399 -1.0385632092106427 -4.490955239471559 -3.8420853937336594
          -2.008572581816072 -9.56004871488296 -3.71838047836203 -11.316078690211759 -1.2653678320681812 -12.929004674984583
          -0.821133796168872 -1.5488877776530585 -15.79816222935482 -2.91582803469973 -5.621387950340784 -10.915996423027547
          -0.5808336902527571 -1.82717840260307 -2.7337196464876903 -1.4893553676902165 -3.05812333722694 -0.8361173665535102
          -2.2250427056848703 -1.7799816649788074 -1.3872442417169757 -1.1528786702557776 0.01581876302759022 -0.08700308082388972
          0.36449701625327374 -8.09033499922295 -4.479055485001759 -1.5794588374044993 -1.1056851028842407 -9.127157699897548
          -5.801198133654291
        </DataArray>
        <DataArray type="Float64" Name="BTraction" NumberOfComponents="3" format="ascii" RangeMin="0" RangeMax="5.458282904361608">
          -0.04989711441769892 0.020695386699140204 0 0.006693549360439364 0.11159132305561133 0
          -0.10272203145387589 0.0011737862822535114 0 0 0 0
          0 0 0 0.0021023631092092245 0.08445589982304605 0
          -0.042988535401442214 -0.03559434839374537 0 0.005237267900410336 -0.19557267753023158 0
          0 0 0 0 0 0
          0.00011058047878384984 0.086050703194542 0 -0.0023866380291936327 -0.10896915582750832 0
          -0.0005803657653417632 -0.1061074848115154 0 -0.00009614489537384467 0.08932050172146731 0
          0 0 0 0 0 0
          0.00045625276525414134 -0.11328925104017286 0 -0.00014031066451047618 0.08161945781588599 0
          0 0 0 0 0 0
          0 0 0 0.0011716342261005263 -0.12063497830087035 0
          -0.0003104747583769036 0.06160370562316393 0 0 0 0
          0 0 0 0 0 0
          0.0030060220910236557 -0.12846495362251154 0 0.00007266954227231184 0.05154392454794144 0
          0 0 0 0 0 0
          0 0 0 0 0 0
          0.009072155081231636 -0.22958699147214 0 -0.002932404802691085 0.0005510178959176628 0
          0 0 0 0 0 0
          0 0 0 0.013724484230855432 -0.301208592538367 0
          0 0 0 0 0 0
          0 0 0 0 0 0
          0 0 0 0 0 0
          0 0 0 0 0 0
          0.03821908086342094 -0.4838693437643598 0 0 0 0
          0 0 0 0 0 0
          0 0 0 0 0 0
          0 0 0 0 0 0
          0 0 0 0 0 0
          0 0 0 0 0 0
          0 0 0 0.056148415852542564 -0.7339264403987287 0
          0 0 0 0 0 0
          0 0 0 0 0 0
          0 0 0 0 0 0
          0 0 0 0 0 0
          0 0 0 0 0 0
          0 0 0 0 0 0
          0.02100744558206608 -0.7303691964156201 0 0 0 0
          0 0 0 0 0 0
          0 0 0 0 0 0
          -0.029481669404867485 -0.5790032010826776 0 0 0 0
          0 0 0 0 0 0
          -3.0859627210585057 -0.27728085015842163 0 -0.0012026522594079424 -0.7921593170993368 0
          -2.2451909615735 0.02217038071051774 0 -1.816976875480903 0.04941756826798688 0
          -1.4243004468333125 0.02206620714594277 0 -0.5926385076880503 -0.5086546114619146 0
          0 0 0 0 0 0
          -0.0058021361827699305 -0.16917542945893896 0 0 0 0
          0 0 0 0 0 0
          0 0 0 0 0 0
          -5.446298189732644 -0.3615083575259565 0
          <InformationKey name="L2_NORM_RANGE" location="vtkDataArray" length="2">
            <Value index="0">
              0
            </Value>
            <Value index="1">
              5.4582829044
            </Value>
          </InformationKey>
        </DataArray>
        <DataArray type="Float64" Name="Sigma" NumberOfComponents="6" format="ascii" RangeMin="0.00007253666174068033" RangeMax="0.6744792059212521">
          -0.03580770830770983 0.036036436654035914 0 0.012026271794522325 0 0
          -0.0005735817925436439 0.0004099069750423804 0 0.006648241452357154 0 0
          -0.008847332235786797 0.008852102252662074 0 0.00126617129681891 0 0
          0.0016352330837075754 -0.0014785200717646633 0 0.0007901418810461321 0 0
          -0.0019133574205965644 0.0018054490803493678 0 -0.003333016043652397 0 0
          0.0016050189395240078 -0.001681320758389381 0 0.0015420585586852413 0 0
          -0.01874174369535137 0.018630298056858202 0 -0.010048239288276898 0 0
          -0.0014886076183340598 0.0019963240510759675 0 -0.006681286021237477 0 0
          -0.0008799284713172263 0.0008528015201986419 0 -0.0004134813547771696 0 0
          -0.0009195991085021967 0.0009074387238311726 0 -0.00041742208281639 0 0
          0.00022159062828500253 -0.0001824903753415904 0 -0.00020229703184277206 0 0
          0.0026747342147332392 -0.0028863781242309734 0 0.005349775970764789 0 0
          0.0003403949207858864 -0.00023793101161345635 0 -0.0003979896866598881 0 0
          0.000020869855711739788 0.0000033738893062278366 0 -0.00006938755861105333 0 0
          0.00012936224961825293 -0.00018537472780165022 0 0.00011466227642092499 0 0
          0.00009692892712031123 -0.00008789699135154549 0 -0.0001765277124665592 0 0
          -0.00031067763061399053 0.00028925658696114115 0 -0.0002756226320746562 0 0
          -0.00005047243628720873 0.0000375350420048718 0 -0.00008388773351769157 0 0
          0.00027198923931693914 -0.00022138463043961125 0 -0.00036248682926679615 0 0
          -0.00026446323483624967 0.00030272253817038473 0 0.00036694777813389197 0 0
          0.0002681805554162561 -0.0003208711038954327 0 0.00023782074981637226 0 0
          -0.0018480095498501032 0.0017908030507201582 0 -0.0013430689310184813 0 0
          -0.0014656881903990667 0.0015837043503067717 0 -0.0004923991283189919 0 0
          0.0018257935105358617 -0.0019024293897448908 0 -0.00004349120594479309 0 0
          -0.00009037504213657192 0.00017758817087291375 0 0.0016842348515121526 0 0
          -0.002848811974628154 0.0027621653446889246 0 0.000940214899092875 0 0
          -0.0015984989499528408 0.0018038169441713043 0 -0.0015596555013769294 0 0
          0.0008631334677396086 -0.0009091457310468265 0 0.0002176120826534088 0 0
          0.000646633605102317 -0.0007624170851924248 0 -0.0011179113638523008 0 0
          -0.0002472817502967172 -0.0001069470908715444 0 0.00802861340401384 0 0
          0.005000641821990252 -0.004652791777594409 0 0.005346083395636169 0 0
          -0.009046213046647052 0.009564437601644563 0 0.001885241513372016 0 0
          -0.0005049511688364 0.0006436477721542392 0 -0.011335445836195134 0 0
          -0.008671837947782653 0.007935724133975001 0 0.00009687914075881543 0 0
          -0.011302051404989986 0.011558516638088953 0 0.009080986955131523 0 0
          0.0044702974628131765 -0.004634627076158878 0 0.01735283207054237 0 0
          0.01230067824549998 -0.012585608653032323 0 0.0027716677073656984 0 0
          -0.007455896228181176 0.007047902994117229 0 -0.008000338307706151 0 0
          -0.022070411308545295 0.02195139625795825 0 0.010919548508544931 0 0
          -0.010324207638714581 0.01007363471666375 0 0.04134893841407206 0 0
          0.0259276525554312 -0.025057075357406946 0 0.0265783195169016 0 0
          -0.05085101686342195 0.050700528103875785 0 0.0354320967725167 0 0
          0.02773661543517042 -0.02752302361000226 0 -0.0135233702381273 0 0
          0.018411327501758785 -0.020359449756828813 0 0.013623936694456615 0 0
          -0.024746090975854843 0.026350904422356297 0 0.07493593380790424 0 0
          0.05936170755128603 -0.06188523645960425 0 0.12320291387238812 0 0
          -0.006977485706492399 0.00872679269241581 0 -0.04043216398977735 0 0
          -0.09188064658168442 0.0943520797003669 0 0.07925049200226252 0 0
          0.045490697145977615 -0.04446988405092043 0 0.032568947191422476 0 0
          0.07056674135648577 -0.06990540238272114 0 -0.002810251556144963 0 0
          -0.021686643344285127 0.026595861358283183 0 0.13082419028605158 0 0
          0.00039084285016999297 -0.00048070760053467096 0 -0.0018967598661871147 0 0
          0.025777759495214294 -0.026125781014520982 0 0.055860309357133625 0 0
          -0.06930639778963404 0.062290162425260934 0 0.01783872944029895 0 0
          0.0934416603074156 -0.09876984653353553 0 0.00024104077690913737 0 0
          0.05375975714745494 -0.054220778068656265 0 0.09610962342340978 0 0
          -0.10080234288635469 0.0993296229945726 0 0.06526648061660636 0 0
          0.0789909196297874 -0.07693415343292062 0 0.04441990440712701 0 0
          0.04242257254592735 -0.04292204683213731 0 0.2906402814194723 0 0
          0.06962647794647847 -0.07238784596676862 0 -0.0673529613355518 0 0
          0.12871446330477554 -0.1298313851247966 0 0.07827924854019408 0 0
          0.01015562763495886 -0.006637457421730474 0 -0.035090360435471646 0 0
          -0.28196779195257676 0.2845687384176245 0 0.35124031697125896 0 0
          0.027888698675717766 -0.025529802010810627 0 -0.003944070462403538 0 0
          0.3060341113439484 -0.30354265398613595 0 0.298312801026292 0 0
          -0.29228846665227004 0.29614905287193005 0 -0.011227837353190037 0 0
          0.12870046401222854 -0.1331479291425545 0 -0.07632522769765406 0 0
          -0.07590046693691499 0.07765845200539348 0 0.04024546557113701 0 0
          0.33189016311076963 -0.3273866248220353 0 -0.07769591354903142 0 0
          0.007837752457863917 -0.003213600189640148 0 -0.36635671927124636 0 0
          0.05892307330975261 -0.0587556967036089 0 -0.04666074003547478 0 0
          -0.0017836732709961556 -0.0006057183385254905 0 -0.014248562456115693 0 0
          0.04926028778073123 -0.04973011291121103 0 -0.025654745168571077 0 0
          0.0021564502595027694 0.0001402279640903615 0 -0.038689842731945236 0 0
          0.13809167990154386 -0.14575214978017628 0 -0.1617029298321203 0 0
          -0.021844132758174036 0.017697203198697425 0 -0.14659388267095483 0 0
          -0.06280589904477042 0.06844418468816968 0 -0.4528506053038296 0 0
          -0.10067003721029252 0.08231445066782456 0 -0.1277011957750575 0 0
          0.09990676238603513 -0.10160500788818673 0 0.051979171981456886 0 0
          -0.029148144250324977 0.032589425397300795 0 -0.05453461911451962 0 0
          -0.07825522792269075 0.0786312707209817 0 -0.06945064368895075 0 0
          0.02717555408584136 -0.03109367526484292 0 -0.03501439313373607 0 0
          -0.39779185773307824 0.41341309526903525 0 0.35464552697236273 0 0
          0.05909065133064058 -0.04931334417211709 0 -0.0038068138653554163 0 0
          0.024165068359001646 -0.0320160545596765 0 -0.11340062946066179 0 0
          0.01994337048732959 -0.022251294352616323 0 -0.04052192400216625 0 0
          0.00968694511048209 -0.00686590206656912 0 -0.014517246139016808 0 0
          -0.020329023858097928 0.005414190687331057 0 -0.033538418457755355 0 0
          -0.02500105294624472 0.02602125527290081 0 0.0049886398957795525 0 0
          -0.05386042710714859 0.0511211295245466 0 -0.016791957156856645 0 0
          -0.020375504104469686 0.021442852280949585 0 -0.018892495358248874 0 0
          0.31130926803300774 -0.30763110675084193 0 -0.07388919670321067 0 0
          -0.09674157538270645 0.08528132061782617 0 -0.24957756840446307 0 0
          -0.10432852694156365 0.10837197347370033 0 -0.21749356642948134 0 0
          -0.31558037531586913 0.31542608482924656 0 0.10826292157598863 0 0
          0.031178544947875204 -0.032796570174780104 0 0.5164420072671436 0 0
          0.0805156373129935 -0.06855976231797331 0 0.39435331747387325 0 0
          <InformationKey name="L2_NORM_RANGE" location="vtkDataArray" length="2">
            <Value index="0">
              7.2536661741e-05
            </Value>
            <Value index="1">
              0.67447920592
            </Value>
          </InformationKey>
        </DataArray>
        <DataArray type="Float64" Name="ALEdispl" NumberOfComponents="3" format="ascii" RangeMin="0" RangeMax="0">
          0 0 0 0 0 0
          0 0 0 0 0 0
          0 0 0 0 0 0
          0 0 0 0 0 0
          0 0 0 0 0 0
          0 0 0 0 0 0
          0 0 0 0 0 0
          0 0 0 0 0 0
          0 0 0 0 0 0
          0 0 0 0 0 0
          0 0 0 0 0 0
          0 0 0 0 0 0
          0 0 0 0 0 0
          0 0 0 0 0 0
          0 0 0 0 0 0
          0 0 0 0 0 0
          0 0 0 0 0 0
          0 0 0 0 0 0
          0 0 0 0 0 0
          0 0 0 0 0 0
          0 0 0 0 0 0
          0 0 0 0 0 0
          0 0 0 0 0 0
          0 0 0 0 0 0
          0 0 0 0 0 0
          0 0 0 0 0 0
          0 0 0 0 0 0
          0 0 0 0 0 0
          0 0 0 0 0 0
          0 0 0 0 0 0
          0 0 0 0 0 0
          0 0 0 0 0 0
          0 0 0 0 0 0
          0 0 0 0 0 0
          0 0 0 0 0 0
          0 0 0 0 0 0
          0 0 0 0 0 0
          0 0 0 0 0 0
          0 0 0 0 0 0
          0 0 0 0 0 0
          0 0 0 0 0 0
          0 0 0 0 0 0
          0 0 0 0 0 0
          0 0 0 0 0 0
          0 0 0 0 0 0
          0 0 0 0 0 0
          0 0 0 0 0 0
          0 0 0 0 0 0
          0 0 0
          <InformationKey name="L2_NORM_RANGE" location="vtkDataArray" length="2">
            <Value index="0">
              0
            </Value>
            <Value index="1">
              0
            </Value>
          </InformationKey>
        </DataArray>
        <DataArray type="Float64" Name="ALEveloc" NumberOfComponents="3" format="ascii" RangeMin="0" RangeMax="0">
          0 0 0 0 0 0
          0 0 0 0 0 0
          0 0 0 0 0 0
          0 0 0 0 0 0
          0 0 0 0 0 0
          0 0 0 0 0 0
          0 0 0 0 0 0
          0 0 0 0 0 0
          0 0 0 0 0 0
          0 0 0 0 0 0
          0 0 0 0 0 0
          0 0 0 0 0 0
          0 0 0 0 0 0
          0 0 0 0 0 0
          0 0 0 0 0 0
          0 0 0 0 0 0
          0 0 0 0 0 0
          0 0 0 0 0 0
          0 0 0 0 0 0
          0 0 0 0 0 0
          0 0 0 0 0 0
          0 0 0 0 0 0
          0 0 0 0 0 0
          0 0 0 0 0 0
          0 0 0 0 0 0
          0 0 0 0 0 0
          0 0 0 0 0 0
          0 0 0 0 0 0
          0 0 0 0 0 0
          0 0 0 0 0 0
          0 0 0 0 0 0
          0 0 0 0 0 0
          0 0 0 0 0 0
          0 0 0 0 0 0
          0 0 0 0 0 0
          0 0 0 0 0 0
          0 0 0 0 0 0
          0 0 0 0 0 0
          0 0 0 0 0 0
          0 0 0 0 0 0
          0 0 0 0 0 0
          0 0 0 0 0 0
          0 0 0 0 0 0
          0 0 0 0 0 0
          0 0 0 0 0 0
          0 0 0 0 0 0
          0 0 0 0 0 0
          0 0 0 0 0 0
          0 0 0
          <InformationKey name="L2_NORM_RANGE" location="vtkDataArray" length="2">
            <Value index="0">
              0
            </Value>
            <Value index="1">
              0
            </Value>
          </InformationKey>
        </DataArray>
      </PointData>
      <CellData>
        <DataArray type="UInt8" Name="vtkGhostType" format="ascii" RangeMin="0" RangeMax="0">
          0 0 0 0 0 0
          0 0 0 0 0 0
          0 0 0 0 0 0
          0 0 0 0 0 0
          0 0 0 0 0 0
          0 0 0 0 0 0
          0 0 0 0 0 0
          0 0 0 0 0 0
          0 0 0 0 0 0
          0 0 0 0 0 0
          0 0 0 0 0 0
          0 0 0 0 0 0
          0 0 0 0 0 0
          0 0 0 0 0 0
          0 0 0 0 0 0
          0 0 0 0 0 0
          0 0 0 0 0 0
          0 0 0 0 0 0
          0 0 0 0 0 0
          0 0 0 0 0 0
          0 0 0 0 0 0
          0 0 0 0 0 0
          0 0 0 0 0 0
          0 0 0 0 0 0
          0 0 0 0 0 0
          0 0 0 0
        </DataArray>
        <DataArray type="Float64" Name="PStrain" NumberOfComponents="6" format="ascii" RangeMin="0.1732050807568877" RangeMax="0.1732050807568877">
          0.09999999999999999 0.09999999999999999 0 0.09999999999999999 0 0
          0.09999999999999999 0.09999999999999999 0 0.09999999999999999 0 0
          0.09999999999999999 0.09999999999999999 0 0.09999999999999999 0 0
          0.09999999999999999 0.09999999999999999 0 0.09999999999999999 0 0
          0.09999999999999999 0.09999999999999999 0 0.09999999999999999 0 0
          0.09999999999999999 0.09999999999999999 0 0.09999999999999999 0 0
          0.09999999999999999 0.09999999999999999 0 0.09999999999999999 0 0
          0.09999999999999999 0.09999999999999999 0 0.09999999999999999 0 0
          0.09999999999999999 0.09999999999999999 0 0.09999999999999999 0 0
          0.09999999999999999 0.09999999999999999 0 0.09999999999999999 0 0
          0.09999999999999999 0.09999999999999999 0 0.09999999999999999 0 0
          0.09999999999999999 0.09999999999999999 0 0.09999999999999999 0 0
          0.09999999999999999 0.09999999999999999 0 0.09999999999999999 0 0
          0.09999999999999999 0.09999999999999999 0 0.09999999999999999 0 0
          0.09999999999999999 0.09999999999999999 0 0.09999999999999999 0 0
          0.09999999999999999 0.09999999999999999 0 0.09999999999999999 0 0
          0.09999999999999999 0.09999999999999999 0 0.09999999999999999 0 0
          0.09999999999999999 0.09999999999999999 0 0.09999999999999999 0 0
          0.09999999999999999 0.09999999999999999 0 0.09999999999999999 0 0
          0.09999999999999999 0.09999999999999999 0 0.09999999999999999 0 0
          0.09999999999999999 0.09999999999999999 0 0.09999999999999999 0 0
          0.09999999999999999 0.09999999999999999 0 0.09999999999999999 0 0
          0.09999999999999999 0.09999999999999999 0 0.09999999999999999 0 0
          0.09999999999999999 0.09999999999999999 0 0.09999999999999999 0 0
          0.09999999999999999 0.09999999999999999 0 0.09999999999999999 0 0
          0.09999999999999999 0.09999999999999999 0 0.09999999999999999 0 0
          0.09999999999999999 0.09999999999999999 0 0.09999999999999999 0 0
          0.09999999999999999 0.09999999999999999 0 0.09999999999999999 0 0
          0.09999999999999999 0.09999999999999999 0 0.09999999999999999 0 0
          0.09999999999999999 0.09999999999999999 0 0.09999999999999999 0 0
          0.09999999999999999 0.09999999999999999 0 0.09999999999999999 0 0
          0.09999999999999999 0.09999999999999999 0 0.09999999999999999 0 0
          0.09999999999999999 0.09999999999999999 0 0.09999999999999999 0 0
          0.09999999999999999 0.09999999999999999 0 0.09999999999999999 0 0
          0.09999999999999999 0.09999999999999999 0 0.09999999999999999 0 0
          0.09999999999999999 0.09999999999999999 0 0.09999999999999999 0 0
          0.09999999999999999 0.09999999999999999 0 0.09999999999999999 0 0
          0.09999999999999999 0.09999999999999999 0 0.09999999999999999 0 0
          0.09999999999999999 0.09999999999999999 0 0.09999999999999999 0 0
          0.09999999999999999 0.09999999999999999 0 0.09999999999999999 0 0
          0.09999999999999999 0.09999999999999999 0 0.09999999999999999 0 0
          0.09999999999999999 0.09999999999999999 0 0.09999999999999999 0 0
          0.09999999999999999 0.09999999999999999 0 0.09999999999999999 0 0
          0.09999999999999999 0.09999999999999999 0 0.09999999999999999 0 0
          0.09999999999999999 0.09999999999999999 0 0.09999999999999999 0 0
          0.09999999999999999 0.09999999999999999 0 0.09999999999999999 0 0
          0.09999999999999999 0.09999999999999999 0 0.09999999999999999 0 0
          0.09999999999999999 0.09999999999999999 0 0.09999999999999999 0 0
          0.09999999999999999 0.09999999999999999 0 0.09999999999999999 0 0
          0.09999999999999999 0.09999999999999999 0 0.09999999999999999 0 0
          0.09999999999999999 0.09999999999999999 0 0.09999999999999999 0 0
          0.09999999999999999 0.09999999999999999 0 0.09999999999999999 0 0
          0.09999999999999999 0.09999999999999999 0 0.09999999999999999 0 0
          0.09999999999999999 0.09999999999999999 0 0.09999999999999999 0 0
          0.09999999999999999 0.09999999999999999 0 0.09999999999999999 0 0
          0.09999999999999999 0.09999999999999999 0 0.09999999999999999 0 0
          0.09999999999999999 0.09999999999999999 0 0.09999999999999999 0 0
          0.09999999999999999 0.09999999999999999 0 0.09999999999999999 0 0
          0.09999999999999999 0.09999999999999999 0 0.09999999999999999 0 0
          0.09999999999999999 0.09999999999999999 0 0.09999999999999999 0 0
          0.09999999999999999 0.09999999999999999 0 0.09999999999999999 0 0
          0.09999999999999999 0.09999999999999999 0 0.09999999999999999 0 0
          0.09999999999999999 0.09999999999999999 0 0.09999999999999999 0 0
          0.09999999999999999 0.09999999999999999 0 0.09999999999999999 0 0
          0.09999999999999999 0.09999999999999999 0 0.09999999999999999 0 0
          0.09999999999999999 0.09999999999999999 0 0.09999999999999999 0 0
          0.09999999999999999 0.09999999999999999 0 0.09999999999999999 0 0
          0.09999999999999999 0.09999999999999999 0 0.09999999999999999 0 0
          0.09999999999999999 0.09999999999999999 0 0.09999999999999999 0 0
          0.09999999999999999 0.09999999999999999 0 0.09999999999999999 0 0
          0.09999999999999999 0.09999999999999999 0 0.09999999999999999 0 0
          0.09999999999999999 0.09999999999999999 0 0.09999999999999999 0 0
          0.09999999999999999 0.09999999999999999 0 0.09999999999999999 0 0
          0.09999999999999999 0.09999999999999999 0 0.09999999999999999 0 0
          0.09999999999999999 0.09999999999999999 0 0.09999999999999999 0 0
          0.09999999999999999 0.09999999999999999 0 0.09999999999999999 0 0
          0.09999999999999999 0.09999999999999999 0 0.09999999999999999 0 0
          0.09999999999999999 0.09999999999999999 0 0.09999999999999999 0 0
          0.09999999999999999 0.09999999999999999 0 0.09999999999999999 0 0
          0.09999999999999999 0.09999999999999999 0 0.09999999999999999 0 0
          0.09999999999999999 0.09999999999999999 0 0.09999999999999999 0 0
          0.09999999999999999 0.09999999999999999 0 0.09999999999999999 0 0
          0.09999999999999999 0.09999999999999999 0 0.09999999999999999 0 0
          0.09999999999999999 0.09999999999999999 0 0.09999999999999999 0 0
          0.09999999999999999 0.09999999999999999 0 0.09999999999999999 0 0
          0.09999999999999999 0.09999999999999999 0 0.09999999999999999 0 0
          0.09999999999999999 0.09999999999999999 0 0.09999999999999999 0 0
          0.09999999999999999 0.09999999999999999 0 0.09999999999999999 0 0
          0.09999999999999999 0.09999999999999999 0 0.09999999999999999 0 0
          0.09999999999999999 0.09999999999999999 0 0.09999999999999999 0 0
          0.09999999999999999 0.09999999999999999 0 0.09999999999999999 0 0
          0.09999999999999999 0.09999999999999999 0 0.09999999999999999 0 0
          0.09999999999999999 0.09999999999999999 0 0.09999999999999999 0 0
          0.09999999999999999 0.09999999999999999 0 0.09999999999999999 0 0
          0.09999999999999999 0.09999999999999999 0 0.09999999999999999 0 0
          0.09999999999999999 0.09999999999999999 0 0.09999999999999999 0 0
          0.09999999999999999 0.09999999999999999 0 0.09999999999999999 0 0
          0.09999999999999999 0.09999999999999999 0 0.09999999999999999 0 0
          0.09999999999999999 0.09999999999999999 0 0.09999999999999999 0 0
          0.09999999999999999 0.09999999999999999 0 0.09999999999999999 0 0
          0.09999999999999999 0.09999999999999999 0 0.09999999999999999 0 0
          0.09999999999999999 0.09999999999999999 0 0.09999999999999999 0 0
          0.09999999999999999 0.09999999999999999 0 0.09999999999999999 0 0
          0.09999999999999999 0.09999999999999999 0 0.09999999999999999 0 0
          0.09999999999999999 0.09999999999999999 0 0.09999999999999999 0 0
          0.09999999999999999 0.09999999999999999 0 0.09999999999999999 0 0
          0.09999999999999999 0.09999999999999999 0 0.09999999999999999 0 0
          0.09999999999999999 0.09999999999999999 0 0.09999999999999999 0 0
          0.09999999999999999 0.09999999999999999 0 0.09999999999999999 0 0
          0.09999999999999999 0.09999999999999999 0 0.09999999999999999 0 0
          0.09999999999999999 0.09999999999999999 0 0.09999999999999999 0 0
          0.09999999999999999 0.09999999999999999 0 0.09999999999999999 0 0
          0.09999999999999999 0.09999999999999999 0 0.09999999999999999 0 0
          0.09999999999999999 0.09999999999999999 0 0.09999999999999999 0 0
          0.09999999999999999 0.09999999999999999 0 0.09999999999999999 0 0
          0.09999999999999999 0.09999999999999999 0 0.09999999999999999 0 0
          0.09999999999999999 0.09999999999999999 0 0.09999999999999999 0 0
          0.09999999999999999 0.09999999999999999 0 0.09999999999999999 0 0
          0.09999999999999999 0.09999999999999999 0 0.09999999999999999 0 0
          0.09999999999999999 0.09999999999999999 0 0.09999999999999999 0 0
          0.09999999999999999 0.09999999999999999 0 0.09999999999999999 0 0
          0.09999999999999999 0.09999999999999999 0 0.09999999999999999 0 0
          0.09999999999999999 0.09999999999999999 0 0.09999999999999999 0 0
          0.09999999999999999 0.09999999999999999 0 0.09999999999999999 0 0
          0.09999999999999999 0.09999999999999999 0 0.09999999999999999 0 0
          0.09999999999999999 0.09999999999999999 0 0.09999999999999999 0 0
          0.09999999999999999 0.09999999999999999 0 0.09999999999999999 0 0
          0.09999999999999999 0.09999999999999999 0 0.09999999999999999 0 0
          0.09999999999999999 0.09999999999999999 0 0.09999999999999999 0 0
          0.09999999999999999 0.09999999999999999 0 0.09999999999999999 0 0
          0.09999999999999999 0.09999999999999999 0 0.09999999999999999 0 0
          0.09999999999999999 0.09999999999999999 0 0.09999999999999999 0 0
          0.09999999999999999 0.09999999999999999 0 0.09999999999999999 0 0
          0.09999999999999999 0.09999999999999999 0 0.09999999999999999 0 0
          0.09999999999999999 0.09999999999999999 0 0.09999999999999999 0 0
          0.09999999999999999 0.09999999999999999 0 0.09999999999999999 0 0
          0.09999999999999999 0.09999999999999999 0 0.09999999999999999 0 0
          0.09999999999999999 0.09999999999999999 0 0.09999999999999999 0 0
          0.09999999999999999 0.09999999999999999 0 0.09999999999999999 0 0
          0.09999999999999999 0.09999999999999999 0 0.09999999999999999 0 0
          0.09999999999999999 0.09999999999999999 0 0.09999999999999999 0 0
          0.09999999999999999 0.09999999999999999 0 0.09999999999999999 0 0
          0.09999999999999999 0.09999999999999999 0 0.09999999999999999 0 0
          0.09999999999999999 0.09999999999999999 0 0.09999999999999999 0 0
          0.09999999999999999 0.09999999999999999 0 0.09999999999999999 0 0
          0.09999999999999999 0.09999999999999999 0 0.09999999999999999 0 0
          0.09999999999999999 0.09999999999999999 0 0.09999999999999999 0 0
          0.09999999999999999 0.09999999999999999 0 0.09999999999999999 0 0
          0.09999999999999999 0.09999999999999999 0 0.09999999999999999 0 0
          0.09999999999999999 0.09999999999999999 0 0.09999999999999999 0 0
          0.09999999999999999 0.09999999999999999 0 0.09999999999999999 0 0
          0.09999999999999999 0.09999999999999999 0 0.09999999999999999 0 0
          0.09999999999999999 0.09999999999999999 0 0.09999999999999999 0 0
          0.09999999999999999 0.09999999999999999 0 0.09999999999999999 0 0
          <InformationKey name="L2_NORM_RANGE" location="vtkDataArray" length="2">
            <Value index="0">
              0.17320508076
            </Value>
            <Value index="1">
              0.17320508076
            </Value>
          </InformationKey>
        </DataArray>
        <DataArray type="Float64" Name="Stress" NumberOfComponents="6" format="ascii" RangeMin="0" RangeMax="0">
          0 0 0 0 0 0
          0 0 0 0 0 0
          0 0 0 0 0 0
          0 0 0 0 0 0
          0 0 0 0 0 0
          0 0 0 0 0 0
          0 0 0 0 0 0
          0 0 0 0 0 0
          0 0 0 0 0 0
          0 0 0 0 0 0
          0 0 0 0 0 0
          0 0 0 0 0 0
          0 0 0 0 0 0
          0 0 0 0 0 0
          0 0 0 0 0 0
          0 0 0 0 0 0
          0 0 0 0 0 0
          0 0 0 0 0 0
          0 0 0 0 0 0
          0 0 0 0 0 0
          0 0 0 0 0 0
          0 0 0 0 0 0
          0 0 0 0 0 0
          0 0 0 0 0 0
          0 0 0 0 0 0
          0 0 0 0 0 0
          0 0 0 0 0 0
          0 0 0 0 0 0
          0 0 0 0 0 0
          0 0 0 0 0 0
          0 0 0 0 0 0
          0 0 0 0 0 0
          0 0 0 0 0 0
          0 0 0 0 0 0
          0 0 0 0 0 0
          0 0 0 0 0 0
          0 0 0 0 0 0
          0 0 0 0 0 0
          0 0 0 0 0 0
          0 0 0 0 0 0
          0 0 0 0 0 0
          0 0 0 0 0 0
          0 0 0 0 0 0
          0 0 0 0 0 0
          0 0 0 0 0 0
          0 0 0 0 0 0
          0 0 0 0 0 0
          0 0 0 0 0 0
          0 0 0 0 0 0
          0 0 0 0 0 0
          0 0 0 0 0 0
          0 0 0 0 0 0
          0 0 0 0 0 0
          0 0 0 0 0 0
          0 0 0 0 0 0
          0 0 0 0 0 0
          0 0 0 0 0 0
          0 0 0 0 0 0
          0 0 0 0 0 0
          0 0 0 0 0 0
          0 0 0 0 0 0
          0 0 0 0 0 0
          0 0 0 0 0 0
          0 0 0 0 0 0
          0 0 0 0 0 0
          0 0 0 0 0 0
          0 0 0 0 0 0
          0 0 0 0 0 0
          0 0 0 0 0 0
          0 0 0 0 0 0
          0 0 0 0 0 0
          0 0 0 0 0 0
          0 0 0 0 0 0
          0 0 0 0 0 0
          0 0 0 0 0 0
          0 0 0 0 0 0
          0 0 0 0 0 0
          0 0 0 0 0 0
          0 0 0 0 0 0
          0 0 0 0 0 0
          0 0 0 0 0 0
          0 0 0 0 0 0
          0 0 0 0 0 0
          0 0 0 0 0 0
          0 0 0 0 0 0
          0 0 0 0 0 0
          0 0 0 0 0 0
          0 0 0 0 0 0
          0 0 0 0 0 0
          0 0 0 0 0 0
          0 0 0 0 0 0
          0 0 0 0 0 0
          0 0 0 0 0 0
          0 0 0 0 0 0
          0 0 0 0 0 0
          0 0 0 0 0 0
          0 0 0 0 0 0
          0 0 0 0 0 0
          0 0 0 0 0 0
          0 0 0 0 0 0
          0 0 0 0 0 0
          0 0 0 0 0 0
          0 0 0 0 0 0
          0 0 0 0 0 0
          0 0 0 0 0 0
          0 0 0 0 0 0
          0 0 0 0 0 0
          0 0 0 0 0 0
          0 0 0 0 0 0
          0 0 0 0 0 0
          0 0 0 0 0 0
          0 0 0 0 0 0
          0 0 0 0 0 0
          0 0 0 0 0 0
          0 0 0 0 0 0
          0 0 0 0 0 0
          0 0 0 0 0 0
          0 0 0 0 0 0
          0 0 0 0 0 0
          0 0 0 0 0 0
          0 0 0 0 0 0
          0 0 0 0 0 0
          0 0 0 0 0 0
          0 0 0 0 0 0
          0 0 0 0 0 0
          0 0 0 0 0 0
          0 0 0 0 0 0
          0 0 0 0 0 0
          0 0 0 0 0 0
          0 0 0 0 0 0
          0 0 0 0 0 0
          0 0 0 0 0 0
          0 0 0 0 0 0
          0 0 0 0 0 0
          0 0 0 0 0 0
          0 0 0 0 0 0
          0 0 0 0 0 0
          0 0 0 0 0 0
          0 0 0 0 0 0
          0 0 0 0 0 0
          0 0 0 0 0 0
          0 0 0 0 0 0
          0 0 0 0 0 0
          0 0 0 0 0 0
          0 0 0 0 0 0
          0 0 0 0 0 0
          0 0 0 0 0 0
          0 0 0 0 0 0
          0 0 0 0 0 0
          0 0 0 0 0 0
          0 0 0 0 0 0
          0 0 0 0 0 0
          0 0 0 0 0 0
          0 0 0 0 0 0
          <InformationKey name="L2_NORM_RANGE" location="vtkDataArray" length="2">
            <Value index="0">
              0
            </Value>
            <Value index="1">
              0
            </Value>
          </InformationKey>
        </DataArray>
        <DataArray type="Float64" Name="Strain" NumberOfComponents="6" format="ascii" RangeMin="0" RangeMax="0">
          0 0 0 0 0 0
          0 0 0 0 0 0
          0 0 0 0 0 0
          0 0 0 0 0 0
          0 0 0 0 0 0
          0 0 0 0 0 0
          0 0 0 0 0 0
          0 0 0 0 0 0
          0 0 0 0 0 0
          0 0 0 0 0 0
          0 0 0 0 0 0
          0 0 0 0 0 0
          0 0 0 0 0 0
          0 0 0 0 0 0
          0 0 0 0 0 0
          0 0 0 0 0 0
          0 0 0 0 0 0
          0 0 0 0 0 0
          0 0 0 0 0 0
          0 0 0 0 0 0
          0 0 0 0 0 0
          0 0 0 0 0 0
          0 0 0 0 0 0
          0 0 0 0 0 0
          0 0 0 0 0 0
          0 0 0 0 0 0
          0 0 0 0 0 0
          0 0 0 0 0 0
          0 0 0 0 0 0
          0 0 0 0 0 0
          0 0 0 0 0 0
          0 0 0 0 0 0
          0 0 0 0 0 0
          0 0 0 0 0 0
          0 0 0 0 0 0
          0 0 0 0 0 0
          0 0 0 0 0 0
          0 0 0 0 0 0
          0 0 0 0 0 0
          0 0 0 0 0 0
          0 0 0 0 0 0
          0 0 0 0 0 0
          0 0 0 0 0 0
          0 0 0 0 0 0
          0 0 0 0 0 0
          0 0 0 0 0 0
          0 0 0 0 0 0
          0 0 0 0 0 0
          0 0 0 0 0 0
          0 0 0 0 0 0
          0 0 0 0 0 0
          0 0 0 0 0 0
          0 0 0 0 0 0
          0 0 0 0 0 0
          0 0 0 0 0 0
          0 0 0 0 0 0
          0 0 0 0 0 0
          0 0 0 0 0 0
          0 0 0 0 0 0
          0 0 0 0 0 0
          0 0 0 0 0 0
          0 0 0 0 0 0
          0 0 0 0 0 0
          0 0 0 0 0 0
          0 0 0 0 0 0
          0 0 0 0 0 0
          0 0 0 0 0 0
          0 0 0 0 0 0
          0 0 0 0 0 0
          0 0 0 0 0 0
          0 0 0 0 0 0
          0 0 0 0 0 0
          0 0 0 0 0 0
          0 0 0 0 0 0
          0 0 0 0 0 0
          0 0 0 0 0 0
          0 0 0 0 0 0
          0 0 0 0 0 0
          0 0 0 0 0 0
          0 0 0 0 0 0
          0 0 0 0 0 0
          0 0 0 0 0 0
          0 0 0 0 0 0
          0 0 0 0 0 0
          0 0 0 0 0 0
          0 0 0 0 0 0
          0 0 0 0 0 0
          0 0 0 0 0 0
          0 0 0 0 0 0
          0 0 0 0 0 0
          0 0 0 0 0 0
          0 0 0 0 0 0
          0 0 0 0 0 0
          0 0 0 0 0 0
          0 0 0 0 0 0
          0 0 0 0 0 0
          0 0 0 0 0 0
          0 0 0 0 0 0
          0 0 0 0 0 0
          0 0 0 0 0 0
          0 0 0 0 0 0
          0 0 0 0 0 0
          0 0 0 0 0 0
          0 0 0 0 0 0
          0 0 0 0 0 0
          0 0 0 0 0 0
          0 0 0 0 0 0
          0 0 0 0 0 0
          0 0 0 0 0 0
          0 0 0 0 0 0
          0 0 0 0 0 0
          0 0 0 0 0 0
          0 0 0 0 0 0
          0 0 0 0 0 0
          0 0 0 0 0 0
          0 0 0 0 0 0
          0 0 0 0 0 0
          0 0 0 0 0 0
          0 0 0 0 0 0
          0 0 0 0 0 0
          0 0 0 0 0 0
          0 0 0 0 0 0
          0 0 0 0 0 0
          0 0 0 0 0 0
          0 0 0 0 0 0
          0 0 0 0 0 0
          0 0 0 0 0 0
          0 0 0 0 0 0
          0 0 0 0 0 0
          0 0 0 0 0 0
          0 0 0 0 0 0
          0 0 0 0 0 0
          0 0 0 0 0 0
          0 0 0 0 0 0
          0 0 0 0 0 0
          0 0 0 0 0 0
          0 0 0 0 0 0
          0 0 0 0 0 0
          0 0 0 0 0 0
          0 0 0 0 0 0
          0 0 0 0 0 0
          0 0 0 0 0 0
          0 0 0 0 0 0
          0 0 0 0 0 0
          0 0 0 0 0 0
          0 0 0 0 0 0
          0 0 0 0 0 0
          0 0 0 0 0 0
          0 0 0 0 0 0
          0 0 0 0 0 0
          0 0 0 0 0 0
          0 0 0 0 0 0
          0 0 0 0 0 0
          0 0 0 0 0 0
          <InformationKey name="L2_NORM_RANGE" location="vtkDataArray" length="2">
            <Value index="0">
              0
            </Value>
            <Value index="1">
              0
            </Value>
          </InformationKey>
        </DataArray>
      </CellData>
      <Points>
        <DataArray type="Float32" Name="Points" NumberOfComponents="3" format="ascii" RangeMin="11" RangeMax="82.46211251235322">
          80 20 0 71.25 20 0
          80 10 0 66.2388916015625 12.798850059509277 0
          70.20958709716797 5.845560073852539 0 62.5 20 0
          80 0 0 71.25 0 0
          61.98773956298828 6.017467021942139 0 57.24021911621094 11.442919731140137 0
          53.75 20 0 62.5 0 0
          53.75 0 0 45 20 0
          45 10 0 40.15702819824219 15.307769775390625 0
          45 0 0 37.99734115600586 20 0
          40.049659729003906 5.003084182739258 0 36.91453170776367 10.96895980834961 0
          35.045658111572266 16.052900314331055 0 38.01533889770508 0 0
          32.61840057373047 20 0 35.31842041015625 4.04646110534668 0
          31.990219116210938 9.977960586547852 0 30.425119400024414 16.402000427246094 0
          32.72930908203125 0 0 28.12295913696289 20 0
          30.514589309692383 4.023209095001221 0 27.527999877929688 12.006360054016113 0
          27.93014907836914 7.867103099822998 0 26.15369987487793 16.422679901123047 0
          28.299869537353516 0 0 24.184429168701172 20 0
          24.478979110717773 13.194990158081055 0 24.274250030517578 9.000702857971191 0
          25.34370994567871 4.327282905578613 0 24.47154998779297 0 0
          21 15 0 21 10.843259811401367 0
          21 6.905692100524902 0 19.282169342041016 13.698100090026855 0
          21 3.321547031402588 0 19.531700134277344 9.244172096252441 0
          18.861600875854492 10.96759033203125 0 18.876230239868164 8.006454467773438 0
          21 0 0 18.122079849243164 12.307439804077148 0
          19.210899353027344 5.246811866760254 0 17.48702049255371 13.458939552307129 0
          17.920650482177734 9.497859001159668 0 19.55401039123535 2.1721389293670654 0
          18.10565948486328 6.8028388023376465 0 17.11651039123535 10.95458984375 0
          18.390689849853516 3.9656178951263428 0 17.121780395507812 8.250059127807617 0
          16.441429138183594 12.177860260009766 0 17.33510971069336 5.599215984344482 0
          16.261079788208008 9.61844539642334 0 18.331939697265625 0 0
          16.37948989868164 7.09060001373291 0 17.43825912475586 2.477871894836426 0
          15.530030250549316 10.942770004272461 0 16.465240478515625 4.240429878234863 0
          15.518770217895508 8.458972930908203 0 14.910579681396484 12.065620422363281 0
          15.580659866333008 5.842782974243164 0 14.752360343933105 9.728070259094238 0
          14.776479721069336 7.299490928649902 0 14.087759971618652 10.93202018737793 0
          15.43025016784668 2.6237199306488037 0 14.04539966583252 8.623793601989746 0
          16.123180389404297 0 0 14.639739990234375 4.373022079467773 0
          13.380769729614258 9.827728271484375 0 13.921090126037598 5.963322162628174 0
          13.11305046081543 7.256770133972168 0 12.673810005187988 8.723417282104492 0
          14.193650245666504 0 0 12.980170249938965 4.493560791015625 0
          12.261520385742188 6.083861827850342 0 12.46481990814209 2.2999250888824463 0
          11 6.846733093261719 0 12.522089958190918 0 0
          11 4.945953845977783 0 11 3.106290102005005 0
          11 1.4935599565505981 0 11 0 0
          18.283540725708008 17.52022933959961 0 17.25609016418457 15 0
          20.521530151367188 20 0 12.776570320129395 10.922260284423828 0
          13.51276969909668 11.97500991821289 0 14.336990356445312 13.107600212097168 0
          15.845529556274414 13.259160041809082 0 12.069279670715332 9.813958168029785 0
          11 8.496806144714355 0
          <InformationKey name="L2_NORM_RANGE" location="vtkDataArray" length="2">
            <Value index="0">
              11
            </Value>
            <Value index="1">
              82.462112512
            </Value>
          </InformationKey>
        </DataArray>
      </Points>
      <Cells>
        <DataArray type="Int64" Name="connectivity" format="ascii" RangeMin="0" RangeMax="96">
          0 1 2 5 10 9
          9 10 14 5 9 3
          3 9 8 5 3 1
          8 9 12 3 8 4
          4 8 11 11 8 12
          4 2 3 3 2 1
          16 12 14 11 7 4
          4 7 6 10 13 14
          6 2 4 9 14 12
          88 89 38 88 38 90
          42 46 37 90 38 33
          40 42 36 36 42 37
          40 36 35 37 32 36
          35 36 30 40 35 39
          39 35 34 27 33 31
          30 36 28 35 30 29
          31 33 38 27 31 25
          38 39 34 38 34 31
          31 34 29 29 34 35
          29 30 24 25 31 29
          27 25 22 22 25 20
          32 26 28 24 30 28
          28 36 32 29 24 25
          28 26 23 20 25 24
          22 20 17 23 26 21
          28 23 24 17 20 15
          23 21 18 15 20 19
          17 15 13 18 21 16
          23 18 19 19 20 24
          15 19 14 19 24 23
          18 16 14 13 15 14
          19 18 14 91 74 69
          92 91 69 92 69 65
          69 74 67 74 77 71
          67 74 71 67 71 64
          71 77 76 69 67 62
          65 69 62 65 62 56
          93 92 65 93 65 94
          62 67 58 71 76 68
          64 71 68 64 68 60
          67 64 58 58 64 55
          68 76 75 62 58 53
          94 65 56 94 56 49
          56 62 53 56 53 47
          53 58 50 68 75 66
          60 68 66 60 66 57
          64 60 55 55 60 52
          58 55 50 50 55 45
          49 56 47 49 47 41
          94 49 89 89 49 41
          66 75 73 53 50 44
          47 53 44 47 44 41
          73 75 79 73 79 81
          44 50 43 66 73 63
          52 60 57 52 57 48
          55 52 45 45 52 40
          57 66 63 57 63 54
          50 45 43 43 45 40
          44 43 39 63 73 70
          48 57 54 48 54 42
          52 48 40 70 73 81
          63 70 61 78 72 70
          39 43 40 54 63 61
          54 61 51 61 70 72
          51 61 59 54 51 42
          42 51 46 72 59 61
          44 39 41 89 41 38
          38 41 39 40 48 42
          51 59 46 81 78 70
          91 95 74 74 95 77
          77 95 96 76 77 82
          86 87 83 75 76 80
          85 86 81 96 82 77
          80 76 82 80 82 84
          75 80 79 83 78 81
          81 86 83 85 81 79
          80 84 79 84 85 79
        </DataArray>
        <DataArray type="Int64" Name="offsets" format="ascii" RangeMin="3" RangeMax="462">
          3 6 9 12 15 18
          21 24 27 30 33 36
          39 42 45 48 51 54
          57 60 63 66 69 72
          75 78 81 84 87 90
          93 96 99 102 105 108
          111 114 117 120 123 126
          129 132 135 138 141 144
          147 150 153 156 159 162
          165 168 171 174 177 180
          183 186 189 192 195 198
          201 204 207 210 213 216
          219 222 225 228 231 234
          237 240 243 246 249 252
          255 258 261 264 267 270
          273 276 279 282 285 288
          291 294 297 300 303 306
          309 312 315 318 321 324
          327 330 333 336 339 342
          345 348 351 354 357 360
          363 366 369 372 375 378
          381 384 387 390 393 396
          399 402 405 408 411 414
          417 420 423 426 429 432
          435 438 441 444 447 450
          453 456 459 462
        </DataArray>
        <DataArray type="UInt8" Name="types" format="ascii" RangeMin="5" RangeMax="5">
          5 5 5 5 5 5
          5 5 5 5 5 5
          5 5 5 5 5 5
          5 5 5 5 5 5
          5 5 5 5 5 5
          5 5 5 5 5 5
          5 5 5 5 5 5
          5 5 5 5 5 5
          5 5 5 5 5 5
          5 5 5 5 5 5
          5 5 5 5 5 5
          5 5 5 5 5 5
          5 5 5 5 5 5
          5 5 5 5 5 5
          5 5 5 5 5 5
          5 5 5 5 5 5
          5 5 5 5 5 5
          5 5 5 5 5 5
          5 5 5 5 5 5
          5 5 5 5 5 5
          5 5 5 5 5 5
          5 5 5 5 5 5
          5 5 5 5 5 5
          5 5 5 5 5 5
          5 5 5 5 5 5
          5 5 5 5
        </DataArray>
      </Cells>
    </Piece>
  </UnstructuredGrid>
</VTKFile>
