<?xml version="1.0"?>
<VTKFile type="UnstructuredGrid" version="0.1" byte_order="LittleEndian" header_type="UInt32" compressor="vtkZLibDataCompressor">
  <UnstructuredGrid>
    <Piece NumberOfPoints="421" NumberOfCells="778">
      <PointData>
        <DataArray type="Float64" Name="ale_BC" NumberOfComponents="3" format="ascii" RangeMin="0" RangeMax="0">
          0 0 0 0 0 0
          0 0 0 0 0 0
          0 0 0 0 0 0
          0 0 0 0 0 0
          0 0 0 0 0 0
          0 0 0 0 0 0
          0 0 0 0 0 0
          0 0 0 0 0 0
          0 0 0 0 0 0
          0 0 0 0 0 0
          0 0 0 0 0 0
          0 0 0 0 0 0
          0 0 0 0 0 0
          0 0 0 0 0 0
          0 0 0 0 0 0
          0 0 0 0 0 0
          0 0 0 0 0 0
          0 0 0 0 0 0
          0 0 0 0 0 0
          0 0 0 0 0 0
          0 0 0 0 0 0
          0 0 0 0 0 0
          0 0 0 0 0 0
          0 0 0 0 0 0
          0 0 0 0 0 0
          0 0 0 0 0 0
          0 0 0 0 0 0
          0 0 0 0 0 0
          0 0 0 0 0 0
          0 0 0 0 0 0
          0 0 0 0 0 0
          0 0 0 0 0 0
          0 0 0 0 0 0
          0 0 0 0 0 0
          0 0 0 0 0 0
          0 0 0 0 0 0
          0 0 0 0 0 0
          0 0 0 0 0 0
          0 0 0 0 0 0
          0 0 0 0 0 0
          0 0 0 0 0 0
          0 0 0 0 0 0
          0 0 0 0 0 0
          0 0 0 0 0 0
          0 0 0 0 0 0
          0 0 0 0 0 0
          0 0 0 0 0 0
          0 0 0 0 0 0
          0 0 0 0 0 0
          0 0 0 0 0 0
          0 0 0 0 0 0
          0 0 0 0 0 0
          0 0 0 0 0 0
          0 0 0 0 0 0
          0 0 0 0 0 0
          0 0 0 0 0 0
          0 0 0 0 0 0
          0 0 0 0 0 0
          0 0 0 0 0 0
          0 0 0 0 0 0
          0 0 0 0 0 0
          0 0 0 0 0 0
          0 0 0 0 0 0
          0 0 0 0 0 0
          0 0 0 0 0 0
          0 0 0 0 0 0
          0 0 0 0 0 0
          0 0 0 0 0 0
          0 0 0 0 0 0
          0 0 0 0 0 0
          0 0 0 0 0 0
          0 0 0 0 0 0
          0 0 0 0 0 0
          0 0 0 0 0 0
          0 0 0 0 0 0
          0 0 0 0 0 0
          0 0 0 0 0 0
          0 0 0 0 0 0
          0 0 0 0 0 0
          0 0 0 0 0 0
          0 0 0 0 0 0
          0 0 0 0 0 0
          0 0 0 0 0 0
          0 0 0 0 0 0
          0 0 0 0 0 0
          0 0 0 0 0 0
          0 0 0 0 0 0
          0 0 0 0 0 0
          0 0 0 0 0 0
          0 0 0 0 0 0
          0 0 0 0 0 0
          0 0 0 0 0 0
          0 0 0 0 0 0
          0 0 0 0 0 0
          0 0 0 0 0 0
          0 0 0 0 0 0
          0 0 0 0 0 0
          0 0 0 0 0 0
          0 0 0 0 0 0
          0 0 0 0 0 0
          0 0 0 0 0 0
          0 0 0 0 0 0
          0 0 0 0 0 0
          0 0 0 0 0 0
          0 0 0 0 0 0
          0 0 0 0 0 0
          0 0 0 0 0 0
          0 0 0 0 0 0
          0 0 0 0 0 0
          0 0 0 0 0 0
          0 0 0 0 0 0
          0 0 0 0 0 0
          0 0 0 0 0 0
          0 0 0 0 0 0
          0 0 0 0 0 0
          0 0 0 0 0 0
          0 0 0 0 0 0
          0 0 0 0 0 0
          0 0 0 0 0 0
          0 0 0 0 0 0
          0 0 0 0 0 0
          0 0 0 0 0 0
          0 0 0 0 0 0
          0 0 0 0 0 0
          0 0 0 0 0 0
          0 0 0 0 0 0
          0 0 0 0 0 0
          0 0 0 0 0 0
          0 0 0 0 0 0
          0 0 0 0 0 0
          0 0 0 0 0 0
          0 0 0 0 0 0
          0 0 0 0 0 0
          0 0 0 0 0 0
          0 0 0 0 0 0
          0 0 0 0 0 0
          0 0 0 0 0 0
          0 0 0 0 0 0
          0 0 0 0 0 0
          0 0 0 0 0 0
          0 0 0 0 0 0
          0 0 0 0 0 0
          0 0 0 0 0 0
          0 0 0 0 0 0
          0 0 0 0 0 0
          0 0 0 0 0 0
          0 0 0 0 0 0
          0 0 0 0 0 0
          0 0 0 0 0 0
          0 0 0 0 0 0
          0 0 0 0 0 0
          0 0 0 0 0 0
          0 0 0 0 0 0
          0 0 0 0 0 0
          0 0 0 0 0 0
          0 0 0 0 0 0
          0 0 0 0 0 0
          0 0 0 0 0 0
          0 0 0 0 0 0
          0 0 0 0 0 0
          0 0 0 0 0 0
          0 0 0 0 0 0
          0 0 0 0 0 0
          0 0 0 0 0 0
          0 0 0 0 0 0
          0 0 0 0 0 0
          0 0 0 0 0 0
          0 0 0 0 0 0
          0 0 0 0 0 0
          0 0 0 0 0 0
          0 0 0 0 0 0
          0 0 0 0 0 0
          0 0 0 0 0 0
          0 0 0 0 0 0
          0 0 0 0 0 0
          0 0 0 0 0 0
          0 0 0 0 0 0
          0 0 0 0 0 0
          0 0 0 0 0 0
          0 0 0 0 0 0
          0 0 0 0 0 0
          0 0 0 0 0 0
          0 0 0 0 0 0
          0 0 0 0 0 0
          0 0 0 0 0 0
          0 0 0 0 0 0
          0 0 0 0 0 0
          0 0 0 0 0 0
          0 0 0 0 0 0
          0 0 0 0 0 0
          0 0 0 0 0 0
          0 0 0 0 0 0
          0 0 0 0 0 0
          0 0 0 0 0 0
          0 0 0 0 0 0
          0 0 0 0 0 0
          0 0 0 0 0 0
          0 0 0 0 0 0
          0 0 0 0 0 0
          0 0 0 0 0 0
          0 0 0 0 0 0
          0 0 0 0 0 0
          0 0 0 0 0 0
          0 0 0 0 0 0
          0 0 0 0 0 0
          0 0 0 0 0 0
          0 0 0 0 0 0
          0 0 0 0 0 0
          0 0 0 0 0 0
          0 0 0 0 0 0
          0 0 0
          <InformationKey name="L2_NORM_RANGE" location="vtkDataArray" length="2">
            <Value index="0">
              0
            </Value>
            <Value index="1">
              0
            </Value>
          </InformationKey>
        </DataArray>
        <DataArray type="Float64" Name="ale_FIXNO" NumberOfComponents="3" format="ascii" RangeMin="1.4142135623730951" RangeMax="5.656854249492381">
          -1 -1 0 -1 -1 0
          1 1 0 -1 -1 0
          -1 -1 0 1 1 0
          -1 -1 0 -1 -1 0
          -1 -1 0 -1 -1 0
          -1 -1 0 -1 -1 0
          -1 -1 0 -1 -1 0
          -1 -1 0 -1 -1 0
          -1 -1 0 -1 -1 0
          -1 -1 0 -1 -1 0
          -1 -1 0 -1 -1 0
          -1 -1 0 1 1 0
          -1 -1 0 -1 -1 0
          -1 -1 0 -1 -1 0
          -1 -1 0 -1 -1 0
          -1 -1 0 -1 -1 0
          -1 -1 0 -1 -1 0
          -1 -1 0 -1 -1 0
          -1 -1 0 -1 -1 0
          -1 -1 0 -1 -1 0
          -1 -1 0 -1 -1 0
          -1 -1 0 -1 -1 0
          -1 -1 0 -1 -1 0
          -1 -1 0 -1 -1 0
          -1 -1 0 -1 -1 0
          -1 -1 0 -1 -1 0
          -1 -1 0 -1 -1 0
          -1 -1 0 -1 -1 0
          -1 -1 0 -1 -1 0
          -1 -1 0 -1 -1 0
          1 1 0 -1 -1 0
          -1 -1 0 -1 -1 0
          -1 -1 0 -1 -1 0
          -1 -1 0 -1 -1 0
          -1 -1 0 -1 -1 0
          -1 -1 0 -1 -1 0
          -1 -1 0 -1 -1 0
          -1 -1 0 -1 -1 0
          -1 -1 0 -1 -1 0
          -1 -1 0 -1 -1 0
          -1 -1 0 -1 -1 0
          -1 -1 0 -1 -1 0
          -1 -1 0 -1 -1 0
          -1 -1 0 -1 -1 0
          -1 -1 0 -1 -1 0
          -1 -1 0 -1 -1 0
          -1 -1 0 -1 -1 0
          -1 -1 0 -1 -1 0
          -1 -1 0 -1 -1 0
          -1 -1 0 -1 -1 0
          -1 -1 0 -1 -1 0
          -1 -1 0 -1 -1 0
          -1 -1 0 -1 -1 0
          -1 -1 0 -1 -1 0
          -1 -1 0 -1 -1 0
          -1 -1 0 -1 -1 0
          -1 -1 0 -1 -1 0
          -1 -1 0 -1 -1 0
          -1 -1 0 -1 -1 0
          -1 -1 0 -1 -1 0
          -1 -1 0 -1 -1 0
          -1 -1 0 -1 -1 0
          1 1 0 -1 -1 0
          -1 -1 0 -1 -1 0
          -1 -1 0 -1 -1 0
          -1 -1 0 -1 -1 0
          -1 -1 0 -1 -1 0
          -1 -1 0 -1 -1 0
          -1 -1 0 -1 -1 0
          -1 -1 0 -1 -1 0
          -1 -1 0 -1 -1 0
          -1 -1 0 -1 -1 0
          -1 -1 0 -1 -1 0
          -1 -1 0 -1 -1 0
          -1 -1 0 -1 -1 0
          -1 -1 0 -1 -1 0
          -1 -1 0 -1 -1 0
          -1 -1 0 -1 -1 0
          -1 -1 0 -1 -1 0
          -1 -1 0 -1 -1 0
          -1 -1 0 -1 -1 0
          -1 -1 0 -1 -1 0
          -1 -1 0 -1 -1 0
          -1 -1 0 -1 -1 0
          -1 -1 0 -1 -1 0
          -1 -1 0 -1 -1 0
          -1 -1 0 -1 -1 0
          -1 -1 0 -1 -1 0
          -1 -1 0 -1 -1 0
          -1 -1 0 -1 -1 0
          -1 -1 0 -1 -1 0
          -1 -1 0 -1 -1 0
          -1 -1 0 -1 -1 0
          -1 -1 0 -1 -1 0
          -1 -1 0 -1 -1 0
          -1 -1 0 -1 -1 0
          -1 -1 0 -1 -1 0
          -1 -1 0 -1 -1 0
          -1 -1 0 -1 -1 0
          -1 -1 0 -1 -1 0
          -1 -1 0 -1 -1 0
          -1 -1 0 -1 -1 0
          -1 -1 0 -1 -1 0
          -1 -1 0 -1 -1 0
          -1 -1 0 -1 -1 0
          -1 -1 0 -1 -1 0
          -1 -1 0 -1 -1 0
          -1 -1 0 -1 -1 0
          -1 -1 0 -1 -1 0
          -1 -1 0 -1 -1 0
          -1 -1 0 -1 -1 0
          -1 -1 0 -1 -1 0
          -1 -1 0 -1 -1 0
          -1 -1 0 -1 -1 0
          -1 -1 0 -1 -1 0
          -1 -1 0 -1 -1 0
          -1 -1 0 -1 -1 0
          -1 -1 0 -1 -1 0
          -1 -1 0 -1 -1 0
          -1 -1 0 -1 -1 0
          -1 -1 0 -1 -1 0
          -1 -1 0 -1 -1 0
          -1 -1 0 -1 -1 0
          -1 -1 0 -1 -1 0
          -1 -1 0 1 1 0
          -1 -1 0 -1 -1 0
          -1 -1 0 -1 -1 0
          -1 -1 0 -1 -1 0
          -1 -1 0 -1 -1 0
          -1 -1 0 -1 -1 0
          -1 -1 0 -1 -1 0
          -1 -1 0 -1 -1 0
          -1 -1 0 -1 -1 0
          -1 -1 0 -1 -1 0
          -1 -1 0 -1 -1 0
          -1 -1 0 -1 -1 0
          -1 -1 0 -1 -1 0
          -1 -1 0 -1 -1 0
          -1 -1 0 -1 -1 0
          -1 -1 0 -1 -1 0
          -1 -1 0 -1 -1 0
          -1 -1 0 -1 -1 0
          -1 -1 0 -1 -1 0
          -1 -1 0 -1 -1 0
          -1 -1 0 -1 -1 0
          -1 -1 0 -1 -1 0
          -1 -1 0 -1 -1 0
          -1 -1 0 -1 -1 0
          -1 -1 0 4 4 0
          4 4 0 -1 -1 0
          4 4 0 -1 -1 0
          4 4 0 -1 -1 0
          -1 -1 0 4 4 0
          4 4 0 -1 -1 0
          -1 -1 0 -1 -1 0
          -1 -1 0 -1 -1 0
          4 4 0 -1 -1 0
          -1 -1 0 -1 -1 0
          -1 -1 0 -1 -1 0
          4 4 0 -1 -1 0
          -1 -1 0 -1 -1 0
          -1 -1 0 4 4 0
          -1 -1 0 -1 -1 0
          -1 -1 0 -1 -1 0
          -1 -1 0 -1 -1 0
          -1 -1 0 -1 -1 0
          -1 -1 0 -1 -1 0
          -1 -1 0 -1 -1 0
          -1 -1 0 4 4 0
          -1 -1 0 -1 -1 0
          -1 -1 0 -1 -1 0
          -1 -1 0 -1 -1 0
          -1 -1 0 -1 -1 0
          4 4 0 -1 -1 0
          -1 -1 0 -1 -1 0
          -1 -1 0 -1 -1 0
          -1 -1 0 -1 -1 0
          -1 -1 0 4 4 0
          -1 -1 0 -1 -1 0
          -1 -1 0 -1 -1 0
          -1 -1 0 -1 -1 0
          4 4 0 -1 -1 0
          -1 -1 0 -1 -1 0
          -1 -1 0 1 1 0
          -1 -1 0 -1 -1 0
          -1 -1 0 4 4 0
          -1 -1 0 -1 -1 0
          -1 -1 0 -1 -1 0
          -1 -1 0 -1 -1 0
          -1 -1 0 -1 -1 0
          1 1 0 -1 -1 0
          -1 -1 0 -1 -1 0
          -1 -1 0 -1 -1 0
          -1 -1 0 -1 -1 0
          -1 -1 0 -1 -1 0
          -1 -1 0 4 4 0
          -1 -1 0 -1 -1 0
          -1 -1 0 -1 -1 0
          -1 -1 0 -1 -1 0
          -1 -1 0 -1 -1 0
          -1 -1 0 -1 -1 0
          -1 -1 0 -1 -1 0
          -1 -1 0 -1 -1 0
          -1 -1 0 -1 -1 0
          -1 -1 0 4 4 0
          -1 -1 0 -1 -1 0
          -1 -1 0 -1 -1 0
          -1 -1 0 -1 -1 0
          -1 -1 0 -1 -1 0
          -1 -1 0 -1 -1 0
          1 1 0
          <InformationKey name="L2_NORM_RANGE" location="vtkDataArray" length="2">
            <Value index="0">
              1.4142135624
            </Value>
            <Value index="1">
              5.6568542495
            </Value>
          </InformationKey>
        </DataArray>
        <DataArray type="Float64" Name="nsi_BC" NumberOfComponents="3" format="ascii" RangeMin="0" RangeMax="0">
          0 0 0 0 0 0
          0 0 0 0 0 0
          0 0 0 0 0 0
          0 0 0 0 0 0
          0 0 0 0 0 0
          0 0 0 0 0 0
          0 0 0 0 0 0
          0 0 0 0 0 0
          0 0 0 0 0 0
          0 0 0 0 0 0
          0 0 0 0 0 0
          0 0 0 0 0 0
          0 0 0 0 0 0
          0 0 0 0 0 0
          0 0 0 0 0 0
          0 0 0 0 0 0
          0 0 0 0 0 0
          0 0 0 0 0 0
          0 0 0 0 0 0
          0 0 0 0 0 0
          0 0 0 0 0 0
          0 0 0 0 0 0
          0 0 0 0 0 0
          0 0 0 0 0 0
          0 0 0 0 0 0
          0 0 0 0 0 0
          0 0 0 0 0 0
          0 0 0 0 0 0
          0 0 0 0 0 0
          0 0 0 0 0 0
          0 0 0 0 0 0
          0 0 0 0 0 0
          0 0 0 0 0 0
          0 0 0 0 0 0
          0 0 0 0 0 0
          0 0 0 0 0 0
          0 0 0 0 0 0
          0 0 0 0 0 0
          0 0 0 0 0 0
          0 0 0 0 0 0
          0 0 0 0 0 0
          0 0 0 0 0 0
          0 0 0 0 0 0
          0 0 0 0 0 0
          0 0 0 0 0 0
          0 0 0 0 0 0
          0 0 0 0 0 0
          0 0 0 0 0 0
          0 0 0 0 0 0
          0 0 0 0 0 0
          0 0 0 0 0 0
          0 0 0 0 0 0
          0 0 0 0 0 0
          0 0 0 0 0 0
          0 0 0 0 0 0
          0 0 0 0 0 0
          0 0 0 0 0 0
          0 0 0 0 0 0
          0 0 0 0 0 0
          0 0 0 0 0 0
          0 0 0 0 0 0
          0 0 0 0 0 0
          0 0 0 0 0 0
          0 0 0 0 0 0
          0 0 0 0 0 0
          0 0 0 0 0 0
          0 0 0 0 0 0
          0 0 0 0 0 0
          0 0 0 0 0 0
          0 0 0 0 0 0
          0 0 0 0 0 0
          0 0 0 0 0 0
          0 0 0 0 0 0
          0 0 0 0 0 0
          0 0 0 0 0 0
          0 0 0 0 0 0
          0 0 0 0 0 0
          0 0 0 0 0 0
          0 0 0 0 0 0
          0 0 0 0 0 0
          0 0 0 0 0 0
          0 0 0 0 0 0
          0 0 0 0 0 0
          0 0 0 0 0 0
          0 0 0 0 0 0
          0 0 0 0 0 0
          0 0 0 0 0 0
          0 0 0 0 0 0
          0 0 0 0 0 0
          0 0 0 0 0 0
          0 0 0 0 0 0
          0 0 0 0 0 0
          0 0 0 0 0 0
          0 0 0 0 0 0
          0 0 0 0 0 0
          0 0 0 0 0 0
          0 0 0 0 0 0
          0 0 0 0 0 0
          0 0 0 0 0 0
          0 0 0 0 0 0
          0 0 0 0 0 0
          0 0 0 0 0 0
          0 0 0 0 0 0
          0 0 0 0 0 0
          0 0 0 0 0 0
          0 0 0 0 0 0
          0 0 0 0 0 0
          0 0 0 0 0 0
          0 0 0 0 0 0
          0 0 0 0 0 0
          0 0 0 0 0 0
          0 0 0 0 0 0
          0 0 0 0 0 0
          0 0 0 0 0 0
          0 0 0 0 0 0
          0 0 0 0 0 0
          0 0 0 0 0 0
          0 0 0 0 0 0
          0 0 0 0 0 0
          0 0 0 0 0 0
          0 0 0 0 0 0
          0 0 0 0 0 0
          0 0 0 0 0 0
          0 0 0 0 0 0
          0 0 0 0 0 0
          0 0 0 0 0 0
          0 0 0 0 0 0
          0 0 0 0 0 0
          0 0 0 0 0 0
          0 0 0 0 0 0
          0 0 0 0 0 0
          0 0 0 0 0 0
          0 0 0 0 0 0
          0 0 0 0 0 0
          0 0 0 0 0 0
          0 0 0 0 0 0
          0 0 0 0 0 0
          0 0 0 0 0 0
          0 0 0 0 0 0
          0 0 0 0 0 0
          0 0 0 0 0 0
          0 0 0 0 0 0
          0 0 0 0 0 0
          0 0 0 0 0 0
          0 0 0 0 0 0
          0 0 0 0 0 0
          0 0 0 0 0 0
          0 0 0 0 0 0
          0 0 0 0 0 0
          0 0 0 0 0 0
          0 0 0 0 0 0
          0 0 0 0 0 0
          0 0 0 0 0 0
          0 0 0 0 0 0
          0 0 0 0 0 0
          0 0 0 0 0 0
          0 0 0 0 0 0
          0 0 0 0 0 0
          0 0 0 0 0 0
          0 0 0 0 0 0
          0 0 0 0 0 0
          0 0 0 0 0 0
          0 0 0 0 0 0
          0 0 0 0 0 0
          0 0 0 0 0 0
          0 0 0 0 0 0
          0 0 0 0 0 0
          0 0 0 0 0 0
          0 0 0 0 0 0
          0 0 0 0 0 0
          0 0 0 0 0 0
          0 0 0 0 0 0
          0 0 0 0 0 0
          0 0 0 0 0 0
          0 0 0 0 0 0
          0 0 0 0 0 0
          0 0 0 0 0 0
          0 0 0 0 0 0
          0 0 0 0 0 0
          0 0 0 0 0 0
          0 0 0 0 0 0
          0 0 0 0 0 0
          0 0 0 0 0 0
          0 0 0 0 0 0
          0 0 0 0 0 0
          0 0 0 0 0 0
          0 0 0 0 0 0
          0 0 0 0 0 0
          0 0 0 0 0 0
          0 0 0 0 0 0
          0 0 0 0 0 0
          0 0 0 0 0 0
          0 0 0 0 0 0
          0 0 0 0 0 0
          0 0 0 0 0 0
          0 0 0 0 0 0
          0 0 0 0 0 0
          0 0 0 0 0 0
          0 0 0 0 0 0
          0 0 0 0 0 0
          0 0 0 0 0 0
          0 0 0 0 0 0
          0 0 0 0 0 0
          0 0 0 0 0 0
          0 0 0 0 0 0
          0 0 0 0 0 0
          0 0 0 0 0 0
          0 0 0 0 0 0
          0 0 0 0 0 0
          0 0 0 0 0 0
          0 0 0
          <InformationKey name="L2_NORM_RANGE" location="vtkDataArray" length="2">
            <Value index="0">
              0
            </Value>
            <Value index="1">
              0
            </Value>
          </InformationKey>
        </DataArray>
        <DataArray type="Float64" Name="nsi_FIXNO" NumberOfComponents="3" format="ascii" RangeMin="1" RangeMax="1.4142135623730951">
          -1 -1 0 -1 -1 0
          0 1 0 -1 -1 0
          -1 -1 0 0 1 0
          -1 -1 0 -1 -1 0
          -1 -1 0 -1 -1 0
          -1 -1 0 -1 -1 0
          -1 -1 0 -1 -1 0
          -1 -1 0 -1 -1 0
          -1 -1 0 -1 -1 0
          -1 -1 0 -1 -1 0
          -1 -1 0 -1 -1 0
          -1 -1 0 0 1 0
          -1 -1 0 -1 -1 0
          -1 -1 0 -1 -1 0
          -1 -1 0 -1 -1 0
          -1 -1 0 -1 -1 0
          -1 -1 0 -1 -1 0
          -1 -1 0 -1 -1 0
          -1 -1 0 -1 -1 0
          -1 -1 0 -1 -1 0
          -1 -1 0 -1 -1 0
          -1 -1 0 -1 -1 0
          -1 -1 0 -1 -1 0
          -1 -1 0 -1 -1 0
          -1 -1 0 -1 -1 0
          -1 -1 0 -1 -1 0
          -1 -1 0 -1 -1 0
          -1 -1 0 -1 -1 0
          -1 -1 0 -1 -1 0
          -1 -1 0 -1 -1 0
          0 1 0 -1 -1 0
          -1 -1 0 -1 -1 0
          -1 -1 0 -1 -1 0
          -1 -1 0 -1 -1 0
          -1 -1 0 -1 -1 0
          -1 -1 0 -1 -1 0
          -1 -1 0 -1 -1 0
          -1 -1 0 -1 -1 0
          -1 -1 0 -1 -1 0
          -1 -1 0 -1 -1 0
          -1 -1 0 -1 -1 0
          -1 -1 0 -1 -1 0
          -1 -1 0 -1 -1 0
          -1 -1 0 -1 -1 0
          -1 -1 0 -1 -1 0
          -1 -1 0 -1 -1 0
          -1 -1 0 -1 -1 0
          -1 -1 0 -1 -1 0
          -1 -1 0 -1 -1 0
          -1 -1 0 -1 -1 0
          -1 -1 0 -1 -1 0
          -1 -1 0 -1 -1 0
          -1 -1 0 -1 -1 0
          -1 -1 0 -1 -1 0
          -1 -1 0 -1 -1 0
          -1 -1 0 -1 -1 0
          -1 -1 0 -1 -1 0
          -1 -1 0 -1 -1 0
          -1 -1 0 -1 -1 0
          -1 -1 0 -1 -1 0
          -1 -1 0 -1 -1 0
          -1 -1 0 -1 -1 0
          0 1 0 -1 -1 0
          -1 -1 0 -1 -1 0
          -1 -1 0 -1 -1 0
          -1 -1 0 -1 -1 0
          -1 -1 0 -1 -1 0
          -1 -1 0 -1 -1 0
          -1 -1 0 -1 -1 0
          -1 -1 0 -1 -1 0
          -1 -1 0 -1 -1 0
          -1 -1 0 -1 -1 0
          -1 -1 0 -1 -1 0
          -1 -1 0 -1 -1 0
          -1 -1 0 -1 -1 0
          -1 -1 0 -1 -1 0
          -1 -1 0 -1 -1 0
          -1 -1 0 -1 -1 0
          -1 -1 0 -1 -1 0
          -1 -1 0 -1 -1 0
          -1 -1 0 -1 -1 0
          -1 -1 0 -1 -1 0
          -1 -1 0 -1 -1 0
          -1 -1 0 -1 -1 0
          -1 -1 0 -1 -1 0
          -1 -1 0 -1 -1 0
          -1 -1 0 -1 -1 0
          -1 -1 0 -1 -1 0
          -1 -1 0 -1 -1 0
          -1 -1 0 -1 -1 0
          -1 -1 0 -1 -1 0
          -1 -1 0 -1 -1 0
          -1 -1 0 -1 -1 0
          -1 -1 0 -1 -1 0
          -1 -1 0 -1 -1 0
          -1 -1 0 -1 -1 0
          -1 -1 0 -1 -1 0
          -1 -1 0 -1 -1 0
          -1 -1 0 -1 -1 0
          -1 -1 0 -1 -1 0
          -1 -1 0 -1 -1 0
          -1 -1 0 -1 -1 0
          -1 -1 0 -1 -1 0
          -1 -1 0 -1 -1 0
          -1 -1 0 -1 -1 0
          -1 -1 0 -1 -1 0
          -1 -1 0 -1 -1 0
          -1 -1 0 -1 -1 0
          -1 -1 0 -1 -1 0
          -1 -1 0 -1 -1 0
          -1 -1 0 -1 -1 0
          -1 -1 0 -1 -1 0
          -1 -1 0 -1 -1 0
          -1 -1 0 -1 -1 0
          -1 -1 0 -1 -1 0
          -1 -1 0 -1 -1 0
          -1 -1 0 -1 -1 0
          -1 -1 0 -1 -1 0
          -1 -1 0 -1 -1 0
          -1 -1 0 -1 -1 0
          -1 -1 0 -1 -1 0
          -1 -1 0 -1 -1 0
          -1 -1 0 -1 -1 0
          -1 -1 0 -1 -1 0
          -1 -1 0 0 1 0
          -1 -1 0 -1 -1 0
          -1 -1 0 -1 -1 0
          -1 -1 0 -1 -1 0
          -1 -1 0 -1 -1 0
          -1 -1 0 -1 -1 0
          -1 -1 0 -1 -1 0
          -1 -1 0 -1 -1 0
          -1 -1 0 -1 -1 0
          -1 -1 0 -1 -1 0
          -1 -1 0 -1 -1 0
          -1 -1 0 -1 -1 0
          -1 -1 0 -1 -1 0
          -1 -1 0 -1 -1 0
          -1 -1 0 -1 -1 0
          -1 -1 0 -1 -1 0
          -1 -1 0 -1 -1 0
          -1 -1 0 -1 -1 0
          -1 -1 0 -1 -1 0
          -1 -1 0 -1 -1 0
          -1 -1 0 -1 -1 0
          -1 -1 0 -1 -1 0
          -1 -1 0 -1 -1 0
          -1 -1 0 -1 -1 0
          -1 -1 0 1 1 0
          1 1 0 -1 -1 0
          1 1 0 -1 -1 0
          1 1 0 -1 -1 0
          -1 -1 0 1 1 0
          1 1 0 -1 -1 0
          -1 -1 0 -1 -1 0
          -1 -1 0 -1 -1 0
          1 1 0 -1 -1 0
          -1 -1 0 -1 -1 0
          -1 -1 0 -1 -1 0
          1 1 0 -1 -1 0
          -1 -1 0 -1 -1 0
          -1 -1 0 1 1 0
          -1 -1 0 -1 -1 0
          -1 -1 0 -1 -1 0
          -1 -1 0 -1 -1 0
          -1 -1 0 -1 -1 0
          -1 -1 0 -1 -1 0
          -1 -1 0 -1 -1 0
          -1 -1 0 1 1 0
          -1 -1 0 -1 -1 0
          -1 -1 0 -1 -1 0
          -1 -1 0 -1 -1 0
          -1 -1 0 -1 -1 0
          1 1 0 -1 -1 0
          -1 -1 0 -1 -1 0
          -1 -1 0 -1 -1 0
          -1 -1 0 -1 -1 0
          -1 -1 0 1 1 0
          -1 -1 0 -1 -1 0
          -1 -1 0 -1 -1 0
          -1 -1 0 -1 -1 0
          1 1 0 -1 -1 0
          -1 -1 0 -1 -1 0
          -1 -1 0 0 1 0
          -1 -1 0 -1 -1 0
          -1 -1 0 1 1 0
          -1 -1 0 -1 -1 0
          -1 -1 0 -1 -1 0
          -1 -1 0 -1 -1 0
          -1 -1 0 -1 -1 0
          0 1 0 -1 -1 0
          -1 -1 0 -1 -1 0
          -1 -1 0 -1 -1 0
          -1 -1 0 -1 -1 0
          -1 -1 0 -1 -1 0
          -1 -1 0 1 1 0
          -1 -1 0 -1 -1 0
          -1 -1 0 -1 -1 0
          -1 -1 0 -1 -1 0
          -1 -1 0 -1 -1 0
          -1 -1 0 -1 -1 0
          -1 -1 0 -1 -1 0
          -1 -1 0 -1 -1 0
          -1 -1 0 -1 -1 0
          -1 -1 0 1 1 0
          -1 -1 0 -1 -1 0
          -1 -1 0 -1 -1 0
          -1 -1 0 -1 -1 0
          -1 -1 0 -1 -1 0
          -1 -1 0 -1 -1 0
          0 1 0
          <InformationKey name="L2_NORM_RANGE" location="vtkDataArray" length="2">
            <Value index="0">
              1
            </Value>
            <Value index="1">
              1.4142135624
            </Value>
          </InformationKey>
        </DataArray>
        <DataArray type="Float64" Name="Velocity" NumberOfComponents="3" format="ascii" RangeMin="0.002202973477282777" RangeMax="1.3118485082027922">
          1.0239252311111855 -0.008553574809853314 0 1.0180151455237303 -0.03450591603254843 0
          1.0283550341288292 0 0 1.039821805552496 -0.01877751159435999 0
          0.93557077582399 -0.04470984077498643 0 1.0398905831576146 0 0
          1.0402086390839476 -0.012809491608652043 0 1.0622847412772374 -0.029321646540798284 0
          1.0014322222635936 -0.05257837213159477 0 0.7187415779114978 0.0009429539380086757 0
          1.047605283122834 -0.035160477609593815 0 0.8524023686912787 -0.08162405470143144 0
          0.7993835792739207 0.06410782748312392 0 1.0665558123183132 -0.027178279593634194 0
          1.064422198130284 -0.034103853130779925 0 1.065920253705772 -0.05414226546940911 0
          1.0581840789217203 -0.017691342413595306 0 1.0086075480398864 -0.07289050382994783 0
          0.6587946461918859 -0.033704913566812385 0 0.85872647219041 0.08345155975652216 0
          1.0518594232663976 -0.006732395871427944 0 0.6761073662597492 0.024137136570184913 0
          0.8452851031579227 -0.07556847253286829 0 1.047677343292713 0 0
          1.0757074027728033 -0.034373494512610056 0 1.0862839477552517 -0.048207074461512886 0
          1.0722169617506367 -0.024074984980892774 0 1.068530962135621 -0.059973848437471985 0
          0.9999255529033616 -0.07305545005146423 0 0.5921798669763444 0.006026577191729016 0
          1.0654955460739637 -0.012812778354204184 0 0.6399623163178523 -0.05844314970216717 0
          0.7554676974915 0.06239784361648533 0 0.9942818604543009 0.07831341403739366 0
          1.076166570156032 -0.0201973091730757 0 1.0965432142988423 -0.046877413238878445 0
          1.0852696250358773 -0.030791529034409775 0 1.0952250646953534 -0.05771828967691207 0
          1.0557192523032541 -0.003508597565982438 0 1.062937824070004 -0.0709520185288336 0
          0.9055098344986107 -0.07686287090101351 0 1.0530939433026458 -0.0008450145745963338 0
          0.5192848961773193 -0.023867004545249794 0 0.8798972517921043 0.07876643639624346 0
          0.646882598374336 0.06539529260902834 0 0.6584813668676873 -0.0686564951394203 0
          1.0166554308507203 0.07053214797622064 0 1.079596722110809 -0.01573802570876694 0
          1.0913227811657795 -0.026050212935492683 0 1.1064922425686248 -0.04101863819138847 0
          1.1101285090301556 -0.055705002818706495 0 1.0991967846011887 -0.06725591685054716 0
          1.0159976872626975 -0.07943594153317976 0 1.06760392929926 -0.006180975776624052 0
          1.058289403382225 -0.0019066891178971604 0 0.5041311053059003 -0.0354448724322056 0
          0.8081980335618485 0.07202301155844835 0 0.7825819194431279 -0.06978233765015664 0
          0.9704935629316306 0.06903279260741663 0 0.500798413462294 0.03630874359174048 0
          1.048803102909495 0 0 1.095699547300167 -0.020906075637677518 0
          1.0606165426869592 0.06715412593208223 0 1.11316535454657 -0.03517912269753706 0
          1.1231469212528375 -0.04969515009774421 0 1.1172080907374802 -0.06326462807721912 0
          1.0750843194476176 -0.0688430401219833 0 0.9325911665312182 -0.0757634348124771 0
          0.43217775135504194 -0.02831973187201168 0 1.0920260973800868 -0.01363513904980161 0
          0.5585281249374493 -0.05744198868257285 0 0.6821501379691016 0.07609044871626741 0
          0.9093496524751773 0.07461742541930767 0 1.0641792826457641 -0.0003380017391717091 0
          0.46016196525323816 0.03674581998404677 0 1.0275705261652959 0.07267817194816038 0
          1.1180697912981283 -0.02993067538721811 0 1.132486829119562 -0.044574835661727166 0
          1.0946202788905204 0.06427797642229457 0 1.1341429716951195 -0.05929138993208009 0
          1.1062232692718608 -0.0696713297915679 0 1.0222543257124814 -0.07491648398466991 0
          0.8389603920511703 -0.08553439002413991 0 1.0799070692425845 -0.004879478584505671 0
          0.39572977949970534 -0.04191263573081879 0 0.5848377458801047 0.06000443885755203 0
          0.8293553701544203 0.07448413337763904 0 0.37140536153914755 0.0282400864653861 0
          0.9798148802554866 0.07695212028527183 0 1.1402865294431688 -0.0384662621212726 0
          1.076562560667101 0.07022085987008736 0 1.1470733321481714 -0.05392152808747888 0
          1.1316493278504158 -0.0669511496104646 0 1.0758580802422726 -0.07496236095477356 0
          0.9372925231140797 -0.08302397364604425 0 1.1214172109430907 -0.020995291448847687 0
          1.1182637971414986 0.058373579492024846 0 0.6253374019092002 -0.07333513687635639 0
          0.41294310407646195 -0.03791060092517947 0 0.3167282442097704 -0.0062648893640605535 0
          0.3558452762326705 0.03112707408091343 0 1.0596494521062156 0.0015422228018531503 0
          0.5237650194099404 0.0640398844212288 0 0.7325101864068561 0.0750111451924989 0
          1.1001360129244067 -0.007928239832543437 0 0.9113794439403454 0.07869848531039147 0
          1.0424957986166716 0.07625554513266382 0 1.1507373343382168 -0.06206185277788639 0
          1.0768204835322985 -0.0004847335807623905 0 1.15886540107029 -0.04733255517468379 0
          1.112914795679722 -0.0741513915315381 0 1.0217337516247331 -0.07895717289795784 0
          0.844000906537171 -0.08009864003279683 0 1.1109453118881687 0.06602598776708138 0
          1.1331384052223927 0.05330743935595983 0 0.6497405385348155 -0.0781524656179882 0
          0.4393676544579961 -0.06381500010744272 0 1.125221136931542 -0.016590322300286266 0
          0.2975922165148942 -0.025232490342421143 0 1.1500257622091257 -0.030913670972761653 0
          0.27619335805843365 0.018759730825613885 0 0.42088731876498536 0.05193935171170025 0
          0.6305910988079921 0.07181190883589668 0 0.8286949248148945 0.07764261309329012 0
          1.0448987856019236 0 0 0.9858383225753313 0.07810426793381532 0
          1.1411197468408845 -0.06965211217747183 0 1.070020206455589 -0.07741784169883334 0
          0.9452132348431688 -0.08118476375653191 0 1.0868672638468313 0.07274402809884681 0
          1.168347609920963 -0.05587820114276177 0 1.1335093382881642 0.061471263994028906 0
          1.1695528205611463 -0.04344648744103148 0 1.074778073199518 0.0033836230371363588 0
          0.7380691895396617 -0.08406119978517722 0 0.5036452066148918 -0.07012773297260413 0
          0.30599136875530586 -0.04462770906434059 0 0.22116437555302434 -0.0011966609313438265 0
          0.3046107281764867 0.041228974862188406 0 1.145326020525615 0.04647093026088159 0
          0.5185919252847657 0.06605623711470951 0 1.0925207168332278 0.0010239700651829779 0
          0.7309961742212477 0.07623766545829874 0 0.9152799823986604 0.08003499015997464 0
          1.1069977434429974 -0.07215218873322118 0 1.007691171171468 -0.07940869540244172 0
          1.1199235803902128 -0.007637136136824486 0 1.0405188594750325 0.07594327637320912 0
          0.8579848632515978 -0.08313831784176764 0 1.118577550437217 0.06912535464367793 0
          1.1482889916820926 -0.019426665287602986 0 0.586513016719075 -0.0793904595353942 0
          0.3550772989401126 -0.058092827750335425 0 0.1996487490075207 -0.0268060128052271 0
          0.20603551264998574 0.022565284564200427 0 1.0607318320438521 0.003863463556479331 0
          1.1729547544071215 -0.033735341443746826 0 0.4090534879859088 0.06417097392786401 0
          0.6274749661975638 0.07476446890898415 0 1.1536218929128494 0.05499869432737346 0
          1.1723974502966608 -0.06219406250765399 0 0.8246087841135062 0.07965151469609609 0
          1.1846414710961641 -0.048227901492010596 0 1.055027817734078 -0.07796068612623344 0
          1.1274927184071386 -0.07163321018094636 0 0.979836151651128 0.07820937069638509 0
          0.9290112505748722 -0.08292833981160751 0 0.7502574037815719 -0.08330393154160241 0
          1.1542444013129072 0.041211967162518716 0 1.0857860567475153 0.003513300071746412 0
          1.084774510650238 0.07162875175886639 0 0.4271462860257969 -0.0705263929999039 0
          0.22678469241042767 -0.04504273153762111 0 0.13073904016156887 -0.001774177928014391 0
          1.1152441188601963 -0.002537219643939716 0 0.2997915365799985 0.05706378924706389 0
          0.5180568465187098 0.07405772522830052 0 1.1567274437609372 -0.06589236112648479 0
          1.1463698660585693 -0.012696204793487053 0 0.7278761585511706 0.07978309986124664 0
          1.048876024919995 0.0030602124779651936 0 1.0946285747555329 -0.0735909507914992 0
          0.8993031220636173 0.07958342374759973 0 0.9862205337404 -0.07898087327080054 0
          1.1744940612000152 -0.026401826993882792 0 0.831271250046687 -0.08170810356963601 0
          0.6324310440293408 -0.08351225418274227 0 1.0277181896201524 0.07815426583455667 0
          1.1534663845445585 0.061097257528415605 0 1.1925375259450293 -0.0403565788529782 0
          1.1920825390151046 -0.052619245244464714 0 0.3123101667778547 -0.06167422008703188 0
          0.09186742321705084 -0.01882950206763647 0 0.3934702268643647 0.06773697774188478 0
          0.1713904582429731 0.03816289038228972 0 1.1148256172542539 0.07016345942323297 0
          0.6179398225298045 0.0790694924535143 0 1.180151511550738 -0.06114910792840736 0
          0.8060967292781278 0.07898553007653906 0 1.128846111011208 -0.06893650496073002 0
          1.171649636715713 0.048172954994466166 0 0.9535904321674438 0.07597970426925786 0
          0.5135852044141821 -0.08213919915058572 0 1.0406291222334911 -0.07255509544386064 0
          0.9031357909701557 -0.0769649477463421 0 1.0533166217049543 0.004661925098780532 0
          1.0765699439159484 0.005857724654419417 0 0.14590327557179195 -0.04311942966940845 0
          0.7257222762822364 -0.0797278095882882 0 0.288291642217775 -0.06845014650885613 0
          1.1078745329373825 0.0016185564721555626 0 0.06394002007840334 -0.020902989169140886 0
          0.08992903373453096 0.011620205436712045 0 1.1416477188772496 -0.007505577253113373 0
          0.1576498839759758 0.040973011031169675 0 0.30419928846970695 0.07059198419815214 0
          1.1745889872175674 -0.019754482573703446 0 0.5092096780361068 0.0805942358170607 0
          1.1977322465777465 -0.03467874822544828 0 1.0729228789696839 0.07179982724256188 0
          0.7074259944426814 0.08039169760576093 0 1.2037205561329132 -0.047479241250952896 0
          0.5813962677528914 -0.08093225673246927 0 0.8703726608714651 0.07708325551244007 0
          0.3731223570514346 -0.0804299880020451 0 1.1959734954494512 -0.057419989604723824 0
          0.9973558962836677 0.07657144468533705 0 0.1837519011834606 -0.05999793739133417 0
          1.1606779586503384 -0.0632511896926801 0 0.06644329500617117 -0.02913476797976551 0
          1.1563191098912204 0.06270402261112919 0 1.089386972093103 -0.06732986110550006 0
          0.029046758743740683 -0.00537684776160779 0 0.07764555456828197 0.028076554038272798 0
          1.175743069517362 0.05317003903397373 0 0.9838822310576566 -0.0676271688518458 0
          0.8370033408339438 -0.07060228986204041 0 0.20279202225408782 0.058214731532617366 0
          0.3890920715914238 0.07609450833998435 0 0.6678141137342374 -0.07113236029403053 0
          0.5954851549400639 0.07719337159350204 0 0.4566964928450749 -0.07565693185576065 0
          0.777792636570071 0.0730930269336918 0 0.247428472076475 -0.07020536613978491 0
          0.9206379573669479 0.07102707005469296 0 0.08531257650590963 -0.03693567044532808 0
          0.01186604922704271 -0.009815425261176193 0 1.040022539613756 0.06981872886803278 0
          0.013050257788336142 0.006655127720329825 0 1.030170119776718 0 0
          1.1829717628801812 0.040668931972801026 0 0.09945610429583412 0.03733145159175375 0
          1.1202586113820134 0.0667535287456004 0 0.27488768730182367 0.06477400772069872 0
          0.48364400845827177 0.0706410098956864 0 1.1861975254537254 -0.05938132443836205 0
          1.2089800725865136 -0.05381291850344416 0 1.130042599653491 -0.06292356112693365 0
          1.2140315822075427 -0.04301268188907727 0 1.037458598413754 -0.06255790360720762 0
          1.1721850153414448 0.06128893153000746 0 0.9157185606893005 -0.06182852286717587 0
          1.2016833072383175 -0.028271317029730722 0 0.7532010773684554 -0.06358873682022802 0
          0.5618734977001268 -0.05971181151252916 0 1.1699651924257475 -0.014421818091665277 0
          0.34086942265121517 -0.06446082715595002 0 0.6804669253983567 0.06711106383594705 0
          1.1339946493075974 -0.002509422377855176 0 0.11779063349986578 -0.040836579570018114 0
          1.1871456257954545 0.05026700947890692 0 1.0962873840810607 0.005102181950271983 0
          0.010463386945618389 -0.0070806176238131634 0 0.8398062023259233 0.06530342202684193 0
          -0.005822206384364995 -0.0002895545335521197 0 1.0632371230892963 0.006953269957067967 0
          0.01396859742094912 0.007149852169273519 0 0.14197298296635028 0.041988327314250735 0
          0.9691824730178048 0.06496532407143853 0 0.3582418442426148 0.058799104435693285 0
          0.13341357263984685 -0.04668143595442761 0 0.019696668961350288 -0.005608392029366908 0
          1.0756880697020956 0.06723197800419689 0 -0.001828363793566621 0.0012288929896398812 0
          0.5729923476286559 0.05384729716155751 0 -0.00469665583457906 -0.0013591300608987583 0
          -0.001710417086412307 -0.0039911678800284974 0 0.8383150254563929 -0.05281239079325727 0
          0.020638010412217044 0.0027404207080923607 0 0.3447698325138839 -0.032090357250820344 0
          0.9816498179779339 -0.05740962486676966 0 0.6094615411516131 -0.04529553307781428 0
          1.1478808475007911 0.06277969078362973 0 0.14336364753116426 0.04614816661974894 0
          1.0886892771653707 -0.059402291416873663 0 0.7524619595089667 0.056136816435449315 0
          1.167880004374586 -0.06062145217514055 0 -0.003109793246842646 -0.0018896491152984223 0
          -0.003158253349134625 -0.0018901886717128888 0 1.2056748844726342 -0.05841501855547136 0
          -0.0032093483088250527 -0.0018906020789853702 0 1.1884230048170585 0.05673525935605065 0
          -0.0032657952068966727 -0.0018909003024573385 0 1.221571981556292 -0.05060696141723119 0
          0.8964215152472639 0.058473639402546185 0 -0.0033179429511562128 -0.0018911072873686347 0
          -0.003365848130368058 -0.0018914296431336987 0 0.35888915917845965 0.03292992387423328 0
          1.2225654181017294 -0.03741625669592833 0 0.22358493383332242 0.02111590904436407 0
          1.0142624307254031 0.06125936584568721 0 1.196920699092954 -0.023385629206719338 0
          -0.0031079789473185838 -0.0018346192236720672 0 1.1605076752275976 -0.008559467221613567 0
          0.9100611267268233 -0.05178331098383297 0 0.327954499277619 -0.010481795481571798 0
          0.72511199872296 -0.037976095514890236 0 1.0427123545686476 -0.05792869290957865 0
          -0.003364422653061591 -0.0018376366689108615 0 0.5612509294169101 0.030746801386083506 0
          1.1111447837189603 0.06295864745758059 0 1.1348818396191094 -0.060203160729086894 0
          1.119765705293688 0.0014569627615899242 0 -0.003104898119414856 -0.0017726715011681428 0
          1.1735556718542373 0.06127132966352111 0 0.3472944258042101 0.013386186061015576 0
          1.078871338846639 0.007085674267811161 0 0.7791533045641613 0.040619654627517425 0
          0.9493382719716617 0.05546657950824513 0 1.178848210916851 -0.06382818227176046 0
          1.2198986126997995 -0.061304677314506 0 1.0572856398675667 0.06019970218408595 0
          1.0493252285295613 0.00718535351278563 0 0.9772625942722363 -0.05509708464389517 0
          0.7979942919947737 -0.038775122078642185 0 1.2363705617102778 -0.04857144925506829 0
          0.5381482196221745 -0.018083394070069057 0 -0.003099540780517455 -0.0017021502686862104 0
          0.3100027690742549 -0.0058745287523070755 0 1.0970459975817617 -0.05976153589571054 0
          0.8691724417180985 0.04407397275264033 0 1.191821634020543 -0.01970649357725441 0
          1.233934754843907 -0.040249741829265016 0 1.1234645265775336 0.06439843150910703 0
          1.010283821218907 0.05696146694735008 0 1.1455084345345479 -0.004165858579317518 0
          -0.003089593764178082 -0.0016212980294584545 0 1.1329566476445392 -0.06437440591354278 0
          1.0419209424387188 -0.06058891908038699 0 0.8664031348731936 -0.04635668231066012 0
          0.640096016359216 -0.022704497482951416 0 1.1005952731565793 0.003999777635372605 0
          1.2459819667731866 -0.06403906018591161 0 0.2983477252032995 -0.00502798244094286 0
          1.1962932648165803 -0.07330031856742779 0 -0.003073337063831333 -0.0015264751917960944 0
          1.1880640973641192 -0.018539085063123337 0 1.2316794089266443 -0.039559801652286695 0
          1.0941791967723773 -0.07419479125339984 0 0.9393292619739277 -0.05353796408546621 0
          0.6549217568287404 -0.027462810113886273 0 0.28676895800704016 -0.0039495353920870075 0
          -0.003047273556211983 -0.0014115755681040813 0 1.0691975490136496 0.005266644202082653 0
          1.2646129559140271 -0.0641516503650047 0 1.2404884749733507 -0.0820798135371684 0
          1.128795763884132 -0.002201268608252887 0 1.0116360497289711 0 0
          1.143379409934663 -0.08737111023750989 0 0.9957312013453077 -0.06969065262152051 0
          0.8003064913950306 -0.045030405691269176 0 -0.0030060460641476846 -0.00126556496590073 0
          1.2251110803041474 -0.03467730529805153 0 0.2736497365274427 -0.0039095779173427625 0
          1.2740499061082795 -0.06709331626589414 0 1.2790050123615557 -0.09204066294146093 0
          1.1864992150146878 -0.1084761354952333 0 1.051030111591057 -0.09132079527531162 0
          0.8630839136145401 -0.06425332565479207 0 0.5749627285390403 -0.029428158137361653 0
          1.0188300363047156 0 0 1.0131945517187675 -0.008101857991673908 0
          1.0233066755517046 -0.0187865419752328 0 0.9509875391745417 -0.029646579281800912 0
          1.0057609946557526 -0.02574240285530801 0 0.8148653674004339 0.0007360731839059567 0
          0.9505407081159369 0.03677425917965878 0 0.9270902393481477 0.04884257440053431 0
          1.0698022929426296 0.056564155915029876 0 1.0625772259994484 0.04677826653809196 0
          0.9878930630036082 0.06613062690343015 0 -0.003362051686186625 -0.0017770865343045836 0
          0.3307403139880174 0.0032973095433731434 0 0.5487325790634909 0.022007258569863294 0
          0.7207232088513763 0.02860012105439379 0 0.8558214718210946 0.03975595466158778 0
          1.0185490919101958 0.05979848979690116 0 1.2061612245460422 0.0510625233231754 0
          1.1627309706494904 0.06553116685796313 0 1.1992325004498001 0.04421513483430573 0
          1.2000706188881578 0.0583879575338796 0 1.1530338378023348 0.03211858224543248 0
          1.1842134943899458 0.03286876644450272 0 1.161727580297052 0.027875595921416172 0
          1.128355124971682 0.038294770117623535 0 1.1211267010309733 0.044272038227127344 0
          1.134165650852237 0.03233843552693332 0 1.1110613320869742 0.049698287235142864 0
          1.0940690292309942 0.054600998434791326 0 -0.0029435998240447546 -0.0010716178331206887 0
          0.245340037280476 -0.008812125273843046 0 0.9192093054185292 -0.09519238424193135 0
          0.6362899613368848 -0.04900725612641741 0 1.1037466146517017 -0.12485291374637761 0
          1.2386818311667231 -0.13107136723074955 0 1.3072705181104554 -0.1095002326623688 0
          1.287148031539295 -0.06977854161748943 0 1.212784629802538 -0.030238446453640266 0
          1.1216242269710028 -0.006518466570070064 0 1.050888658815887 0.0028610522008121913 0
          1.001454135660529 0 0
          <InformationKey name="L2_NORM_RANGE" location="vtkDataArray" length="2">
            <Value index="0">
              0.0022029734773
            </Value>
            <Value index="1">
              1.3118485082
            </Value>
          </InformationKey>
        </DataArray>
        <DataArray type="Float64" Name="Pressure" format="ascii" RangeMin="-181.9360856558526" RangeMax="-1.3226583166777952">
          -11.948069868973423 -7.850545356850769 -16.703511895686376 -11.118881372085724 -3.395304872553565 -24.80971963019844
          -22.405988317861468 -15.908677222468526 -5.070233377607886 -1.3226583166777952 -9.198441798300752 -3.7528311930983485
          -11.070865875875127 -22.11015382721314 -16.431017863172322 -13.631904320498842 -27.636231298600357 -12.879439505709183
          -2.8568436500977588 -12.142520142250275 -33.847453452730214 -2.7786907589744807 -8.21474695439797 -36.7339384911982
          -24.650658198459663 -20.41745299765584 -29.414304323580893 -16.847400552040426 -16.232237512690464 -5.020631243389938
          -37.219126317424745 -7.678666545232262 -12.792616038674174 -15.888771603490447 -36.27006770889702 -28.38824998387068
          -32.60392035848502 -24.41385468086633 -42.33260519167972 -21.742048313051033 -20.344853902857366 -46.2170425609307
          -10.196564082333804 -17.660199307893198 -12.515162885906397 -16.86758694814215 -20.651678742169427 -42.65939483291297
          -39.72278884895368 -36.58991309698048 -32.99835211300593 -30.865171050289796 -27.92406231816513 -47.7799226480819
          -49.64747637049117 -20.994965775300493 -22.062779504738362 -25.317105195424443 -24.245650428507613 -18.888243425137052
          -53.231050813212946 -46.47114832902607 -27.86384070883291 -43.56722590599031 -40.4900020453653 -36.82186714990833
          -33.56074383236334 -32.106173494815394 -24.01736111856674 -52.39519224389401 -28.199805293327028 -28.974067820246553
          -30.83198447203718 -57.69421934778512 -26.80161216920881 -32.99670295689781 -50.013300741277476 -47.27701718903341
          -35.510810668246535 -44.73810889243097 -40.930842924585264 -38.41575269658756 -39.108546250954944 -57.883528894456
          -30.56772806905595 -33.69587752305765 -37.073655488720426 -30.810280563743216 -39.10838742136252 -54.14453939166989
          -40.85114844038212 -51.77325680021645 -49.870359619123825 -47.876819747662005 -46.49452438179417 -58.38849247751132
          -43.7463199671007 -43.13103861495444 -43.06896456638906 -40.34357992848339 -41.054964111796664 -67.84249217879739
          -42.19255853564653 -44.31742288059122 -64.47242356503877 -46.24396925295037 -47.17357582796837 -56.95427102969082
          -67.80017169410242 -59.1863186906096 -55.76162965624675 -54.46444802597871 -54.06324612078844 -49.38681324302635
          -51.42285875525419 -54.67583167248676 -51.0595687864608 -66.27702367742394 -49.447877258580256 -64.15677631973328
          -48.6730146645193 -49.6095142146728 -52.30583223301444 -53.3013823736822 -74.42254052041567 -54.048257261228045
          -62.49474343717346 -62.559078846786136 -60.28476943260676 -55.372446485910075 -64.61767693131274 -57.06446702416977
          -66.58338505502822 -75.30832687709852 -64.22605635783329 -61.90444296274685 -59.45213225241602 -57.57664048873619
          -58.44285766854264 -58.52397106758008 -60.60336503804195 -75.1793387637958 -61.300396489036736 -61.18594350380624
          -69.93345781582946 -69.78785646274044 -74.29789133290313 -62.24152138743108 -69.68822210559023 -63.01568463111799
          -73.29193422098164 -72.91076757229148 -69.724289699177 -68.03989854961969 -67.73049195506745 -81.58535683730848
          -72.73451600144995 -69.16200506876689 -69.71980362340446 -64.14432028981365 -73.6080509169147 -69.58870273812686
          -72.83316594876416 -75.91736036424527 -75.27513679028452 -69.35081012533914 -78.0404354412038 -79.54275797038825
          -65.08418389630717 -82.4019503143443 -70.80326996410614 -82.03291383763363 -79.64550155939276 -78.06618016971159
          -81.02641562266652 -77.63730053623237 -79.09894148559016 -78.04189856413295 -79.38069822430867 -78.47439443941113
          -87.70758941830002 -80.20316221135501 -77.77744604413937 -84.26712864303597 -78.47265263205442 -87.31746281157615
          -88.68745536568068 -75.7694159159824 -71.97554378833367 -78.16299524060292 -78.0039039406328 -91.79542323446131
          -89.06642031636568 -88.50826979995934 -88.34642251813271 -76.22847502892729 -88.11487663456064 -80.49977937197123
          -86.9380363239782 -83.98132334543175 -72.60892742553557 -84.06836943731537 -101.26861608254308 -89.35950282646444
          -95.91053659738594 -92.40294924491715 -90.96258783608877 -101.1649609974675 -102.30853809812592 -104.01936339628452
          -88.69177388117417 -103.6820437498574 -103.99820234534052 -86.14245721331159 -103.19434739343346 -101.1722164479866
          -83.80792583736739 -100.2488130724809 -82.4458031371205 -83.57034742787596 -97.76729617179139 -81.98727461563097
          -110.07578639395965 -93.1899104880121 -113.76908936670972 -82.95022886892879 -87.79759737804501 -116.75934140611163
          -85.99267700893908 -119.43781972302776 -82.17288121849649 -90.9235101163745 -120.22090354883426 -119.54368981176071
          -79.07016644897034 -97.48999283493842 -105.60146730256379 -116.95025645967003 -114.39262479501203 -113.95261499755205
          -109.67851124633368 -122.97840787556332 -103.53492949332202 -128.88926547068135 -97.24662590540521 -132.660662033066
          -133.73699060355347 -91.79495864230536 -133.59156435811374 -100.36744344150068 -79.2993575295115 -132.31758783707582
          -87.51166502185568 -129.00515004092244 -123.2402949031843 -86.39113160062317 -85.5878463357756 -90.48815942284956
          -85.99944440867058 -96.93109649651367 -84.50269016209073 -105.44415550697903 -87.64993812299069 -115.79097825200742
          -125.75021429487958 -91.08472707441014 -136.03448742878982 -114.46566996786244 -94.6862865593637 -143.4344317944666
          -81.98835377114852 -98.68975195391235 -143.99337300533588 -106.55993364848078 -142.72059408379346 -102.09417218103067
          -144.11788451924346 -142.31332563970327 -99.56601708761487 -134.69022871105847 -148.6361535082022 -153.29046831409943
          -93.3418896881389 -150.10471995301478 -124.80708506259879 -148.39947685202185 -150.04173672788446 -108.8040969741472
          -153.2301290491182 -134.4573695221953 -100.45536801851493 -121.92777162054507 -89.01607259007413 -147.09410580481278
          -94.02971983133816 -114.4551212363077 -88.74354843182505 -144.29171968163612 -154.74357341710362 -87.69904244472157
          -151.04975388168907 -87.25449321240835 -151.00529826261774 -88.75371123330086 -105.69120485760929 -154.7835243643998
          -143.65176343641417 -133.32338669652265 -90.1373242325482 -132.90523260483016 -98.78117779589427 -94.27207208899564
          -126.4486478824705 -99.52628180300496 -100.14817513867644 -117.7834197332025 -108.02746918024363 -95.16429542340282
          -124.80746726750539 -120.21541033991588 -92.38951865140426 -89.57499552528641 -104.62513126458768 -114.32651048353394
          -90.43911976478695 -118.24839274516356 -110.20517773034693 -109.32033485059264 -100.49126476122055 -86.12205486262168
          -87.63078515991612 -94.38800477434567 -115.38431172099722 -91.33035336188479 -95.84473057332778 -91.07820686905919
          -101.70032489113028 -104.53123277441368 -103.11120304537411 -87.50340217784462 -99.95035873624835 -102.45769836661113
          -94.81000711646942 -92.2678372384975 -93.47964360390375 -109.96696125894951 -93.66549277340452 -83.46083303013299
          -80.99809539853231 -84.8546593403265 -87.84124251580324 -116.80474972634909 -89.09519226164474 -88.22002822316355
          -84.12455459024768 -84.79678336756122 -112.07217155957413 -104.62377282154004 -73.40141661054517 -73.21351792644586
          -75.1420446149142 -73.73186915065631 -74.63034627461221 -128.04077504870526 -96.33030767056749 -86.5552125886046
          -123.37045085363783 -134.6865332866653 -72.81225073442651 -66.90817660637795 -66.57233118173843 -65.65888456521104
          -118.82186402999788 -61.53569107622821 -109.55499043317982 -93.81421068071093 -75.46872649578917 -63.21308104256152
          -58.12204944381268 -56.90205329565851 -10.730659407758464 -8.680592363345228 -8.595582109463622 -3.6503837424535974
          -4.882345265092083 -6.704609236208614 -5.910364071880631 -7.005436876010076 -24.899168619146526 -20.436078872590535
          -8.70666720394439 -113.54870968850712 -104.45434488769294 -110.16406522397614 -100.88605954706428 -91.9991577107758
          -89.33373846350962 -89.316221952171 -88.72945581014898 -85.57892302481804 -90.04526608502186 -70.47423477816652
          -85.78181195988873 -78.69960513426417 -52.76107621388186 -46.024699301706875 -59.689610489875996 -38.63210225745515
          -30.619146601141246 -56.84754381398623 -51.55221303575689 -54.87362264457011 -51.70019932859098 -66.11435721799631
          -83.75992464105427 -102.24222903884088 -120.83757420590874 -136.1786672407051 -147.03717747238443 -154.30381401390906
          -181.9360856558526
        </DataArray>
        <DataArray type="Float64" Name="BTraction" NumberOfComponents="3" format="ascii" RangeMin="0" RangeMax="183.0564402044486">
          0 0 0 0 0 0
          0.0020462896994875106 17.50064935490422 0 0 0 0
          0 0 0 -0.06512783467786637 25.867257134721537 0
          0 0 0 0 0 0
          0 0 0 0 0 0
          0 0 0 0 0 0
          0 0 0 0 0 0
          0 0 0 0 0 0
          0 0 0 0 0 0
          0 0 0 0 0 0
          0 0 0 0 0 0
          0 0 0 -0.24530950265728843 37.73270090538542 0
          0 0 0 0 0 0
          0 0 0 0 0 0
          0 0 0 0 0 0
          0 0 0 0 0 0
          0 0 0 0 0 0
          0 0 0 0 0 0
          0 0 0 0 0 0
          0 0 0 0 0 0
          0 0 0 0 0 0
          0 0 0 0 0 0
          0 0 0 0 0 0
          0 0 0 0 0 0
          0 0 0 0 0 0
          0 0 0 0 0 0
          0 0 0 0 0 0
          0 0 0 0 0 0
          0 0 0 0 0 0
          0 0 0 0 0 0
          -0.49146137698873976 54.00954168642673 0 0 0 0
          0 0 0 0 0 0
          0 0 0 0 0 0
          0 0 0 0 0 0
          0 0 0 0 0 0
          0 0 0 0 0 0
          0 0 0 0 0 0
          0 0 0 0 0 0
          0 0 0 0 0 0
          0 0 0 0 0 0
          0 0 0 0 0 0
          0 0 0 0 0 0
          0 0 0 0 0 0
          0 0 0 0 0 0
          0 0 0 0 0 0
          0 0 0 0 0 0
          0 0 0 0 0 0
          0 0 0 0 0 0
          0 0 0 0 0 0
          0 0 0 0 0 0
          0 0 0 0 0 0
          0 0 0 0 0 0
          0 0 0 0 0 0
          0 0 0 0 0 0
          0 0 0 0 0 0
          0 0 0 0 0 0
          0 0 0 0 0 0
          0 0 0 0 0 0
          0 0 0 0 0 0
          0 0 0 0 0 0
          0 0 0 0 0 0
          0 0 0 0 0 0
          -0.8081638143355205 74.88535100782323 0 0 0 0
          0 0 0 0 0 0
          0 0 0 0 0 0
          0 0 0 0 0 0
          0 0 0 0 0 0
          0 0 0 0 0 0
          0 0 0 0 0 0
          0 0 0 0 0 0
          0 0 0 0 0 0
          0 0 0 0 0 0
          0 0 0 0 0 0
          0 0 0 0 0 0
          0 0 0 0 0 0
          0 0 0 0 0 0
          0 0 0 0 0 0
          0 0 0 0 0 0
          0 0 0 0 0 0
          0 0 0 0 0 0
          0 0 0 0 0 0
          0 0 0 0 0 0
          0 0 0 0 0 0
          0 0 0 0 0 0
          0 0 0 0 0 0
          0 0 0 0 0 0
          0 0 0 0 0 0
          0 0 0 0 0 0
          0 0 0 0 0 0
          0 0 0 0 0 0
          0 0 0 0 0 0
          0 0 0 0 0 0
          0 0 0 0 0 0
          0 0 0 0 0 0
          0 0 0 0 0 0
          0 0 0 0 0 0
          0 0 0 0 0 0
          0 0 0 0 0 0
          0 0 0 0 0 0
          0 0 0 0 0 0
          0 0 0 0 0 0
          0 0 0 0 0 0
          0 0 0 0 0 0
          0 0 0 0 0 0
          0 0 0 0 0 0
          0 0 0 0 0 0
          0 0 0 0 0 0
          0 0 0 0 0 0
          0 0 0 0 0 0
          0 0 0 0 0 0
          0 0 0 0 0 0
          0 0 0 0 0 0
          0 0 0 0 0 0
          0 0 0 0 0 0
          0 0 0 0 0 0
          0 0 0 0 0 0
          0 0 0 0 0 0
          0 0 0 0 0 0
          0 0 0 0 0 0
          0 0 0 0 0 0
          0 0 0 0 0 0
          0 0 0 0 0 0
          0 0 0 0 0 0
          0 0 0 0 0 0
          0 0 0 -1.1631860895214297 101.16362896946394 0
          0 0 0 0 0 0
          0 0 0 0 0 0
          0 0 0 0 0 0
          0 0 0 0 0 0
          0 0 0 0 0 0
          0 0 0 0 0 0
          0 0 0 0 0 0
          0 0 0 0 0 0
          0 0 0 0 0 0
          0 0 0 0 0 0
          0 0 0 0 0 0
          0 0 0 0 0 0
          0 0 0 0 0 0
          0 0 0 0 0 0
          0 0 0 0 0 0
          0 0 0 0 0 0
          0 0 0 0 0 0
          0 0 0 0 0 0
          0 0 0 0 0 0
          0 0 0 0 0 0
          0 0 0 0 0 0
          0 0 0 0 0 0
          0 0 0 0 0 0
          0 0 0 -101.71587625244324 -71.50015236716055 0
          -159.34127907597576 0.023830911858284554 0 0 0 0
          -151.55441778924703 -0.561070211635037 0 0 0 0
          -151.62232480337084 0.1551979853334172 0 0 0 0
          0 0 0 -159.50887389369564 -0.40043029737739416 0
          -103.61623178260885 66.68613044984762 0 0 0 0
          0 0 0 0 0 0
          0 0 0 0 0 0
          -49.0676270126785 -124.53368628078093 0 0 0 0
          0 0 0 0 0 0
          0 0 0 0 0 0
          -49.88122241888704 118.58170988599176 0 0 0 0
          0 0 0 0 0 0
          0 0 0 -47.65246786514267 -112.61217466976285 0
          0 0 0 0 0 0
          0 0 0 0 0 0
          0 0 0 0 0 0
          0 0 0 0 0 0
          0 0 0 0 0 0
          0 0 0 0 0 0
          0 0 0 -46.400760227744065 -102.87308760015983 0
          0 0 0 0 0 0
          0 0 0 0 0 0
          0 0 0 0 0 0
          0 0 0 0 0 0
          -45.47610966636568 -92.62525614098263 0 0 0 0
          0 0 0 0 0 0
          0 0 0 0 0 0
          0 0 0 0 0 0
          0 0 0 -43.74595879203916 -83.44333344727539 0
          0 0 0 0 0 0
          0 0 0 0 0 0
          0 0 0 0 0 0
          -42.95583690421553 -73.79593059219822 0 0 0 0
          0 0 0 0 0 0
          0 0 0 -1.5615013643655262 136.38558519526006 0
          0 0 0 0 0 0
          0 0 0 -41.89289698722346 -64.62132120431784 0
          0 0 0 0 0 0
          0 0 0 0 0 0
          0 0 0 0 0 0
          0 0 0 0 0 0
          0.01843879146110438 11.59155822833485 0 0 0 0
          0 0 0 0 0 0
          0 0 0 0 0 0
          0 0 0 0 0 0
          0 0 0 0 0 0
          0 0 0 -46.12127055983426 110.50676729432097 0
          0 0 0 0 0 0
          0 0 0 0 0 0
          0 0 0 0 0 0
          0 0 0 0 0 0
          0 0 0 0 0 0
          0 0 0 0 0 0
          0 0 0 0 0 0
          0 0 0 0 0 0
          0 0 0 -38.687602491746986 -55.40070653872732 0
          0 0 0 0 0 0
          0 0 0 0 0 0
          0 0 0 0 0 0
          0 0 0 0 0 0
          0 0 0 0 0 0
          -2.301406175656221 183.04197286398414 0
          <InformationKey name="L2_NORM_RANGE" location="vtkDataArray" length="2">
            <Value index="0">
              0
            </Value>
            <Value index="1">
              183.0564402
            </Value>
          </InformationKey>
        </DataArray>
        <DataArray type="Float64" Name="ALEdispl" NumberOfComponents="3" format="ascii" RangeMin="0" RangeMax="0.00005956306824956265">
          0.0000024743928313101817 -0.0000024982172151801545 0 0.0000025766184441424536 -0.00001795319790929908 0
          0 0 0 0.00000544406550877819 -0.000010138588585332623 0
          0.0000018855034283020155 -0.000020807581677222247 0 0 0 0
          0.000005008277618475756 -0.000004991475268576757 0 0.000008886377752178892 -0.000015294412494331698 0
          0.0000069656399151146695 -0.000026398342178889983 0 0.000004531429633881337 -0.00002931389348708923 0
          0.000009671061582399495 -0.00002336962076430676 0 0.000007011322891966545 -0.00003175711790427067 0
          0.000004629249285795672 -0.000030392387116282138 0 0.000010696308424084512 -0.000015192714228710649 0
          0.000011736713902073138 -0.000020957855044682335 0 0.000010743558251179735 -0.000025706782990476117 0
          0.00000854253120500775 -0.000008870256292406251 0 0.00000967901457466305 -0.00003069889628015881 0
          0.000007115704601086246 -0.000034648385592196015 0 0.00000490282983105145 -0.00003234787410381403 0
          0.000004792614341754767 -0.000004345303467521966 0 0.000005636712779924047 -0.000034274884740938454 0
          0.00000872545780545079 -0.000034159779958967837 0 0 0 0
          0.000013111691940140234 -0.000020442454535803004 0 0.00001323686788350994 -0.00002545007716619807 0
          0.000011648339423347516 -0.000014717383278987067 0 0.000012312714271113959 -0.000029761596567758482 0
          0.000011124010604787272 -0.00003350269719578956 0 0.000007353646838029449 -0.000037942633586605304 0
          0.000008918243601841381 -0.000009740389622495617 0 0.000009002103716368523 -0.00003812670013377998 0
          0.000005973484998917389 -0.000036873105171228366 0 0.000004695694631224976 -0.000034768174325566945 0
          0.000011570798236088073 -0.00001452436070318562 0 0.000014793554763213112 -0.000025088021027030697 0
          0.000013886953145302631 -0.000019789833668945935 0 0.000014535418313627646 -0.000029584592283571655 0
          0.000004236530858228999 -0.000004241142417137575 0 0.000013566261482310803 -0.000033303338852403686 0
          0.000011842341943216993 -0.00003737434331480715 0 0.0000018441817805860433 -0.0000017234868166081639 0
          0.000009330427734095454 -0.00004095866259443973 0 0.000005913056347623917 -0.00003909153307755197 0
          0.000007446077262172563 -0.000040717138404496655 0 0.000010938788189333453 -0.000040327866271752155 0
          0.0000049461225564423935 -0.000037590906504631624 0 0.000011556786506844432 -0.00001412439737727846 0
          0.000014128491756412832 -0.00001969609528427399 0 0.00001567436857724321 -0.00002473720934030249 0
          0.000016031446139068664 -0.00002943536355975067 0 0.000015488074586283077 -0.00003331797463689493 0
          0.000014359206451178279 -0.00003665089574462112 0 0.000008099295283559694 -0.000009493791212282356 0
          0.0000041265328403730154 -0.000004358709538611701 0 0.000011554859040310157 -0.00004299182997560228 0
          0.00000714661488392121 -0.00004261375888770684 0 0.000013252183415248917 -0.00004128199912077376 0
          0.000005996194825492278 -0.000041557462240835535 0 0.00000946714502131359 -0.000043963913423676797 0
          0 0 0 0.000014212491358633427 -0.000019970014213929262 0
          0.000004727378743699002 -0.000039789460953741195 0 0.00001607585524963904 -0.00002480646998597637 0
          0.00001695249125552211 -0.000029252090078141642 0 0.00001690772023402324 -0.0000333014654223595 0
          0.000016205236076215723 -0.00003668294793438905 0 0.000014958165963797238 -0.000039915287593913304 0
          0.000011788250683575943 -0.0000452820016426203 0 0.000013483913192536615 -0.000018431319568780354 0
          0.000013371865858495157 -0.000044201178055008386 0 0.000008915675909801524 -0.00004555691548977517 0
          0.000007224783679019762 -0.00004471221869628115 0 0.000006322797735703764 -0.000007906704233953491 0
          0.000010496095536997393 -0.00004599000015522675 0 0.000005749572588983762 -0.00004347256051188068 0
          0.000016315629696483987 -0.000025000783233352152 0 0.000017429754108051603 -0.00002933678103301717 0
          0.000004033768208865288 -0.0000412210722288754 0 0.000017810748439313523 -0.00003319063756381804 0
          0.000017505785088052853 -0.00003661210832494272 0 0.00001672505219325557 -0.0000395022744637233 0
          0.00001542885086986328 -0.000042528394652538334 0 0.000010602824808424135 -0.000013798578793516044 0
          0.000013414731823201554 -0.000046424968617888176 0 0.000010366793812916776 -0.00004754440301886522 0
          0.000008643850666795876 -0.00004714024635197094 0 0.000012088097313598725 -0.00004747187120490332 0
          0.000007003063938093675 -0.00004635402781034249 0 0.00001778655072878264 -0.000029582653379277314 0
          0.000005058163582512707 -0.00004475148960022709 0 0.00001831108327190374 -0.00003330715777863899 0
          0.000018327023909423733 -0.000036545502822812436 0 0.000017874411730674316 -0.000039352594461284165 0
          0.00001697003145596675 -0.000042101422998222694 0 0.000016485523375350856 -0.000024977647863056396 0
          0.0000031284538190372907 -0.00004246395350886047 0 0.000015624350838435477 -0.00004523057756672459 0
          0.000014913924684954743 -0.00004684023713807619 0 0.000014009543925935841 -0.00004782194311461207 0
          0.000012924287136292486 -0.00004854072382148704 0 0.000004964814624375568 -0.000006071642926371343 0
          0.000011631049020206406 -0.000048866134318757874 0 0.000010134918684134145 -0.00004887030895549038 0
          0.000014430423853335538 -0.00002021897739612651 0 0.000008445380806526689 -0.000048478911880887334 0
          0.000006331264448443301 -0.000047429512553737865 0 0.00001878698036162965 -0.0000367066947699675 0
          0.000010183933726759918 -0.000013022004619576668 0 0.0000187272022057141 -0.000033745367472672533 0
          0.000018575581810422666 -0.00003932555037540323 0 0.000018079122555503107 -0.00004161212268888643 0
          0.000017318378452059336 -0.00004386109824207355 0 0.000004163980016119521 -0.000045779499145562614 0
          0.000002084829374411351 -0.00004312656706267369 0 0.000016863696681106882 -0.0000455818491400199 0
          0.000016159350388025474 -0.00004702057887472124 0 0.00001689579797789283 -0.000025718077551002424 0
          0.000015485519860302987 -0.000048101628878691465 0 0.000018346725641374872 -0.00003058629463007474 0
          0.000014567342709835718 -0.00004900810179653604 0 0.000013184171378042997 -0.00004971612681681648 0
          0.000011697988494421999 -0.00004997988888678161 0 0.000009976131910063944 -0.00004990942083358406 0
          0 0 0 0.000007817541161293416 -0.000049327536661938545 0
          0.000018951347087641037 -0.00003948047849496779 0 0.000018640697315096942 -0.00004155204653556292 0
          0.00001817218556801144 -0.00004331794746766303 0 0.000005495983081667184 -0.00004821521295324848 0
          0.000019199450185247652 -0.00003730158153057218 0 0.000003150422292273258 -0.000046279359720497566 0
          0.00001919615051564127 -0.00003479582658069464 0 0.000010138062342065423 -0.000013188629451247933 0
          0.000017726077932126822 -0.00004529859950176327 0 0.00001720232885503243 -0.000046797663195412676 0
          0.000016694204308269084 -0.0000479752691912945 0 0.000016030689894925154 -0.00004898118052335541 0
          0.000014906231299664362 -0.00004988072204989902 0 7.126387720064815e-7 -0.00004349320912271581 0
          0.000013278378982842698 -0.000050545633237522265 0 0.000013749710005891552 -0.000018751291567590286 0
          0.000011587669277305683 -0.00005073845870306315 0 0.0000094019264410384 -0.00005053330605982732 0
          0.000018918893237320323 -0.00004176911964451998 0 0.000018570617867098793 -0.00004330336320474861 0
          0.00001683904590481895 -0.00002472490172456065 0 0.0000070205543691663125 -0.000049865278060120574 0
          0.00001820261464818966 -0.00004464800493538031 0 0.000004519064451567523 -0.00004853825425242573 0
          0.000018671792006905817 -0.000029843625472793468 0 0.000017889770926060898 -0.000046333646210946006 0
          0.00001759758318796967 -0.000047540802063731026 0 0.000017224553584324136 -0.000048584070584268344 0
          0.000016451681094177048 -0.000049571000814199155 0 0.000007397238642048049 -0.000009442136756470616 0
          0.000019559122415007845 -0.00003407142840503978 0 0.000014865945862443298 -0.0000506081318918275 0
          0.00001317783676793551 -0.00005104893479927889 0 0.000001660147252467864 -0.00004653741513774149 0
          0.000019418606713542842 -0.00004047993646208643 0 0.000011095748348605851 -0.00005115333049584544 0
          0.000019749025903672186 -0.000037523793374620916 0 0.00001875445924432762 -0.00004340587804400229 0
          0.000019093614371271252 -0.00004220574143534289 0 0.000008698759004485785 -0.00005085765158414929 0
          0.0000184354208073907 -0.0000445462798405585 0 0.000018201091006382298 -0.000045534455093943055 0
          -8.752976484253464e-7 -0.00004355495423626687 0 0.000013422172099614827 -0.000017704561193807864 0
          0.0000059249504442904165 -0.00005002133817565405 0 0.000018123215852680018 -0.000046951836906534876 0
          0.000018040291256233605 -0.000047935955779697114 0 0.000017730392741429884 -0.00004890423341525068 0
          0.000016921942612673228 -0.000023984405258714935 0 0.00001637825042542851 -0.00005022944879899233 0
          0.000014783176254817958 -0.00005091563740794773 0 0.000019321762897998755 -0.00004210651100581192 0
          0.00001901437570519714 -0.000029326246774924812 0 0.000012772791882487256 -0.00005127260962659782 0
          0.000003805337556501894 -0.000004583279927346833 0 0.000018882450516385387 -0.000043583175840623264 0
          0.000010433619039720587 -0.00005126392315521676 0 0.000018503108838539037 -0.00004464394987055788 0
          0.000020038063129387064 -0.000033735879476175834 0 0.000018265169730562093 -0.00004541920878109939 0
          0.00001820244348834574 -0.00004606247473236471 0 0.00000782828997307146 -0.00005082129632011834 0
          0.000002678711096090833 -0.00004857648685086835 0 0.00002030194049288942 -0.00003729250337179696 0
          0.000020010122303903797 -0.00004013711727987953 0 0.000018389913035653342 -0.000047008120382470805 0
          0.00001859088360885159 -0.00004808126559212388 0 0.00001642465937291422 -0.000050394386174019126 0
          0.000017975826135492186 -0.00004928979476264401 0 0.0000048132682637522295 -0.00004986135899382469 0
          0.000014501066828486364 -0.000050991393410535736 0 0.00001962102460478359 -0.00004220602344402204 0
          0.0000122438731730927 -0.000051232802605340784 0 0.000019057267454675307 -0.00004377415109266463 0
          -9.503565927538084e-7 -0.000045718775559773614 0 0.00000964883439626009 -0.000051148039279262655 0
          0.00001819164786803768 -0.00004633930640376873 0 0.000018548703105612607 -0.00004484714671608683 0
          0.000018200460538702858 -0.00004551325183786522 0 0.000006467121177910004 -0.000007595854986651464 0
          0.000012833740517378576 -0.00001589379291988778 0 0.000018754177514815307 -0.00004722168924144359 0
          0.00001803615385763549 -0.000045994571001949865 0 0.000018436724940712147 -0.00004670638312922277 0
          0.000016987013466843887 -0.000022734641900266928 0 0.000018952618985070184 -0.00004765905418579398 0
          0.000018882880275832044 -0.00004820157455762047 0 0.000019446683188737286 -0.000028431271828402238 0
          0.000018600869943062243 -0.00004890611315010486 0 0.00001773951709437821 -0.000049687317775409245 0
          0.000020630594095057062 -0.000033136048551760576 0 0.000016128704606229786 -0.00005040132885107581 0
          0.00002092507728867502 -0.00003693799028201234 0 0.000006555876314053767 -0.000050509267736546496 0
          0.00001401175892154367 -0.000050821133791234697 0 0.000020645635059075903 -0.0000399384642612327 0
          0.000017965024155140004 -0.000046223220632851915 0 0.000011490390925634276 -0.000050975902052631646 0
          0.00001817601262661403 -0.0000463707200799129 0 0.000020066129195948885 -0.00004222240384157386 0
          0.000008709118115641904 -0.00005079455313496199 0 0.00001857429602099644 -0.00004654137068336015 0
          0.00001936662933444179 -0.00004390274218782724 0 0.00001900819800673662 -0.000046781521271648274 0
          0.0000027585365749335957 -0.00004915163529125958 0 0.00001870226298600418 -0.000045057152057777034 0
          0.000019393531331360612 -0.000047218315509284654 0 0.00001952636507645834 -0.00004789462706287301 0
          -1.2663176839920644e-7 -0.000047435719558297416 0 0.00001817155579688479 -0.00004578362198522919 0
          0.000017847886438618567 -0.000046138966470348004 0 0.00001905187902756866 -0.00004876197167508995 0
          0.00001779837806379866 -0.0000495674628069068 0 0.000017689669664126746 -0.000046307228741639686 0
          0.00001580663197482376 -0.00005014991929132283 0 0.000017792592155286866 -0.00004626610714113567 0
          0.00001334687350755473 -0.000050504057764826765 0 0.000018116277402588402 -0.000046186528637171474 0
          0.000010581327064679706 -0.00005060780887375557 0 0.00001859906660981285 -0.00004616235031438976 0
          0.00001928753456692897 -0.000046328861397205465 0 0.000007584269727222727 -0.00005037703784486793 0
          0.000020044569772723356 -0.000046838473282429064 0 0 0 0
          -0.000003286891840229022 -0.000044863800250969895 0 0.000020235933150136496 -0.00004768215894659374 0
          0.000004448057446057932 -0.00004972852687579898 0 0.000019365100636733703 -0.00004858857522654162 0
          0.000017517454351148737 -0.00004924398961359729 0 0.00001989666123012748 -0.000043876579380287776 0
          0.00002077809304388852 -0.00004196987374431297 0 0.000019021639078478833 -0.00004520210907290139 0
          0.000021502095697563655 -0.00003939867594460173 0 0.000018284237840927186 -0.00004605043189747871 0
          0.0000012609875038883095 -0.000048528429290140735 0 0.000017755433991543415 -0.00004649023694068345 0
          0.00002182501596001566 -0.000036085447408680556 0 0.000017457789109047785 -0.000046606828139399437 0
          0.000017413491833390998 -0.00004647570411177547 0 0.00002143558024327145 -0.00003192596793686634 0
          0.000017610381028824217 -0.00004621218169641753 0 0.000015126224249865887 -0.00004972965213439618 0
          0.000019947465133326018 -0.00002683475995661669 0 0.00001796087678427121 -0.00004596083075030528 0
          -0.000001783269374817497 -0.00004662864474356082 0 0.000016891329334932553 -0.000020661572110728577 0
          0.000018674765471284087 -0.00004586353554683294 0 0.000012402647056562054 -0.00005006644076766292 0
          0.00001978510094835439 -0.00004601794416649352 0 0.000011768376539891165 -0.000013203035224595734 0
          0.000021005155847690408 -0.00004655196110966848 0 0.00002095982648801667 -0.00004747193053929702 0
          0.000009381257990749392 -0.00005013214238409404 0 0.000019243919647709038 -0.000048154727326910945 0
          0.000017586526523496736 -0.00004602911968778996 0 0.000018010136829654864 -0.00004589624755059735 0
          0.0000061252464370490085 -0.000049827624387888536 0 0.000018741672198444953 -0.00004583196668307015 0
          0.00001689089333551337 -0.000048691676787592506 0 0.000019713134199032393 -0.00004583374390630352 0
          0.000020788107873683356 -0.00004592898718566767 0 0.000017346048529356867 -0.0000470904428782382 0
          0.00002200031806594401 -0.000046256459033588646 0 0.000017190830208249488 -0.00004645554292596898 0
          0.000017868284591056835 -0.000046848005755799425 0 0.00001707856939760533 -0.0000469821661731459 0
          0.0000027139749662899684 -0.0000490343800916823 0 0.000021467115514681604 -0.0000469130821528598 0
          0.000018651187374797435 -0.00004620042029336951 0 0.00001417255755221596 -0.00004931452852436572 0
          0.000019637646963709648 -0.0000450694937621292 0 0.000017591006570007262 -0.000046098309474932434 0
          0.000018134883486559376 -0.0000460032459534425 0 0.000020739910180137316 -0.00004344207323825837 0
          0.000018964309920450475 -0.0000458704799268909 0 -7.051697013615863e-7 -0.000047624927838340586 0
          0.000020121504588766355 -0.000045693707678449726 0 0.00002179233452655307 -0.00004114677271029136 0
          0.000011089220289088989 -0.0000496797058412537 0 0.000021453630851350104 -0.000045531212755477015 0
          0.000022980223813476765 -0.00004540282820890041 0 0.000019782762852419785 -0.00004710557483052573 0
          0.00002260480691459952 -0.00003815107062640821 0 0.000021098896401977847 -0.00004638315131445848 0
          0.000007709338035093002 -0.000049647850727213373 0 0.000022833274489990978 -0.00003436255982524032 0
          0.000017231059263244748 -0.0000470878711820088 0 0.000022171378715801095 -0.00002973573839997853 0
          0.000017438695268457415 -0.0000477205750086464 0 0.000016879921855711743 -0.000047712614468848945 0
          0.000016903238243916363 -0.000047979836334970525 0 0.00001827034793950011 -0.000047119812490375415 0
          0.00002257145796181423 -0.00004676688919676 0 0.000017330777660198107 -0.00004817471578165939 0
          0.000004141855162140449 -0.000049125421597148544 0 0.000019362714325618088 -0.000046072508935708466 0
          0.000020075900310347073 -0.000024085885899012864 0 0.0000168372043848103 -0.00004832119366853102 0
          3.5624101962297495e-7 -0.00004808694249483187 0 0.000019986191716625378 -0.00004778656111095059 0
          0.000015982049625728674 -0.0000172388376233748 0 0.000013469149690341613 -0.000049060177335193406 0
          0.00000915138455693677 -0.0000494489492702322 0 0.00002028551631403137 -0.00004540410726297558 0
          0.000021805524791488066 -0.000043072933818442125 0 0.000005445998728641712 -0.00004920629365066434 0
          0.000009795728627481716 -0.000009897463168958136 0 0.00001785988478411423 -0.00004822698384084987 0
          0.000016987780308229484 -0.0000490183036202864 0 0.000023133634032220704 -0.0000400680263776869 0
          0.000016532483743466013 -0.000049545198088058 0 0.000016408990105866583 -0.000049913962587465636 0
          0.00001644856052111601 -0.0000497532119112553 0 0.000019038816854758256 -0.00004710675636348538 0
          0.00001056423031759892 -0.00004957664991040221 0 0.000024034222683689072 -0.00003198253952216037 0
          0.000024240434838759196 -0.00003737947636489789 0 0.0000022698391024152833 -0.00004859526047829127 0
          0.000006296259496488859 -0.00004939321445635656 0 0.000022753479418448693 -0.00002665697257351784 0
          0.000015958517757699845 -0.000051720330141752775 0 0.000019988748429306173 -0.000046589972764622255 0
          0.00001868751854841019 -0.00004831906197056515 0 0.000017419603139277373 -0.00004975130896569696 0
          0.000016547281578981712 -0.00005088332572916251 0 0.000019554142133104334 -0.000020219489547866635 0
          0.000023549480832692917 -0.00004133916902579159 0 0.00001586579785077682 -0.000052177605394575994 0
          0.000021683098662658242 -0.000044886378808315584 0 0.00001546164333716372 -0.00005366836107224738 0
          0.000025113386016909323 -0.000029362256881927528 0 0.000025965212376166796 -0.00003422450924334564 0
          0.00002003161611621855 -0.00004763829709994646 0 0.000018278070051521008 -0.00004984094307189571 0
          0.000016682274372224177 -0.000052175125429165604 0 0.00001529072840502939 -0.00005456286360829167 0
          0.000014924544660724592 -0.000055634637217250526 0 0.000016946543878485065 -0.000014839282494686417 0
          0.000025597651881967706 -0.000038409833437848925 0 0.000024103220720060555 -0.00004203632804988419 0
          0.00002339058707501105 -0.00002280763950860342 0 0 0 0
          0.000021915820523439557 -0.00004574344189481507 0 0.000019733321402703346 -0.00004873265452671823 0
          0.00001789905074079532 -0.000051260834574895676 0 0.000014369625278635551 -0.000057263884794794516 0
          0.000027686283255442233 -0.000029468084126407768 0 0.000014902500708249237 -0.000056168934518262154 0
          0.000027836055167824884 -0.000034112530584169104 0 0.000026667909628266486 -0.000038177889030470115 0
          0.000024283435074002214 -0.00004233203386460628 0 0.000021776602070571583 -0.000046012442742523625 0
          0.000019480978186983765 -0.000049170501049306895 0 0.00001707791660377186 -0.00005244675761226194 0
          0 0 0 4.7409840311728597e-7 -0.000004212384347328987 0
          0.000001268882459468662 -0.000009756776165767486 0 9.800151879547072e-7 -0.00001441314531214057 0
          3.9025236397937345e-8 -0.000010660600737989039 0 0.0000027330663961109107 -0.000016750152396236527 0
          0.0000030623488734985314 -0.000017003074995677904 0 0.000003815571524724818 -0.000025850612370540647 0
          0.0000040154168058914806 -0.00003532645420766899 0 0.000003639322364266256 -0.000030591120959689265 0
          0.000004013546149668941 -0.000029559491151280717 0 0.000022090878608273606 -0.00004818667552482822 0
          0.000019206197026814906 -0.00004965628415908152 0 0.00001700661964005585 -0.00004906898394196215 0
          0.000013475189886963974 -0.00004988211372228 0 0.000009388314640289757 -0.000050114034621437155 0
          0.00000386042804158908 -0.00004928337481203058 0 -0.0000033067449011208913 -0.000046359908297441344 0
          -0.000002027557701547438 -0.00004741663453765324 0 -0.000003849621619522066 -0.00004552199278627979 0
          -0.000002523866913581852 -0.00004689339238521113 0 -0.0000032065704231040537 -0.00004170241779289197 0
          -0.000006758644788726499 -0.000042527575510207186 0 -0.0000055240517676944385 -0.00004117025065985107 0
          1.9180069794139705e-7 -0.00003941254500920179 0 0.000001423728748260419 -0.00003899976841878734 0
          -0.0000013377676522655877 -0.00003959662456025516 0 0.0000024459275720170497 -0.000038224566478459754 0
          0.000003344213974274504 -0.00003684326654919159 0 0.000013811937268444352 -0.000057939533033970995 0
          0.00001487955129804437 -0.00005529681277287029 0 0.000021645735056253793 -0.00004486831350185211 0
          0.00001858210731219512 -0.00004906821118068169 0 0.000024313003072568088 -0.00004119652838453009 0
          0.000027001897861912577 -0.0000370594009805617 0 0.000029198639813440487 -0.000032962161246437264 0
          0.000030127158529479886 -0.000028566413397757528 0 0.000028946126649014877 -0.000023694686894857502 0
          0.000024641384249739987 -0.00001756404012633536 0 0.000015025161748180707 -0.000009869248422118618 0
          0 0 0
          <InformationKey name="L2_NORM_RANGE" location="vtkDataArray" length="2">
            <Value index="0">
              0
            </Value>
            <Value index="1">
              5.956306825e-05
            </Value>
          </InformationKey>
        </DataArray>
        <DataArray type="Float64" Name="ALEveloc" NumberOfComponents="3" format="ascii" RangeMin="0" RangeMax="0.004124072469525655">
          -0.000676723572809791 -0.00041802764010923126 0 -0.00199194743216233 -0.0011261607295703125 0
          0 0 0 -0.0013489925989116091 -0.0008946296666390468 0
          -0.00241211074875599 -0.0010791278727807646 0 0 0 0
          -0.0008548737178977472 -0.0006265327124726459 0 -0.001660209217502322 -0.001147283386674234 0
          -0.002402935962762668 -0.0014494420018619676 0 -0.0027791126556794238 -0.0012747444354997291 0
          -0.0020347780965168268 -0.00140855464464876 0 -0.0026734561329562127 -0.0015352062228149756 0
          -0.0028006645239328984 -0.0011692380866605715 0 -0.0015546608618730382 -0.0011504952740239247 0
          -0.0018907205705849786 -0.0013637069422514979 0 -0.0021581867675762923 -0.0014965273369876722 0
          -0.001139065056531889 -0.0008480625866547916 0 -0.00249202354929701 -0.0016044844052375824 0
          -0.0028479178892002544 -0.0015515269703772613 0 -0.0028454806220609085 -0.0011717049823449992 0
          -0.0006674633640589397 -0.0005153442979296295 0 -0.0029107711562383998 -0.0013890358440596644 0
          -0.0027174074191337206 -0.0016467263675179638 0 0 0 0
          -0.0017886805464968642 -0.0013487558970105634 0 -0.0020742762353518638 -0.0015146720965488838 0
          -0.0014369440579529787 -0.0011148426603232275 0 -0.002319133229101666 -0.0016307002435060837 0
          -0.002561559521993926 -0.0017070868820667892 0 -0.002980320647966354 -0.0016057301143299575 0
          -0.0010143577491662926 -0.0008220270678913929 0 -0.0028956765783528867 -0.0017298329264776261 0
          -0.0029785471297647677 -0.00140842139373688 0 -0.0028685397731804487 -0.0011867765705852195 0
          -0.0013089262003518672 -0.0010573597100450307 0 -0.001977444355410943 -0.0015060338855860124 0
          -0.001656779850018432 -0.0013043340995255728 0 -0.002239266347846428 -0.0016474741232703127 0
          -0.0005041045336846935 -0.0004149114046649604 0 -0.0024632557804545015 -0.0017430993599516454 0
          -0.002725115267142651 -0.001816276901687175 0 -0.00020621414758572793 -0.00017021764305645963 0
          -0.003017928292394731 -0.0017873021110675785 0 -0.0030241613520151185 -0.001442014498310242 0
          -0.0030750617488984064 -0.0016237010099440837 0 -0.0029169868540847585 -0.0018489350592900983 0
          -0.00294329753684682 -0.0013028801736171018 0 -0.0011837780078883806 -0.0009878814707270187 0
          -0.0015348184730948522 -0.001256356342697953 0 -0.0018556054664526824 -0.001470338369544189 0
          -0.0021492472393151263 -0.0016408918548400763 0 -0.0023870142714030327 -0.0017589627752001794 0
          -0.002599678184697859 -0.0018414963324927117 0 -0.0007809827320044672 -0.0006863401783479852 0
          -0.0003953739288768728 -0.0003417414716611406 0 -0.0030154264189657487 -0.0019221722908837884 0
          -0.003128249942191452 -0.0016325741294317062 0 -0.0028644862048102346 -0.0019374527557568973 0
          -0.003079899957116553 -0.001516232408108968 0 -0.003137024353399619 -0.0018306066651486257 0
          0 0 0 -0.0014164979025546212 -0.0012076141931816032 0
          -0.002979184252054828 -0.001364740024958251 0 -0.0017425825857057535 -0.0014286940880238993 0
          -0.0020369590833645068 -0.0016088455275349851 0 -0.002302990259829553 -0.0017524706021533722 0
          -0.0025179780890872677 -0.0018535958706840717 0 -0.0027229970019939354 -0.0019317778190123508 0
          -0.003113301081386144 -0.001971602528087141 0 -0.001198995408085279 -0.001067670380273683 0
          -0.0030010902758304376 -0.002004121375772041 0 -0.003200074863644445 -0.0018169577996477659 0
          -0.0031828070966930396 -0.0016939034792054657 0 -0.0004946126868934305 -0.00047490092787129087 0
          -0.0031862928421174746 -0.0019168474152365866 0 -0.00312342069539915 -0.0015688519868249588 0
          -0.0016295617992503346 -0.0013773652676987013 0 -0.0019327519501923863 -0.0015687882584969144 0
          -0.0029961948809607095 -0.0013954665459285712 0 -0.0022003111429814157 -0.0017220234884448933 0
          -0.0024393747712972013 -0.0018435913247702308 0 -0.0026353268803150495 -0.001930801073799076 0
          -0.0028386720889671336 -0.002003275377088917 0 -0.0008264410169695692 -0.0007743484601316893 0
          -0.003113600496806823 -0.00204735071326054 0 -0.003249428998802148 -0.0019359847048778605 0
          -0.0032561271567049786 -0.0018406286866724702 0 -0.0032069681244159052 -0.0020161301482437884 0
          -0.0032306231223519573 -0.0017380496280256148 0 -0.0018223038468072616 -0.0015158591498745794 0
          -0.003153905957635333 -0.0015942707058352074 0 -0.0021044077067411855 -0.0016831631190826427 0
          -0.00234626267172631 -0.001812886849072072 0 -0.002559621130804323 -0.0019150122561030292 0
          -0.0027599905467016617 -0.0019994672935279715 0 -0.0014445529635504608 -0.0012717472883432748 0
          -0.0030224775787728677 -0.0014294857490994833 0 -0.0029764968639222323 -0.002071307918712767 0
          -0.0030929696095954003 -0.0020893259525186806 0 -0.003173236990345265 -0.0020853308566435103 0
          -0.003238293196135862 -0.0020597223271185995 0 -0.0002933485266779722 -0.0003030179139615768 0
          -0.0032819466456607592 -0.0020158799297916767 0 -0.0033061733609293952 -0.0019538377271463197 0
          -0.001046626835284248 -0.0009821531071620357 0 -0.003307613296215311 -0.0018734241443878774 0
          -0.003271123381195861 -0.001755808259882768 0 -0.0022589778070983323 -0.001775170030804813 0
          -0.0006210018937134959 -0.0006212675017357875 0 -0.001994638604232434 -0.0016300532712152738 0
          -0.0024755669785341285 -0.0018833126614228846 0 -0.0026644579832283757 -0.0019699725718928633 0
          -0.002838284643697295 -0.002041878175963583 0 -0.003191656763384001 -0.001617441767822695 0
          -0.0030416281283433774 -0.0014437324035733562 0 -0.002961814321432552 -0.0020840502969006157 0
          -0.003070858463554846 -0.002112725347671785 0 -0.0013107732974569173 -0.001189085811740625 0
          -0.0031540341643047504 -0.002121814280528626 0 -0.001659427744186761 -0.001427842518495513 0
          -0.00322926795375058 -0.0021144368330544023 0 -0.0032978976748824634 -0.0020833684847692867 0
          -0.0033379840965142476 -0.002036874179680527 0 -0.003359400116447241 -0.0019743336462048826 0
          0 0 0 -0.0033546859153186833 -0.0018821391012353204 0
          -0.002397245784966637 -0.001845380936760304 0 -0.0025888051029987085 -0.0019355771419661731 0
          -0.002755752660208139 -0.002007382597906192 0 -0.0033168911983428055 -0.0017678403661886592 0
          -0.002150508882746733 -0.0017188363559481079 0 -0.0032226637036062624 -0.0016216891585474423 0
          -0.0018942031749136865 -0.0015703235586813243 0 -0.0005057996910711915 -0.0005485799616948535 0
          -0.002910419588379878 -0.002069757980750826 0 -0.003033492369760563 -0.0021116150274385504 0
          -0.0031269739186044233 -0.0021340575690638294 0 -0.003207590020145546 -0.0021407210205492957 0
          -0.003286174390881062 -0.0021289281522085934 0 -0.0030675612973122225 -0.0014440441402105261 0
          -0.003354102545353163 -0.0020928469289119307 0 -0.0007491176150689898 -0.0007720143635748267 0
          -0.003390899039102365 -0.0020459273730719456 0 -0.0034107355225188925 -0.0019736810299147596 0
          -0.002516363781278217 -0.0018977444589719408 0 -0.0026881128025776826 -0.001972813173901207 0
          -0.0010644529768883866 -0.0010197589830736788 0 -0.003405247668722765 -0.0018816483293254015 0
          -0.0028330769975016615 -0.0020329710231768677 0 -0.003356062415651089 -0.0017618267425722443 0
          -0.0013758217832796223 -0.0012382876462108713 0 -0.0029872890137048504 -0.0020897614483740843 0
          -0.0030918297955688993 -0.0021243644516601426 0 -0.0031779999951240595 -0.002143263931155515 0
          -0.0032608233025861262 -0.0021467760396052258 0 -0.00028839410868098877 -0.0003561798665963805 0
          -0.0016773843756042544 -0.0014278556705929445 0 -0.003355348722946277 -0.0021255414619382284 0
          -0.003407476466638422 -0.002090030371937587 0 -0.0032715754374158575 -0.0016106631174944055 0
          -0.0022779245870537985 -0.0017682361915882724 0 -0.0034439579588307484 -0.0020364107370333313 0
          -0.0019644251021315013 -0.0015947487190995375 0 -0.0026211876336831156 -0.0019296742340682354 0
          -0.0024598503110503725 -0.0018527111970260135 0 -0.0034637780467538706 -0.001961814730736597 0
          -0.002773441464528326 -0.001993794156146282 0 -0.0028994335987332577 -0.0020441210299988856 0
          -0.003105184837390912 -0.0014315665610629639 0 -0.0005844126285471142 -0.0006537712922322754 0
          -0.0034583575943981258 -0.001859420993415571 0 -0.003050692184084657 -0.0020966111094390056 0
          -0.0031424979905904666 -0.002125124953800677 0 -0.003226728882017994 -0.0021410736487930807 0
          -0.0008860225117548725 -0.000895817953948094 0 -0.0033445435363362768 -0.0021358094825513225 0
          -0.0034106308523443206 -0.0021119948449005495 0 -0.0023584420064645083 -0.0017904922229418615 0
          -0.0011929762557756278 -0.0011109647304745917 0 -0.003461406174433471 -0.0020718024704319523 0
          -0.00010466657697383765 -0.00015566831693839906 0 -0.0025477808422368024 -0.0018767613476948098 0
          -0.0034989417611919907 -0.002013489263547384 0 -0.0027111908451321 -0.0019474237269642217 0
          -0.0014908491688973148 -0.0012989603392000249 0 -0.0028466270260931706 -0.002002252517270217 0
          -0.0029552897777759546 -0.002042920241870903 0 -0.003510917638885616 -0.0019353505722837945 0
          -0.0034364545034161727 -0.0017279868374066988 0 -0.0017707930229812882 -0.0014608923051316778 0
          -0.002050067383511829 -0.0016168163002111438 0 -0.0030864515974437503 -0.00208238114017705 0
          -0.0032005269313126446 -0.002113851855231209 0 -0.0034003939218575736 -0.002114906805904006 0
          -0.0033127423906703316 -0.002124372255388394 0 -0.0035121766473928118 -0.0018264089982396557 0
          -0.0034634269403738863 -0.002086851792676923 0 -0.0022546719860502677 -0.001712993152530474 0
          -0.0035141138918778894 -0.002041648217767221 0 -0.00245575282429194 -0.0018073462230449467 0
          -0.0033083293934409335 -0.001538467166384005 0 -0.003547243205417915 -0.0019788805026651765 0
          -0.0029998399909355955 -0.0020300712422198176 0 -0.0026326745962594214 -0.001884791413318499 0
          -0.0027863630161282776 -0.0019490256009335868 0 -0.00016437375977495947 -0.0002433863464849331 0
          -0.00041175048101162344 -0.0005253842864729207 0 -0.0031555552478630066 -0.0020755196842790766 0
          -0.0029067465073499255 -0.00198910706148965 0 -0.0030856863637393696 -0.002049719400698172 0
          -0.0006975997692782168 -0.0007655928881743926 0 -0.003213272541265271 -0.002086740464349601 0
          -0.003271313347162714 -0.0020948965086681646 0 -0.001001951768113725 -0.0009782397465329638 0
          -0.003330283502545786 -0.0020993111429950394 0 -0.0033907994628482006 -0.0020985342275958692 0
          -0.0013079154056625623 -0.0011681422700739992 0 -0.0034577406972742244 -0.0020817046472963053 0
          -0.0016017817192080157 -0.0013365069028906525 0 -0.003582619853527348 -0.0018804030962131309 0
          -0.003517151291958791 -0.0020479850923896883 0 -0.0018737917944797093 -0.001483692572989436 0
          -0.002969974935899575 -0.0019903795174541486 0 -0.003564414402897318 -0.001998462987615623 0
          -0.0030482708218096824 -0.0020123393167554636 0 -0.0021203083305379035 -0.0016092400666021102 0
          -0.0035925720673302916 -0.0019325941821807745 0 -0.0031197499650919953 -0.0020290335909967736 0
          -0.002338014842051264 -0.0017140826889468054 0 -0.003182092905758202 -0.0020407473826179285 0
          -0.0035621940165480046 -0.0017462800409081994 0 -0.0025264573161844794 -0.001798518687224809 0
          -0.0032465777841658096 -0.0020528807846744808 0 -0.0033087915074514005 -0.0020632114045369306 0
          -0.0034753251954727066 -0.0016222763771172315 0 -0.0026869728224835966 -0.001864396246742157 0
          -0.0028245484266878522 -0.0019189091732234574 0 -0.0033746519646168536 -0.0020688917154636933 0
          -0.003439959389448777 -0.0020634155864042115 0 -0.0029285264349288506 -0.0019463266573075543 0
          -0.00350693333518672 -0.0020397116628521747 0 -0.0030158935485339725 -0.00196809968533186 0
          -0.003566893670081877 -0.001998888810093586 0 -0.003084357424614162 -0.001980699112718343 0
          -0.0036132492217848 -0.0019430424235990194 0 -0.0031470011522507406 -0.0019895875751283496 0
          -0.0032147190150686187 -0.0020007830228878864 0 -0.0036404957508794004 -0.001872307297799085 0
          -0.003282955223400964 -0.0020156870159435862 0 0 0 0
          -0.00335232239388621 -0.0014650452826456056 0 -0.003349212520894893 -0.0020292216030742254 0
          -0.0036390524072400995 -0.0017861123161412194 0 -0.0034207559644241917 -0.0020303924872534765 0
          -0.003491186298295459 -0.0020149547099322044 0 -0.002188882215806272 -0.001591366249104408 0
          -0.0019474996744849303 -0.0014724050004631323 0 -0.0024006093314383205 -0.0016908190203111443 0
          -0.0016806716076262903 -0.0013358349086327057 0 -0.0025828781146834904 -0.0017724989538182418 0
          -0.0035989390548644465 -0.0016811583994611073 0 -0.0027378859284858136 -0.001836746522201527 0
          -0.0013913021984420446 -0.0011845280137688363 0 -0.002864237346754936 -0.0018832596082148214 0
          -0.0029686967213799365 -0.0019165887103137845 0 -0.0010871791577977239 -0.0010180578438514544 0
          -0.0030506131912724334 -0.0019359628374150948 0 -0.0035616897651533142 -0.0019795751732410044 0
          -0.0007820024252255184 -0.0008367849546673249 0 -0.003111083548680157 -0.0019410784535442848 0
          -0.003500376232534693 -0.0015556195817364579 0 -0.0004912805893520154 -0.0006354574391617886 0
          -0.0031788211842955286 -0.0019484834525906034 0 -0.0036210317273956344 -0.0019302900703832037 0
          -0.0032496341123577316 -0.0019608194010977843 0 -0.00023275291119767875 -0.00040585004600359603 0
          -0.0033174598162048806 -0.001977932220732301 0 -0.003390449594817018 -0.0019899013264047766 0
          -0.003665695521232884 -0.0018686033537399444 0 -0.0034655572522791734 -0.0019806273831238144 0
          -0.003093824898947877 -0.0019104951276665782 0 -0.0031384151436521113 -0.0019134554776396467 0
          -0.0036905140390547124 -0.0017935451553620246 0 -0.003191485913279662 -0.001917961506529695 0
          -0.003546783255372347 -0.0019442931874072622 0 -0.0032454038017059304 -0.0019241671422223073 0
          -0.003293475279138299 -0.0019324539497251702 0 -0.002777376782296951 -0.0017970150213817652 0
          -0.003344144051718812 -0.0019436759444520244 0 -0.0030409379156690246 -0.0018827672739175772 0
          -0.0026243739586701022 -0.0017351313359028127 0 -0.0029190868490157453 -0.001842952840115518 0
          -0.0036852789382463354 -0.0017025699593418717 0 -0.003407077752048005 -0.0019509444625504177 0
          -0.00244533423340411 -0.001655713115168819 0 -0.003619153755819913 -0.0018996839473573845 0
          -0.002239209388236068 -0.0015584180974292437 0 -0.003109793246842319 -0.0018896491152982238 0
          -0.003158253349134293 -0.00189018867171269 0 -0.0020001739994575806 -0.001445405059026688 0
          -0.0032093483088247153 -0.0018906020789851712 0 -0.0036354716317712854 -0.0015948434254508005 0
          -0.003265795206896329 -0.0018909003024571397 0 -0.0017378390541754139 -0.001316798328473433 0
          -0.0036768417395405067 -0.0018426847604490633 0 -0.003317942951155865 -0.001891107287368436 0
          -0.0033658481303677048 -0.0018914296431334996 0 -0.003488486135722507 -0.0019032046932653387 0
          -0.001455573042539043 -0.0011772705960817163 0 -0.0034450233836387126 -0.0018927796090372744 0
          -0.0037204516040600546 -0.001773579357148965 0 -0.0011538798797407481 -0.0010304922158154734 0
          -0.0031079789473182585 -0.001834619223671874 0 -0.0008514000537303334 -0.0008746120972982269 0
          -0.002657513159634045 -0.0016836290335468778 0 -0.003012929642878881 -0.0017955110946752911 0
          -0.0028111288769603515 -0.0017370617742495005 0 -0.0024788826686973067 -0.0016093422103197774 0
          -0.0033644226530612376 -0.0018376366689106679 0 -0.003570431802712189 -0.0018414074068771491 0
          -0.0037459605953153565 -0.001689331427796831 0 -0.0022726941679842294 -0.0015153092978612312 0
          -0.0005579726515813058 -0.000704463634677735 0 -0.0031048981194145286 -0.0017726715011679563 0
          -0.003730941904897076 -0.001597616750890358 0 -0.003490104733753838 -0.001811607638630423 0
          -0.00029493898648876704 -0.0005060564630331102 0 -0.0036658023597878507 -0.0017832881610031393 0
          -0.003734136368710439 -0.0017339540159264431 0 -0.0020995755887313968 -0.001407633752455593 0
          -0.0018227548482084319 -0.0012859370227508713 0 -0.0037725155246817106 -0.0016661633623192267 0
          -0.00009948246062997228 -0.0002962869163467207 0 -0.0025075916462384785 -0.0015453450227439487 0
          -0.0026897502124452813 -0.001606832475562884 0 -0.0015297472586479964 -0.001154582493363779 0
          -0.002861298641792141 -0.0016547856576800146 0 -0.003099540780517129 -0.0017021502686860313 0
          -0.002985653573596813 -0.0016826084911211753 0 -0.0023019069263213537 -0.001461194963732887 0
          -0.003722542974224852 -0.001693345020131026 0 -0.0009211575388182146 -0.0008888189643318636 0
          -0.0012770416673000612 -0.0010352466634910014 0 -0.003808026312434883 -0.0015777350086489622 0
          -0.003787008378102656 -0.0016292851467131825 0 -0.0006232901752962078 -0.0007438283554016632 0
          -0.003089593764177759 -0.0016212980294582832 0 -0.0021394359989392983 -0.0013306210241309914 0
          -0.0023282038041866665 -0.0013827740802946802 0 -0.002541448132382872 -0.001450764999105461 0
          -0.002733635694855287 -0.0015040073367813872 0 -0.00034864792188702657 -0.0005740599276437037 0
          -0.0015698877332153797 -0.001112386617041415 0 -0.0029539844222205743 -0.0015448687264870823 0
          -0.0018888613478573921 -0.0012000998352609874 0 -0.0030733370638310097 -0.0015264751917959335 0
          -0.000745834526309502 -0.0007721263104934541 0 -0.001027350526096221 -0.000873739393701589 0
          -0.0021253467816165104 -0.0011998938025559913 0 -0.002367256111560468 -0.0012693551742951287 0
          -0.002628101728400868 -0.0013192313733177133 0 -0.0029076319112935145 -0.0013801423805264602 0
          -0.0030472735562116623 -0.0014115755681039332 0 -0.00015787331840381048 -0.0004241260354216646 0
          -0.001319927714801192 -0.0009350834537438743 0 -0.0015976958354672736 -0.0009967809768793039 0
          -0.0004237741161358685 -0.0006157269708466815 0 0 0 0
          -0.001914063938403062 -0.0010028951380654453 0 -0.002174600695230372 -0.0010686200609666692 0
          -0.002406964354642261 -0.0011291331602597157 0 -0.0030060460641473676 -0.001265564965900597 0
          -0.0007845179770416749 -0.0006994069165547086 0 -0.0028302196497215415 -0.0011653531637867598 0
          -0.0010813890262717503 -0.0007485118290363056 0 -0.0013675605655066032 -0.0007851249849683136 0
          -0.0017003517666434572 -0.0007911747439332729 0 -0.001972295036114219 -0.0008460244753742525 0
          -0.002218579995192172 -0.0009011189801360651 0 -0.002494750604593557 -0.0009566172933297332 0
          0 0 0 -0.0006358535943427149 -0.000429025352692341 0
          -0.0013240705106870268 -0.0008064756979122639 0 -0.002191211172535448 -0.0008012993341722027 0
          -0.0017660519969481705 -0.0007870104639892813 0 -0.002382986393457337 -0.000693438438311581 0
          -0.00232972992521921 -0.0004565659872835299 0 -0.002628368019358302 -0.0008189006738053273 0
          -0.0027956133921155763 -0.0011301814648897195 0 -0.0026011261411373206 -0.0008985499136959816 0
          -0.0026750445170617893 -0.0009306694693708335 0 -0.003362051686186272 -0.0017770865343043967 0
          -0.0034831789626540858 -0.0017126996680875708 0 -0.0035792764633302463 -0.0017528492073452114 0
          -0.0036630796782791625 -0.0016793631142204223 0 -0.003740666663049947 -0.0015925302636995882 0
          -0.0038285635589568076 -0.00150800078854035 0 -0.003666389243081784 -0.0014868958135346344 0
          -0.003865650790955022 -0.0014091563464679567 0 -0.0035209192289126293 -0.001472327130069092 0
          -0.0037760116842433153 -0.0014763926396597349 0 -0.0030222074025700756 -0.0013290425386586803 0
          -0.003330310345249121 -0.0013236696206650259 0 -0.003093239333247425 -0.001288213286976578 0
          -0.0028072564845571983 -0.001238066395503688 0 -0.0028050809742233267 -0.0012281390678341973 0
          -0.002818651560438855 -0.001237930018153258 0 -0.0028023595550994915 -0.0012052489443119697 0
          -0.002793257667206117 -0.001163898376214564 0 -0.002943599824044445 -0.0010716178331205762 0
          -0.0027137385938960272 -0.0008700566952101258 0 -0.0020208604940423064 -0.0006425335254924121 0
          -0.0023158583610857313 -0.0007118419928482062 0 -0.0017693005207577493 -0.0005989241988630551 0
          -0.0014928801162701023 -0.0005606961409608579 0 -0.001199514563102332 -0.0005463045402986453 0
          -0.0008916428514032776 -0.0005330261206725423 0 -0.0005724041054062216 -0.0005056051351720043 0
          -0.00027040097854259674 -0.00042429319413841293 0 -0.00003510180446631973 -0.0002734348895730157 0
          0 0 0
          <InformationKey name="L2_NORM_RANGE" location="vtkDataArray" length="2">
            <Value index="0">
              0
            </Value>
            <Value index="1">
              0.0041240724695
            </Value>
          </InformationKey>
        </DataArray>
      </PointData>
      <CellData>
        <DataArray type="UInt8" Name="vtkGhostType" format="ascii" RangeMin="0" RangeMax="1">
          1 0 1 1 1 0
          1 1 1 0 1 1
          0 1 1 0 1 0
          0 0 0 0 0 1
          0 0 0 0 0 0
          0 0 0 0 0 0
          0 0 0 0 0 0
          0 0 0 0 0 0
          0 0 1 0 0 0
          0 0 0 0 0 1
          0 0 0 0 0 0
          0 0 0 0 0 0
          0 0 0 0 0 1
          1 0 0 0 0 0
          0 0 1 0 0 0
          0 0 0 0 1 0
          0 0 0 0 0 0
          0 0 0 0 0 0
          0 0 0 0 0 0
          0 0 0 0 0 0
          0 0 0 0 0 0
          0 0 0 0 0 0
          0 0 0 0 0 0
          0 0 0 0 0 0
          0 0 0 0 0 0
          0 0 0 0 0 0
          0 0 0 0 0 0
          0 0 0 0 0 0
          0 0 0 0 0 0
          0 0 0 0 0 0
          0 0 0 0 0 0
          0 0 0 0 0 0
          0 0 0 0 0 0
          0 0 0 0 0 0
          0 0 0 0 0 0
          0 0 0 0 0 0
          0 0 0 0 0 0
          0 0 0 0 0 0
          0 0 0 0 0 0
          0 0 0 0 0 0
          0 0 0 0 0 0
          0 0 0 0 0 0
          0 0 0 0 0 0
          0 0 0 0 0 0
          0 0 0 0 0 0
          0 0 0 0 0 0
          0 0 0 0 0 0
          0 0 0 0 0 0
          0 0 0 0 0 0
          0 0 0 0 0 0
          0 0 0 0 0 0
          0 0 0 0 0 0
          0 0 0 0 0 0
          0 0 0 0 0 0
          0 0 0 0 0 0
          0 0 0 0 0 0
          0 0 0 0 0 0
          0 0 0 0 0 0
          0 0 0 0 0 0
          0 0 0 0 0 0
          0 0 0 0 0 0
          0 0 0 0 0 0
          0 0 0 0 0 0
          0 0 0 0 0 0
          0 0 0 0 0 0
          0 0 0 0 0 0
          0 0 0 0 0 0
          0 0 0 0 0 0
          0 0 0 0 0 0
          0 0 0 0 0 0
          0 0 0 0 0 0
          0 0 0 0 0 0
          0 0 0 0 0 0
          0 0 0 0 0 0
          0 0 0 0 0 0
          0 0 0 0 0 0
          0 0 0 0 0 0
          0 0 0 0 0 0
          0 0 0 0 0 0
          0 0 0 0 0 0
          0 0 0 0 0 0
          0 0 0 0 0 0
          0 0 0 0 0 0
          0 0 0 0 0 0
          0 0 0 0 0 0
          0 1 0 0 0 0
          0 0 0 0 0 0
          0 0 0 0 0 0
          0 0 0 0 0 0
          0 0 0 0 0 0
          0 0 0 0 0 0
          0 0 0 0 0 0
          0 0 0 0 0 0
          0 0 0 0 0 0
          0 0 0 1 1 0
          0 0 0 0 1 0
          1 0 0 0 0 0
          0 0 0 0 0 0
          0 0 0 0 0 0
          0 1 0 0 0 0
          0 0 0 0 0 0
          0 0 0 0 0 1
          1 0 0 0 0 0
          0 0 0 0 0 0
          1 0 0 0 0 1
          1 0 0 0 0 0
          1 0 0 0 0 0
          0 0 0 0 1 0
          0 1 0 0 0 0
          0 0 0 0 0 0
          0 0 0 0 0 0
          0 1 1 0 0 0
          0 0 0 0 0 0
          0 0 0 0 0 0
          0 0 0 0 0 0
          0 0 0 0 0 0
          0 0 0 0 0 0
          0 0 0 0 0 0
          0 0 0 0 0 0
          0 0 0 0 0 0
          0 0 0 0 0 0
          0 0 0 0 0 0
          0 0 0 0 0 0
          0 0 0 0 0 0
          0 0 0 0 0 0
          0 0 0 0 0 0
          0 0 0 0 0 0
          0 0 0 0 0 0
          0 0 0 0 0 0
          0 0 0 0
        </DataArray>
        <DataArray type="Float64" Name="PStrain" NumberOfComponents="6" format="ascii" RangeMin="5.648704078028447e-11" RangeMax="0.000004362985436716909">
          9.055737136067697e-11 9.055737136067697e-11 0 9.055737136067697e-11 0 0
          2.470977564466442e-10 2.470977564466442e-10 0 2.470977564466442e-10 0 0
          3.2612808200222605e-11 3.2612808200222605e-11 0 3.2612808200222605e-11 0 0
          3.604956058248767e-11 3.604956058248767e-11 0 3.604956058248767e-11 0 0
          7.960805102986766e-11 7.960805102986766e-11 0 7.960805102986766e-11 0 0
          6.325274737763181e-11 6.325274737763181e-11 0 6.325274737763181e-11 0 0
          5.882473766208567e-11 5.882473766208567e-11 0 5.882473766208567e-11 0 0
          8.08283338724007e-11 8.08283338724007e-11 0 8.08283338724007e-11 0 0
          7.943265051533671e-11 7.943265051533671e-11 0 7.943265051533671e-11 0 0
          3.6865129489357504e-10 3.6865129489357504e-10 0 3.6865129489357504e-10 0 0
          1.5174543805938007e-10 1.5174543805938007e-10 0 1.5174543805938007e-10 0 0
          3.2097936615943066e-10 3.2097936615943066e-10 0 3.2097936615943066e-10 0 0
          2.0912848223620315e-10 2.0912848223620315e-10 0 2.0912848223620315e-10 0 0
          6.822291690120549e-10 6.822291690120549e-10 0 6.822291690120549e-10 0 0
          8.168676624132324e-10 8.168676624132324e-10 0 8.168676624132324e-10 0 0
          6.502060668047755e-10 6.502060668047755e-10 0 6.502060668047755e-10 0 0
          1.1542418609490321e-9 1.1542418609490321e-9 0 1.1542418609490321e-9 0 0
          8.412626201742099e-11 8.412626201742099e-11 0 8.412626201742099e-11 0 0
          4.418756173867654e-10 4.418756173867654e-10 0 4.418756173867654e-10 0 0
          4.5119004510776226e-10 4.5119004510776226e-10 0 4.5119004510776226e-10 0 0
          3.101722519946148e-9 3.101722519946148e-9 0 3.101722519946148e-9 0 0
          3.2113865893320842e-9 3.2113865893320842e-9 0 3.2113865893320842e-9 0 0
          7.9280654903042e-9 7.9280654903042e-9 0 7.9280654903042e-9 0 0
          1.0029837941412768e-8 1.0029837941412768e-8 0 1.0029837941412768e-8 0 0
          4.197296959103107e-9 4.197296959103107e-9 0 4.197296959103107e-9 0 0
          3.6791973504194396e-9 3.6791973504194396e-9 0 3.6791973504194396e-9 0 0
          3.1869811270540177e-9 3.1869811270540177e-9 0 3.1869811270540177e-9 0 0
          3.072600019505229e-9 3.072600019505229e-9 0 3.072600019505229e-9 0 0
          1.854814510409584e-9 1.854814510409584e-9 0 1.854814510409584e-9 0 0
          3.1164133299937343e-9 3.1164133299937343e-9 0 3.1164133299937343e-9 0 0
          2.0008466276764487e-9 2.0008466276764487e-9 0 2.0008466276764487e-9 0 0
          3.656433391657752e-9 3.656433391657752e-9 0 3.656433391657752e-9 0 0
          3.3789780535043387e-9 3.3789780535043387e-9 0 3.3789780535043387e-9 0 0
          6.7056790239239105e-9 6.7056790239239105e-9 0 6.7056790239239105e-9 0 0
          8.37996464697278e-9 8.37996464697278e-9 0 8.37996464697278e-9 0 0
          4.828246947124106e-9 4.828246947124106e-9 0 4.828246947124106e-9 0 0
          4.391034172651992e-9 4.391034172651992e-9 0 4.391034172651992e-9 0 0
          3.7082918509449393e-9 3.7082918509449393e-9 0 3.7082918509449393e-9 0 0
          5.2162109681754944e-9 5.2162109681754944e-9 0 5.2162109681754944e-9 0 0
          4.475517487907839e-9 4.475517487907839e-9 0 4.475517487907839e-9 0 0
          4.522468153288179e-9 4.522468153288179e-9 0 4.522468153288179e-9 0 0
          1.9539853830291225e-9 1.9539853830291225e-9 0 1.9539853830291225e-9 0 0
          1.8921592799438298e-9 1.8921592799438298e-9 0 1.8921592799438298e-9 0 0
          1.5900269046387157e-9 1.5900269046387157e-9 0 1.5900269046387157e-9 0 0
          1.8180463974154817e-9 1.8180463974154817e-9 0 1.8180463974154817e-9 0 0
          1.0844923248099178e-9 1.0844923248099178e-9 0 1.0844923248099178e-9 0 0
          2.40392397318114e-9 2.40392397318114e-9 0 2.40392397318114e-9 0 0
          1.867210940863219e-9 1.867210940863219e-9 0 1.867210940863219e-9 0 0
          1.2558997735572127e-9 1.2558997735572127e-9 0 1.2558997735572127e-9 0 0
          6.657455250832382e-9 6.657455250832382e-9 0 6.657455250832382e-9 0 0
          8.801869432409024e-9 8.801869432409024e-9 0 8.801869432409024e-9 0 0
          4.799836242291059e-9 4.799836242291059e-9 0 4.799836242291059e-9 0 0
          2.453907712570222e-9 2.453907712570222e-9 0 2.453907712570222e-9 0 0
          4.857460388461593e-9 4.857460388461593e-9 0 4.857460388461593e-9 0 0
          3.28284226981383e-9 3.28284226981383e-9 0 3.28284226981383e-9 0 0
          2.5936177421562823e-9 2.5936177421562823e-9 0 2.5936177421562823e-9 0 0
          2.068863289186552e-9 2.068863289186552e-9 0 2.068863289186552e-9 0 0
          3.0202449918601977e-9 3.0202449918601977e-9 0 3.0202449918601977e-9 0 0
          3.3081677832288422e-9 3.3081677832288422e-9 0 3.3081677832288422e-9 0 0
          5.754878703031177e-9 5.754878703031177e-9 0 5.754878703031177e-9 0 0
          4.7804365850894224e-9 4.7804365850894224e-9 0 4.7804365850894224e-9 0 0
          3.748461899157659e-9 3.748461899157659e-9 0 3.748461899157659e-9 0 0
          3.509738764001313e-9 3.509738764001313e-9 0 3.509738764001313e-9 0 0
          2.8099323700651608e-9 2.8099323700651608e-9 0 2.8099323700651608e-9 0 0
          9.554983391470568e-10 9.554983391470568e-10 0 9.554983391470568e-10 0 0
          8.673876492458604e-10 8.673876492458604e-10 0 8.673876492458604e-10 0 0
          1.0293549861278557e-9 1.0293549861278557e-9 0 1.0293549861278557e-9 0 0
          7.009999745190648e-10 7.009999745190648e-10 0 7.009999745190648e-10 0 0
          1.4886917120094489e-9 1.4886917120094489e-9 0 1.4886917120094489e-9 0 0
          1.0661599369867178e-9 1.0661599369867178e-9 0 1.0661599369867178e-9 0 0
          6.965193230598869e-10 6.965193230598869e-10 0 6.965193230598869e-10 0 0
          1.1706378236254964e-9 1.1706378236254964e-9 0 1.1706378236254964e-9 0 0
          1.849219410034165e-9 1.849219410034165e-9 0 1.849219410034165e-9 0 0
          1.4531426262686415e-9 1.4531426262686415e-9 0 1.4531426262686415e-9 0 0
          1.2273840348608172e-9 1.2273840348608172e-9 0 1.2273840348608172e-9 0 0
          5.3874583136974726e-9 5.3874583136974726e-9 0 5.3874583136974726e-9 0 0
          1.383224425594133e-9 1.383224425594133e-9 0 1.383224425594133e-9 0 0
          6.535737607323222e-9 6.535737607323222e-9 0 6.535737607323222e-9 0 0
          2.707756287873403e-9 2.707756287873403e-9 0 2.707756287873403e-9 0 0
          2.423555506294143e-9 2.423555506294143e-9 0 2.423555506294143e-9 0 0
          6.195094616473367e-10 6.195094616473367e-10 0 6.195094616473367e-10 0 0
          2.766955661914089e-10 2.766955661914089e-10 0 2.766955661914089e-10 0 0
          3.1844613689038467e-10 3.1844613689038467e-10 0 3.1844613689038467e-10 0 0
          1.7109133103481573e-9 1.7109133103481573e-9 0 1.7109133103481573e-9 0 0
          1.5274415950269674e-9 1.5274415950269674e-9 0 1.5274415950269674e-9 0 0
          1.7726422828877802e-9 1.7726422828877802e-9 0 1.7726422828877802e-9 0 0
          2.8221776729529608e-9 2.8221776729529608e-9 0 2.8221776729529608e-9 0 0
          2.518002052577372e-9 2.518002052577372e-9 0 2.518002052577372e-9 0 0
          4.329731712181763e-9 4.329731712181763e-9 0 4.329731712181763e-9 0 0
          5.283745424022662e-10 5.283745424022662e-10 0 5.283745424022662e-10 0 0
          6.159531657673271e-10 6.159531657673271e-10 0 6.159531657673271e-10 0 0
          9.327032072373023e-10 9.327032072373023e-10 0 9.327032072373023e-10 0 0
          3.292316727013626e-9 3.292316727013626e-9 0 3.292316727013626e-9 0 0
          6.596066789870763e-9 6.596066789870763e-9 0 6.596066789870763e-9 0 0
          2.721302547094124e-9 2.721302547094124e-9 0 2.721302547094124e-9 0 0
          5.386629661261625e-10 5.386629661261625e-10 0 5.386629661261625e-10 0 0
          2.2232196556476174e-9 2.2232196556476174e-9 0 2.2232196556476174e-9 0 0
          2.717306924435044e-9 2.717306924435044e-9 0 2.717306924435044e-9 0 0
          5.607003454033992e-9 5.607003454033992e-9 0 5.607003454033992e-9 0 0
          5.1454912342065034e-9 5.1454912342065034e-9 0 5.1454912342065034e-9 0 0
          3.5493289852413557e-9 3.5493289852413557e-9 0 3.5493289852413557e-9 0 0
          1.3091546706502158e-9 1.3091546706502158e-9 0 1.3091546706502158e-9 0 0
          2.0960357996543816e-9 2.0960357996543816e-9 0 2.0960357996543816e-9 0 0
          7.977294023536973e-10 7.977294023536973e-10 0 7.977294023536973e-10 0 0
          0.0000013041019632474244 0.0000013041019632474244 0 0.0000013041019632474244 0 0
          6.720604504148121e-7 6.720604504148121e-7 0 6.720604504148121e-7 0 0
          9.56185337782528e-7 9.56185337782528e-7 0 9.56185337782528e-7 0 0
          0.0000015393664665828342 0.0000015393664665828342 0 0.0000015393664665828342 0 0
          0.0000018925902238573402 0.0000018925902238573402 0 0.0000018925902238573402 0 0
          7.858873125439816e-7 7.858873125439816e-7 0 7.858873125439816e-7 0 0
          8.059974277043413e-7 8.059974277043413e-7 0 8.059974277043413e-7 0 0
          7.224702592020885e-7 7.224702592020885e-7 0 7.224702592020885e-7 0 0
          6.114777581764094e-7 6.114777581764094e-7 0 6.114777581764094e-7 0 0
          6.111736714011745e-7 6.111736714011745e-7 0 6.111736714011745e-7 0 0
          4.889074803075634e-7 4.889074803075634e-7 0 4.889074803075634e-7 0 0
          4.3141724720839573e-7 4.3141724720839573e-7 0 4.3141724720839573e-7 0 0
          0.0000013485277688618774 0.0000013485277688618774 0 0.0000013485277688618774 0 0
          5.586046504942679e-7 5.586046504942679e-7 0 5.586046504942679e-7 0 0
          6.475128427289442e-7 6.475128427289442e-7 0 6.475128427289442e-7 0 0
          4.950392276847773e-7 4.950392276847773e-7 0 4.950392276847773e-7 0 0
          6.165051342974927e-7 6.165051342974927e-7 0 6.165051342974927e-7 0 0
          5.281659400057046e-7 5.281659400057046e-7 0 5.281659400057046e-7 0 0
          8.122198012992496e-7 8.122198012992496e-7 0 8.122198012992496e-7 0 0
          0.0000011642065365275137 0.0000011642065365275137 0 0.0000011642065365275137 0 0
          0.0000025189708163589242 0.0000025189708163589242 0 0.0000025189708163589242 0 0
          4.764926475200878e-7 4.764926475200878e-7 0 4.764926475200878e-7 0 0
          5.569743145268963e-7 5.569743145268963e-7 0 5.569743145268963e-7 0 0
          0.000001478365925795245 0.000001478365925795245 0 0.000001478365925795245 0 0
          0.0000013173846006860373 0.0000013173846006860373 0 0.0000013173846006860373 0 0
          0.00000101469196667712 0.00000101469196667712 0 0.00000101469196667712 0 0
          8.204489269886785e-7 8.204489269886785e-7 0 8.204489269886785e-7 0 0
          8.319232239179987e-7 8.319232239179987e-7 0 8.319232239179987e-7 0 0
          2.8275823842175124e-7 2.8275823842175124e-7 0 2.8275823842175124e-7 0 0
          6.887737323081219e-7 6.887737323081219e-7 0 6.887737323081219e-7 0 0
          2.826313194232959e-7 2.826313194232959e-7 0 2.826313194232959e-7 0 0
          0.0000010029327788191938 0.0000010029327788191938 0 0.0000010029327788191938 0 0
          1.9425023722125532e-7 1.9425023722125532e-7 0 1.9425023722125532e-7 0 0
          2.9604408107388057e-7 2.9604408107388057e-7 0 2.9604408107388057e-7 0 0
          0.0000011590709100433274 0.0000011590709100433274 0 0.0000011590709100433274 0 0
          0.0000010236053043653168 0.0000010236053043653168 0 0.0000010236053043653168 0 0
          1.964891427992465e-7 1.964891427992465e-7 0 1.964891427992465e-7 0 0
          2.233517274290419e-7 2.233517274290419e-7 0 2.233517274290419e-7 0 0
          2.7611262992124993e-7 2.7611262992124993e-7 0 2.7611262992124993e-7 0 0
          2.7362824028544567e-7 2.7362824028544567e-7 0 2.7362824028544567e-7 0 0
          9.158503246878107e-7 9.158503246878107e-7 0 9.158503246878107e-7 0 0
          2.4143715365453096e-7 2.4143715365453096e-7 0 2.4143715365453096e-7 0 0
          3.7022342738725026e-7 3.7022342738725026e-7 0 3.7022342738725026e-7 0 0
          3.768597033193498e-7 3.768597033193498e-7 0 3.768597033193498e-7 0 0
          3.219162911302566e-7 3.219162911302566e-7 0 3.219162911302566e-7 0 0
          5.103171976895459e-7 5.103171976895459e-7 0 5.103171976895459e-7 0 0
          4.362365994711747e-7 4.362365994711747e-7 0 4.362365994711747e-7 0 0
          2.6922322226920265e-7 2.6922322226920265e-7 0 2.6922322226920265e-7 0 0
          4.072825547002004e-7 4.072825547002004e-7 0 4.072825547002004e-7 0 0
          2.2145748092073973e-7 2.2145748092073973e-7 0 2.2145748092073973e-7 0 0
          5.221794892741327e-7 5.221794892741327e-7 0 5.221794892741327e-7 0 0
          3.35694351995419e-7 3.35694351995419e-7 0 3.35694351995419e-7 0 0
          2.4480089336778703e-7 2.4480089336778703e-7 0 2.4480089336778703e-7 0 0
          3.0406834079778683e-7 3.0406834079778683e-7 0 3.0406834079778683e-7 0 0
          1.7371004119777497e-7 1.7371004119777497e-7 0 1.7371004119777497e-7 0 0
          6.665094786104894e-7 6.665094786104894e-7 0 6.665094786104894e-7 0 0
          7.46189016067452e-7 7.46189016067452e-7 0 7.46189016067452e-7 0 0
          6.310997780997837e-7 6.310997780997837e-7 0 6.310997780997837e-7 0 0
          2.0292392848135797e-7 2.0292392848135797e-7 0 2.0292392848135797e-7 0 0
          3.499164262693482e-7 3.499164262693482e-7 0 3.499164262693482e-7 0 0
          2.2564085369902625e-7 2.2564085369902625e-7 0 2.2564085369902625e-7 0 0
          2.903253752441718e-7 2.903253752441718e-7 0 2.903253752441718e-7 0 0
          1.7162037216663115e-7 1.7162037216663115e-7 0 1.7162037216663115e-7 0 0
          4.3916262976344893e-7 4.3916262976344893e-7 0 4.3916262976344893e-7 0 0
          2.2197776032493895e-7 2.2197776032493895e-7 0 2.2197776032493895e-7 0 0
          1.3934254060528083e-7 1.3934254060528083e-7 0 1.3934254060528083e-7 0 0
          4.181571759850996e-7 4.181571759850996e-7 0 4.181571759850996e-7 0 0
          2.8044561318073456e-7 2.8044561318073456e-7 0 2.8044561318073456e-7 0 0
          1.601547975695252e-7 1.601547975695252e-7 0 1.601547975695252e-7 0 0
          1.3480976587319874e-7 1.3480976587319874e-7 0 1.3480976587319874e-7 0 0
          1.2650656108120635e-7 1.2650656108120635e-7 0 1.2650656108120635e-7 0 0
          2.255559830933648e-7 2.255559830933648e-7 0 2.255559830933648e-7 0 0
          6.884728945481399e-7 6.884728945481399e-7 0 6.884728945481399e-7 0 0
          5.077614140057946e-7 5.077614140057946e-7 0 5.077614140057946e-7 0 0
          7.711708218598299e-7 7.711708218598299e-7 0 7.711708218598299e-7 0 0
          3.314784169474033e-7 3.314784169474033e-7 0 3.314784169474033e-7 0 0
          4.5434140179489233e-7 4.5434140179489233e-7 0 4.5434140179489233e-7 0 0
          3.311670442339e-7 3.311670442339e-7 0 3.311670442339e-7 0 0
          2.7356446192660016e-7 2.7356446192660016e-7 0 2.7356446192660016e-7 0 0
          1.7525026429178873e-7 1.7525026429178873e-7 0 1.7525026429178873e-7 0 0
          2.341473232167248e-7 2.341473232167248e-7 0 2.341473232167248e-7 0 0
          1.4415470825194358e-7 1.4415470825194358e-7 0 1.4415470825194358e-7 0 0
          1.764388164108228e-7 1.764388164108228e-7 0 1.764388164108228e-7 0 0
          1.1342699764895928e-7 1.1342699764895928e-7 0 1.1342699764895928e-7 0 0
          1.6534988569880275e-7 1.6534988569880275e-7 0 1.6534988569880275e-7 0 0
          1.404078269082672e-7 1.404078269082672e-7 0 1.404078269082672e-7 0 0
          1.068727584504855e-7 1.068727584504855e-7 0 1.068727584504855e-7 0 0
          9.943374229258917e-8 9.943374229258917e-8 0 9.943374229258917e-8 0 0
          5.207446764784149e-7 5.207446764784149e-7 0 5.207446764784149e-7 0 0
          4.3667955109353343e-7 4.3667955109353343e-7 0 4.3667955109353343e-7 0 0
          3.068331875443319e-7 3.068331875443319e-7 0 3.068331875443319e-7 0 0
          2.2995024714813427e-7 2.2995024714813427e-7 0 2.2995024714813427e-7 0 0
          8.894947332898215e-8 8.894947332898215e-8 0 8.894947332898215e-8 0 0
          1.0465094591881281e-7 1.0465094591881281e-7 0 1.0465094591881281e-7 0 0
          1.3127886176139918e-7 1.3127886176139918e-7 0 1.3127886176139918e-7 0 0
          9.89234056964699e-8 9.89234056964699e-8 0 9.89234056964699e-8 0 0
          2.115028717091627e-7 2.115028717091627e-7 0 2.115028717091627e-7 0 0
          3.2829607645291614e-7 3.2829607645291614e-7 0 3.2829607645291614e-7 0 0
          5.647566374990684e-7 5.647566374990684e-7 0 5.647566374990684e-7 0 0
          4.7515867189595315e-7 4.7515867189595315e-7 0 4.7515867189595315e-7 0 0
          3.8391587334222225e-7 3.8391587334222225e-7 0 3.8391587334222225e-7 0 0
          3.4900682801614165e-7 3.4900682801614165e-7 0 3.4900682801614165e-7 0 0
          3.1981201774830137e-7 3.1981201774830137e-7 0 3.1981201774830137e-7 0 0
          1.826868142380906e-7 1.826868142380906e-7 0 1.826868142380906e-7 0 0
          1.1225944879923388e-7 1.1225944879923388e-7 0 1.1225944879923388e-7 0 0
          8.020284024204248e-8 8.020284024204248e-8 0 8.020284024204248e-8 0 0
          8.951415739796597e-8 8.951415739796597e-8 0 8.951415739796597e-8 0 0
          7.517017497430449e-7 7.517017497430449e-7 0 7.517017497430449e-7 0 0
          1.4372175933535548e-7 1.4372175933535548e-7 0 1.4372175933535548e-7 0 0
          2.389970100468834e-7 2.389970100468834e-7 0 2.389970100468834e-7 0 0
          3.44330508236121e-7 3.44330508236121e-7 0 3.44330508236121e-7 0 0
          6.351751715367935e-8 6.351751715367935e-8 0 6.351751715367935e-8 0 0
          2.4327301415895125e-7 2.4327301415895125e-7 0 2.4327301415895125e-7 0 0
          5.494295896008213e-7 5.494295896008213e-7 0 5.494295896008213e-7 0 0
          4.236775904720868e-7 4.236775904720868e-7 0 4.236775904720868e-7 0 0
          7.431210904474458e-7 7.431210904474458e-7 0 7.431210904474458e-7 0 0
          7.91352126890947e-7 7.91352126890947e-7 0 7.91352126890947e-7 0 0
          1.3462137501330446e-7 1.3462137501330446e-7 0 1.3462137501330446e-7 0 0
          1.8442613864749243e-7 1.8442613864749243e-7 0 1.8442613864749243e-7 0 0
          2.79681545976987e-7 2.79681545976987e-7 0 2.79681545976987e-7 0 0
          3.883658764055212e-7 3.883658764055212e-7 0 3.883658764055212e-7 0 0
          4.1097819357816314e-7 4.1097819357816314e-7 0 4.1097819357816314e-7 0 0
          3.279779435585514e-7 3.279779435585514e-7 0 3.279779435585514e-7 0 0
          3.35730995172648e-7 3.35730995172648e-7 0 3.35730995172648e-7 0 0
          2.87504873925425e-7 2.87504873925425e-7 0 2.87504873925425e-7 0 0
          2.55747720338443e-7 2.55747720338443e-7 0 2.55747720338443e-7 0 0
          2.3565792838961518e-7 2.3565792838961518e-7 0 2.3565792838961518e-7 0 0
          4.5503953611710023e-7 4.5503953611710023e-7 0 4.5503953611710023e-7 0 0
          6.930404267686137e-7 6.930404267686137e-7 0 6.930404267686137e-7 0 0
          2.1741190768480975e-7 2.1741190768480975e-7 0 2.1741190768480975e-7 0 0
          5.696215050840666e-7 5.696215050840666e-7 0 5.696215050840666e-7 0 0
          7.01955421098789e-8 7.01955421098789e-8 0 7.01955421098789e-8 0 0
          1.7671114349602314e-7 1.7671114349602314e-7 0 1.7671114349602314e-7 0 0
          6.543195954870958e-8 6.543195954870958e-8 0 6.543195954870958e-8 0 0
          7.035052517059104e-8 7.035052517059104e-8 0 7.035052517059104e-8 0 0
          1.3571152371123407e-7 1.3571152371123407e-7 0 1.3571152371123407e-7 0 0
          1.8218183060744169e-7 1.8218183060744169e-7 0 1.8218183060744169e-7 0 0
          2.3358517131393203e-7 2.3358517131393203e-7 0 2.3358517131393203e-7 0 0
          2.265361665059399e-7 2.265361665059399e-7 0 2.265361665059399e-7 0 0
          2.3333271216500665e-7 2.3333271216500665e-7 0 2.3333271216500665e-7 0 0
          4.403396767153554e-7 4.403396767153554e-7 0 4.403396767153554e-7 0 0
          3.491725548233515e-7 3.491725548233515e-7 0 3.491725548233515e-7 0 0
          5.944220972667174e-7 5.944220972667174e-7 0 5.944220972667174e-7 0 0
          6.043870246822542e-7 6.043870246822542e-7 0 6.043870246822542e-7 0 0
          3.007730561918075e-7 3.007730561918075e-7 0 3.007730561918075e-7 0 0
          2.514846855191144e-7 2.514846855191144e-7 0 2.514846855191144e-7 0 0
          2.4864543624637865e-7 2.4864543624637865e-7 0 2.4864543624637865e-7 0 0
          2.154036051956798e-7 2.154036051956798e-7 0 2.154036051956798e-7 0 0
          1.0476101592553686e-7 1.0476101592553686e-7 0 1.0476101592553686e-7 0 0
          7.141300925169385e-8 7.141300925169385e-8 0 7.141300925169385e-8 0 0
          2.598438410085376e-7 2.598438410085376e-7 0 2.598438410085376e-7 0 0
          3.4824044928079564e-7 3.4824044928079564e-7 0 3.4824044928079564e-7 0 0
          2.803170528870885e-7 2.803170528870885e-7 0 2.803170528870885e-7 0 0
          4.87797235701996e-8 4.87797235701996e-8 0 4.87797235701996e-8 0 0
          7.84520336227579e-8 7.84520336227579e-8 0 7.84520336227579e-8 0 0
          1.2559239714451845e-7 1.2559239714451845e-7 0 1.2559239714451845e-7 0 0
          2.897359958165011e-7 2.897359958165011e-7 0 2.897359958165011e-7 0 0
          1.712924273985824e-7 1.712924273985824e-7 0 1.712924273985824e-7 0 0
          3.71419006932875e-7 3.71419006932875e-7 0 3.71419006932875e-7 0 0
          1.749937568908134e-7 1.749937568908134e-7 0 1.749937568908134e-7 0 0
          1.6805213210017692e-7 1.6805213210017692e-7 0 1.6805213210017692e-7 0 0
          1.8596103184205296e-7 1.8596103184205296e-7 0 1.8596103184205296e-7 0 0
          4.941907065525341e-7 4.941907065525341e-7 0 4.941907065525341e-7 0 0
          3.733979127587607e-7 3.733979127587607e-7 0 3.733979127587607e-7 0 0
          1.6586580933066822e-7 1.6586580933066822e-7 0 1.6586580933066822e-7 0 0
          2.065183970329839e-7 2.065183970329839e-7 0 2.065183970329839e-7 0 0
          2.072553488314616e-7 2.072553488314616e-7 0 2.072553488314616e-7 0 0
          2.555605037997463e-7 2.555605037997463e-7 0 2.555605037997463e-7 0 0
          1.0656159918671928e-7 1.0656159918671928e-7 0 1.0656159918671928e-7 0 0
          4.549139391726836e-8 4.549139391726836e-8 0 4.549139391726836e-8 0 0
          1.7357828346587804e-7 1.7357828346587804e-7 0 1.7357828346587804e-7 0 0
          6.088680724250947e-8 6.088680724250947e-8 0 6.088680724250947e-8 0 0
          6.095777628861759e-8 6.095777628861759e-8 0 6.095777628861759e-8 0 0
          4.794702550172323e-8 4.794702550172323e-8 0 4.794702550172323e-8 0 0
          5.107568910942519e-8 5.107568910942519e-8 0 5.107568910942519e-8 0 0
          7.185019365161332e-8 7.185019365161332e-8 0 7.185019365161332e-8 0 0
          9.392328332735865e-8 9.392328332735865e-8 0 9.392328332735865e-8 0 0
          2.4625265751248106e-7 2.4625265751248106e-7 0 2.4625265751248106e-7 0 0
          1.2655738759830303e-7 1.2655738759830303e-7 0 1.2655738759830303e-7 0 0
          1.3272939552119946e-7 1.3272939552119946e-7 0 1.3272939552119946e-7 0 0
          1.478086942856473e-7 1.478086942856473e-7 0 1.478086942856473e-7 0 0
          4.7279385110324896e-7 4.7279385110324896e-7 0 4.7279385110324896e-7 0 0
          1.1729618733682287e-7 1.1729618733682287e-7 0 1.1729618733682287e-7 0 0
          5.238421754561808e-7 5.238421754561808e-7 0 5.238421754561808e-7 0 0
          3.632774604451885e-7 3.632774604451885e-7 0 3.632774604451885e-7 0 0
          2.932423443595991e-7 2.932423443595991e-7 0 2.932423443595991e-7 0 0
          2.610346482866948e-7 2.610346482866948e-7 0 2.610346482866948e-7 0 0
          2.0724370711137035e-7 2.0724370711137035e-7 0 2.0724370711137035e-7 0 0
          2.2852962018181567e-7 2.2852962018181567e-7 0 2.2852962018181567e-7 0 0
          2.139160499270673e-7 2.139160499270673e-7 0 2.139160499270673e-7 0 0
          1.8211982515989641e-7 1.8211982515989641e-7 0 1.8211982515989641e-7 0 0
          1.614269347768401e-7 1.614269347768401e-7 0 1.614269347768401e-7 0 0
          6.239859782113422e-8 6.239859782113422e-8 0 6.239859782113422e-8 0 0
          3.963085396785447e-8 3.963085396785447e-8 0 3.963085396785447e-8 0 0
          4.923145241565517e-8 4.923145241565517e-8 0 4.923145241565517e-8 0 0
          8.714165800589312e-8 8.714165800589312e-8 0 8.714165800589312e-8 0 0
          2.940489877771757e-7 2.940489877771757e-7 0 2.940489877771757e-7 0 0
          2.3340539852684587e-7 2.3340539852684587e-7 0 2.3340539852684587e-7 0 0
          3.673029646944308e-8 3.673029646944308e-8 0 3.673029646944308e-8 0 0
          2.950226331676923e-7 2.950226331676923e-7 0 2.950226331676923e-7 0 0
          5.3551821033406014e-8 5.3551821033406014e-8 0 5.3551821033406014e-8 0 0
          5.3176918875625055e-8 5.3176918875625055e-8 0 5.3176918875625055e-8 0 0
          1.2336027830040925e-7 1.2336027830040925e-7 0 1.2336027830040925e-7 0 0
          3.228744637383725e-7 3.228744637383725e-7 0 3.228744637383725e-7 0 0
          8.15137837394326e-8 8.15137837394326e-8 0 8.15137837394326e-8 0 0
          7.120329311151562e-8 7.120329311151562e-8 0 7.120329311151562e-8 0 0
          1.5747540145905083e-7 1.5747540145905083e-7 0 1.5747540145905083e-7 0 0
          1.3854068374485574e-7 1.3854068374485574e-7 0 1.3854068374485574e-7 0 0
          1.5193900626255792e-7 1.5193900626255792e-7 0 1.5193900626255792e-7 0 0
          1.8610302508811125e-7 1.8610302508811125e-7 0 1.8610302508811125e-7 0 0
          1.288049802564863e-7 1.288049802564863e-7 0 1.288049802564863e-7 0 0
          3.1747614226315206e-7 3.1747614226315206e-7 0 3.1747614226315206e-7 0 0
          1.8655515286258147e-7 1.8655515286258147e-7 0 1.8655515286258147e-7 0 0
          2.3008767786554184e-7 2.3008767786554184e-7 0 2.3008767786554184e-7 0 0
          1.2444342650297167e-7 1.2444342650297167e-7 0 1.2444342650297167e-7 0 0
          8.914000265044912e-8 8.914000265044912e-8 0 8.914000265044912e-8 0 0
          4.451648851310725e-7 4.451648851310725e-7 0 4.451648851310725e-7 0 0
          4.420004420598471e-7 4.420004420598471e-7 0 4.420004420598471e-7 0 0
          4.2617737039684215e-7 4.2617737039684215e-7 0 4.2617737039684215e-7 0 0
          2.2334564751930196e-7 2.2334564751930196e-7 0 2.2334564751930196e-7 0 0
          2.6897097632971483e-7 2.6897097632971483e-7 0 2.6897097632971483e-7 0 0
          1.1077197944528589e-7 1.1077197944528589e-7 0 1.1077197944528589e-7 0 0
          3.9032003321528436e-7 3.9032003321528436e-7 0 3.9032003321528436e-7 0 0
          1.4926914784999072e-7 1.4926914784999072e-7 0 1.4926914784999072e-7 0 0
          4.0892537431153834e-8 4.0892537431153834e-8 0 4.0892537431153834e-8 0 0
          5.30543846519436e-8 5.30543846519436e-8 0 5.30543846519436e-8 0 0
          3.147275564800067e-8 3.147275564800067e-8 0 3.147275564800067e-8 0 0
          8.588880070980204e-8 8.588880070980204e-8 0 8.588880070980204e-8 0 0
          9.627762216666805e-8 9.627762216666805e-8 0 9.627762216666805e-8 0 0
          9.877130116304021e-8 9.877130116304021e-8 0 9.877130116304021e-8 0 0
          3.4837027085827554e-8 3.4837027085827554e-8 0 3.4837027085827554e-8 0 0
          2.3050911513075556e-7 2.3050911513075556e-7 0 2.3050911513075556e-7 0 0
          2.6761080669557293e-7 2.6761080669557293e-7 0 2.6761080669557293e-7 0 0
          1.178294203533939e-7 1.178294203533939e-7 0 1.178294203533939e-7 0 0
          2.6434016110041485e-7 2.6434016110041485e-7 0 2.6434016110041485e-7 0 0
          3.8280738643314085e-8 3.8280738643314085e-8 0 3.8280738643314085e-8 0 0
          9.328541303867819e-8 9.328541303867819e-8 0 9.328541303867819e-8 0 0
          2.583773200127982e-7 2.583773200127982e-7 0 2.583773200127982e-7 0 0
          2.2784526312635443e-7 2.2784526312635443e-7 0 2.2784526312635443e-7 0 0
          1.8592446828924346e-7 1.8592446828924346e-7 0 1.8592446828924346e-7 0 0
          4.1766303070515134e-8 4.1766303070515134e-8 0 4.1766303070515134e-8 0 0
          2.6719282721645323e-8 2.6719282721645323e-8 0 2.6719282721645323e-8 0 0
          5.377202667391858e-8 5.377202667391858e-8 0 5.377202667391858e-8 0 0
          3.394786444396132e-8 3.394786444396132e-8 0 3.394786444396132e-8 0 0
          1.2900216010773878e-7 1.2900216010773878e-7 0 1.2900216010773878e-7 0 0
          3.6985869794757517e-7 3.6985869794757517e-7 0 3.6985869794757517e-7 0 0
          3.6591680684552707e-7 3.6591680684552707e-7 0 3.6591680684552707e-7 0 0
          3.0360781801436926e-7 3.0360781801436926e-7 0 3.0360781801436926e-7 0 0
          3.421282394951021e-7 3.421282394951021e-7 0 3.421282394951021e-7 0 0
          2.528136775973988e-7 2.528136775973988e-7 0 2.528136775973988e-7 0 0
          1.7232323265117648e-7 1.7232323265117648e-7 0 1.7232323265117648e-7 0 0
          1.380062923895597e-7 1.380062923895597e-7 0 1.380062923895597e-7 0 0
          1.2741122262877483e-7 1.2741122262877483e-7 0 1.2741122262877483e-7 0 0
          4.020228885650359e-8 4.020228885650359e-8 0 4.020228885650359e-8 0 0
          3.863814887004387e-8 3.863814887004387e-8 0 3.863814887004387e-8 0 0
          5.947288480003033e-8 5.947288480003033e-8 0 5.947288480003033e-8 0 0
          5.6795299038276426e-8 5.6795299038276426e-8 0 5.6795299038276426e-8 0 0
          8.358957732515653e-8 8.358957732515653e-8 0 8.358957732515653e-8 0 0
          6.795793541066993e-8 6.795793541066993e-8 0 6.795793541066993e-8 0 0
          2.478531341208261e-7 2.478531341208261e-7 0 2.478531341208261e-7 0 0
          1.9991211256166424e-7 1.9991211256166424e-7 0 1.9991211256166424e-7 0 0
          3.4115889897339856e-8 3.4115889897339856e-8 0 3.4115889897339856e-8 0 0
          6.976395512835969e-8 6.976395512835969e-8 0 6.976395512835969e-8 0 0
          1.1547653935324309e-7 1.1547653935324309e-7 0 1.1547653935324309e-7 0 0
          8.881946590915669e-8 8.881946590915669e-8 0 8.881946590915669e-8 0 0
          2.711459162999683e-8 2.711459162999683e-8 0 2.711459162999683e-8 0 0
          3.0486415541768145e-7 3.0486415541768145e-7 0 3.0486415541768145e-7 0 0
          3.197777730381218e-7 3.197777730381218e-7 0 3.197777730381218e-7 0 0
          2.8130511644153174e-7 2.8130511644153174e-7 0 2.8130511644153174e-7 0 0
          1.4404477199457302e-7 1.4404477199457302e-7 0 1.4404477199457302e-7 0 0
          2.897366254285478e-7 2.897366254285478e-7 0 2.897366254285478e-7 0 0
          2.0622796381017765e-7 2.0622796381017765e-7 0 2.0622796381017765e-7 0 0
          2.228225544627181e-7 2.228225544627181e-7 0 2.228225544627181e-7 0 0
          1.688671049230955e-7 1.688671049230955e-7 0 1.688671049230955e-7 0 0
          2.0687023840558263e-7 2.0687023840558263e-7 0 2.0687023840558263e-7 0 0
          9.215202057255176e-8 9.215202057255176e-8 0 9.215202057255176e-8 0 0
          6.677112881275331e-8 6.677112881275331e-8 0 6.677112881275331e-8 0 0
          8.367122085448693e-8 8.367122085448693e-8 0 8.367122085448693e-8 0 0
          9.559237022980057e-8 9.559237022980057e-8 0 9.559237022980057e-8 0 0
          2.3736513927057955e-7 2.3736513927057955e-7 0 2.3736513927057955e-7 0 0
          2.7378450626410164e-7 2.7378450626410164e-7 0 2.7378450626410164e-7 0 0
          1.4102696064093397e-7 1.4102696064093397e-7 0 1.4102696064093397e-7 0 0
          1.7041644542244935e-7 1.7041644542244935e-7 0 1.7041644542244935e-7 0 0
          1.0182464680750921e-7 1.0182464680750921e-7 0 1.0182464680750921e-7 0 0
          2.714877932632475e-7 2.714877932632475e-7 0 2.714877932632475e-7 0 0
          2.143043167145616e-8 2.143043167145616e-8 0 2.143043167145616e-8 0 0
          6.878782309259965e-8 6.878782309259965e-8 0 6.878782309259965e-8 0 0
          2.9511187331696887e-8 2.9511187331696887e-8 0 2.9511187331696887e-8 0 0
          2.580021952880143e-8 2.580021952880143e-8 0 2.580021952880143e-8 0 0
          4.374066512989929e-8 4.374066512989929e-8 0 4.374066512989929e-8 0 0
          1.0741929240929417e-7 1.0741929240929417e-7 0 1.0741929240929417e-7 0 0
          9.599823537903827e-8 9.599823537903827e-8 0 9.599823537903827e-8 0 0
          2.8459152734645465e-8 2.8459152734645465e-8 0 2.8459152734645465e-8 0 0
          2.7801675752071153e-7 2.7801675752071153e-7 0 2.7801675752071153e-7 0 0
          3.512042572847809e-8 3.512042572847809e-8 0 3.512042572847809e-8 0 0
          2.156546159365108e-8 2.156546159365108e-8 0 2.156546159365108e-8 0 0
          4.430157356901373e-8 4.430157356901373e-8 0 4.430157356901373e-8 0 0
          2.7938603675469195e-8 2.7938603675469195e-8 0 2.7938603675469195e-8 0 0
          3.625067072915946e-7 3.625067072915946e-7 0 3.625067072915946e-7 0 0
          6.257167628056643e-8 6.257167628056643e-8 0 6.257167628056643e-8 0 0
          5.167134250949517e-8 5.167134250949517e-8 0 5.167134250949517e-8 0 0
          2.8254378203721467e-8 2.8254378203721467e-8 0 2.8254378203721467e-8 0 0
          1.681824096765089e-8 1.681824096765089e-8 0 1.681824096765089e-8 0 0
          4.3823923241778614e-8 4.3823923241778614e-8 0 4.3823923241778614e-8 0 0
          5.1463897342904454e-8 5.1463897342904454e-8 0 5.1463897342904454e-8 0 0
          1.939733121162082e-7 1.939733121162082e-7 0 1.939733121162082e-7 0 0
          1.5362643705287886e-7 1.5362643705287886e-7 0 1.5362643705287886e-7 0 0
          1.6889899269667627e-7 1.6889899269667627e-7 0 1.6889899269667627e-7 0 0
          8.21078107942183e-8 8.21078107942183e-8 0 8.21078107942183e-8 0 0
          6.160604797848974e-8 6.160604797848974e-8 0 6.160604797848974e-8 0 0
          7.284694239801958e-8 7.284694239801958e-8 0 7.284694239801958e-8 0 0
          3.003586744899328e-8 3.003586744899328e-8 0 3.003586744899328e-8 0 0
          3.007763189708678e-8 3.007763189708678e-8 0 3.007763189708678e-8 0 0
          2.7115972397074455e-7 2.7115972397074455e-7 0 2.7115972397074455e-7 0 0
          2.1371036329334733e-7 2.1371036329334733e-7 0 2.1371036329334733e-7 0 0
          1.055822993094263e-7 1.055822993094263e-7 0 1.055822993094263e-7 0 0
          7.625250030969506e-8 7.625250030969506e-8 0 7.625250030969506e-8 0 0
          3.4306306920401574e-7 3.4306306920401574e-7 0 3.4306306920401574e-7 0 0
          3.494509582554118e-7 3.494509582554118e-7 0 3.494509582554118e-7 0 0
          1.3075937724412586e-7 1.3075937724412586e-7 0 1.3075937724412586e-7 0 0
          1.0225363051819699e-7 1.0225363051819699e-7 0 1.0225363051819699e-7 0 0
          9.048388336206682e-8 9.048388336206682e-8 0 9.048388336206682e-8 0 0
          2.1078442257977614e-7 2.1078442257977614e-7 0 2.1078442257977614e-7 0 0
          1.688732508933075e-7 1.688732508933075e-7 0 1.688732508933075e-7 0 0
          2.105850800623349e-8 2.105850800623349e-8 0 2.105850800623349e-8 0 0
          5.4992592486075426e-8 5.4992592486075426e-8 0 5.4992592486075426e-8 0 0
          6.815714339951001e-8 6.815714339951001e-8 0 6.815714339951001e-8 0 0
          4.907215996099518e-8 4.907215996099518e-8 0 4.907215996099518e-8 0 0
          6.28740752408121e-8 6.28740752408121e-8 0 6.28740752408121e-8 0 0
          4.280082185371051e-8 4.280082185371051e-8 0 4.280082185371051e-8 0 0
          5.441795010089729e-8 5.441795010089729e-8 0 5.441795010089729e-8 0 0
          2.2325838567916485e-7 2.2325838567916485e-7 0 2.2325838567916485e-7 0 0
          2.554076223051746e-7 2.554076223051746e-7 0 2.554076223051746e-7 0 0
          2.05974743007733e-8 2.05974743007733e-8 0 2.05974743007733e-8 0 0
          3.224858471531441e-7 3.224858471531441e-7 0 3.224858471531441e-7 0 0
          1.3092514757778083e-7 1.3092514757778083e-7 0 1.3092514757778083e-7 0 0
          2.656204749432026e-7 2.656204749432026e-7 0 2.656204749432026e-7 0 0
          2.3952646212350117e-7 2.3952646212350117e-7 0 2.3952646212350117e-7 0 0
          1.270490179476525e-7 1.270490179476525e-7 0 1.270490179476525e-7 0 0
          1.5238203023446054e-7 1.5238203023446054e-7 0 1.5238203023446054e-7 0 0
          1.6346588364917207e-7 1.6346588364917207e-7 0 1.6346588364917207e-7 0 0
          2.5351579303556574e-7 2.5351579303556574e-7 0 2.5351579303556574e-7 0 0
          7.614111296690747e-8 7.614111296690747e-8 0 7.614111296690747e-8 0 0
          7.056310372505653e-8 7.056310372505653e-8 0 7.056310372505653e-8 0 0
          2.299667673300688e-7 2.299667673300688e-7 0 2.299667673300688e-7 0 0
          3.4977916564079385e-8 3.4977916564079385e-8 0 3.4977916564079385e-8 0 0
          2.845763151668348e-8 2.845763151668348e-8 0 2.845763151668348e-8 0 0
          1.7487984036732106e-8 1.7487984036732106e-8 0 1.7487984036732106e-8 0 0
          2.26483558910719e-8 2.26483558910719e-8 0 2.26483558910719e-8 0 0
          1.9371983582489415e-8 1.9371983582489415e-8 0 1.9371983582489415e-8 0 0
          2.0501702434818813e-8 2.0501702434818813e-8 0 2.0501702434818813e-8 0 0
          9.686399272662476e-8 9.686399272662476e-8 0 9.686399272662476e-8 0 0
          2.137484243018622e-8 2.137484243018622e-8 0 2.137484243018622e-8 0 0
          1.5346496292991157e-7 1.5346496292991157e-7 0 1.5346496292991157e-7 0 0
          3.535575629189322e-8 3.535575629189322e-8 0 3.535575629189322e-8 0 0
          2.3402954078887834e-8 2.3402954078887834e-8 0 2.3402954078887834e-8 0 0
          1.9502130032887642e-8 1.9502130032887642e-8 0 1.9502130032887642e-8 0 0
          2.1438179414664024e-8 2.1438179414664024e-8 0 2.1438179414664024e-8 0 0
          4.56734122468936e-7 4.56734122468936e-7 0 4.56734122468936e-7 0 0
          3.837173151655733e-7 3.837173151655733e-7 0 3.837173151655733e-7 0 0
          5.369946002299616e-8 5.369946002299616e-8 0 5.369946002299616e-8 0 0
          1.3148425784641114e-7 1.3148425784641114e-7 0 1.3148425784641114e-7 0 0
          1.6238643813361189e-7 1.6238643813361189e-7 0 1.6238643813361189e-7 0 0
          1.404157218812158e-7 1.404157218812158e-7 0 1.404157218812158e-7 0 0
          1.4653855730160812e-7 1.4653855730160812e-7 0 1.4653855730160812e-7 0 0
          1.1240479309850943e-7 1.1240479309850943e-7 0 1.1240479309850943e-7 0 0
          2.3205833682513916e-8 2.3205833682513916e-8 0 2.3205833682513916e-8 0 0
          2.2474735206124587e-8 2.2474735206124587e-8 0 2.2474735206124587e-8 0 0
          3.374097472779986e-8 3.374097472779986e-8 0 3.374097472779986e-8 0 0
          7.47075632988216e-8 7.47075632988216e-8 0 7.47075632988216e-8 0 0
          7.172087766015158e-8 7.172087766015158e-8 0 7.172087766015158e-8 0 0
          1.8467667208643998e-7 1.8467667208643998e-7 0 1.8467667208643998e-7 0 0
          9.565654522592927e-8 9.565654522592927e-8 0 9.565654522592927e-8 0 0
          7.273766073500247e-8 7.273766073500247e-8 0 7.273766073500247e-8 0 0
          2.2980241426773846e-7 2.2980241426773846e-7 0 2.2980241426773846e-7 0 0
          1.0328448272556455e-7 1.0328448272556455e-7 0 1.0328448272556455e-7 0 0
          7.657296002859076e-8 7.657296002859076e-8 0 7.657296002859076e-8 0 0
          6.915211054463598e-8 6.915211054463598e-8 0 6.915211054463598e-8 0 0
          1.796753520014786e-7 1.796753520014786e-7 0 1.796753520014786e-7 0 0
          1.4812730898628717e-7 1.4812730898628717e-7 0 1.4812730898628717e-7 0 0
          4.6347764622370776e-8 4.6347764622370776e-8 0 4.6347764622370776e-8 0 0
          3.2328036210065734e-8 3.2328036210065734e-8 0 3.2328036210065734e-8 0 0
          4.118983013542747e-8 4.118983013542747e-8 0 4.118983013542747e-8 0 0
          2.8627522729555423e-8 2.8627522729555423e-8 0 2.8627522729555423e-8 0 0
          1.3069586279723254e-7 1.3069586279723254e-7 0 1.3069586279723254e-7 0 0
          4.996154394339707e-8 4.996154394339707e-8 0 4.996154394339707e-8 0 0
          3.5799785056199065e-8 3.5799785056199065e-8 0 3.5799785056199065e-8 0 0
          1.9233402407210332e-7 1.9233402407210332e-7 0 1.9233402407210332e-7 0 0
          1.507429213127679e-8 1.507429213127679e-8 0 1.507429213127679e-8 0 0
          1.3936683633047595e-8 1.3936683633047595e-8 0 1.3936683633047595e-8 0 0
          1.1787088518228108e-7 1.1787088518228108e-7 0 1.1787088518228108e-7 0 0
          1.1609243755158926e-7 1.1609243755158926e-7 0 1.1609243755158926e-7 0 0
          1.3459481876029968e-7 1.3459481876029968e-7 0 1.3459481876029968e-7 0 0
          1.4695993549296504e-7 1.4695993549296504e-7 0 1.4695993549296504e-7 0 0
          5.201405544902213e-8 5.201405544902213e-8 0 5.201405544902213e-8 0 0
          2.967378839224351e-7 2.967378839224351e-7 0 2.967378839224351e-7 0 0
          5.588988339224447e-8 5.588988339224447e-8 0 5.588988339224447e-8 0 0
          2.9632556088851225e-7 2.9632556088851225e-7 0 2.9632556088851225e-7 0 0
          2.3106638703949902e-8 2.3106638703949902e-8 0 2.3106638703949902e-8 0 0
          1.4794415740573641e-8 1.4794415740573641e-8 0 1.4794415740573641e-8 0 0
          1.4620455812131491e-8 1.4620455812131491e-8 0 1.4620455812131491e-8 0 0
          9.762047761725473e-9 9.762047761725473e-9 0 9.762047761725473e-9 0 0
          2.8746832895487426e-7 2.8746832895487426e-7 0 2.8746832895487426e-7 0 0
          1.4641066563156039e-8 1.4641066563156039e-8 0 1.4641066563156039e-8 0 0
          8.887136725215932e-8 8.887136725215932e-8 0 8.887136725215932e-8 0 0
          1.564062057853992e-8 1.564062057853992e-8 0 1.564062057853992e-8 0 0
          1.2836979412973456e-7 1.2836979412973456e-7 0 1.2836979412973456e-7 0 0
          9.958027297990513e-8 9.958027297990513e-8 0 9.958027297990513e-8 0 0
          2.0113283137133175e-7 2.0113283137133175e-7 0 2.0113283137133175e-7 0 0
          5.306279923399206e-8 5.306279923399206e-8 0 5.306279923399206e-8 0 0
          1.7157647086566897e-8 1.7157647086566897e-8 0 1.7157647086566897e-8 0 0
          1.638186120521114e-8 1.638186120521114e-8 0 1.638186120521114e-8 0 0
          2.5024217061648864e-8 2.5024217061648864e-8 0 2.5024217061648864e-8 0 0
          6.969380915521553e-8 6.969380915521553e-8 0 6.969380915521553e-8 0 0
          8.67423980390764e-8 8.67423980390764e-8 0 8.67423980390764e-8 0 0
          6.5764606333586e-8 6.5764606333586e-8 0 6.5764606333586e-8 0 0
          3.908890644602671e-8 3.908890644602671e-8 0 3.908890644602671e-8 0 0
          7.398392036960694e-8 7.398392036960694e-8 0 7.398392036960694e-8 0 0
          5.663116451000015e-8 5.663116451000015e-8 0 5.663116451000015e-8 0 0
          5.1240644444949346e-8 5.1240644444949346e-8 0 5.1240644444949346e-8 0 0
          3.3718724966226766e-8 3.3718724966226766e-8 0 3.3718724966226766e-8 0 0
          2.3112166459375424e-8 2.3112166459375424e-8 0 2.3112166459375424e-8 0 0
          2.9158979857416856e-8 2.9158979857416856e-8 0 2.9158979857416856e-8 0 0
          3.6441463505449654e-8 3.6441463505449654e-8 0 3.6441463505449654e-8 0 0
          2.5871719568335998e-8 2.5871719568335998e-8 0 2.5871719568335998e-8 0 0
          1.0611780907142898e-7 1.0611780907142898e-7 0 1.0611780907142898e-7 0 0
          2.1344982488674158e-7 2.1344982488674158e-7 0 2.1344982488674158e-7 0 0
          1.7418141824292984e-7 1.7418141824292984e-7 0 1.7418141824292984e-7 0 0
          1.0478860482725565e-7 1.0478860482725565e-7 0 1.0478860482725565e-7 0 0
          1.1039939343882246e-8 1.1039939343882246e-8 0 1.1039939343882246e-8 0 0
          1.0515844870505813e-7 1.0515844870505813e-7 0 1.0515844870505813e-7 0 0
          1.1886939830241553e-7 1.1886939830241553e-7 0 1.1886939830241553e-7 0 0
          1.3088967661846544e-7 1.3088967661846544e-7 0 1.3088967661846544e-7 0 0
          1.5383128671908976e-7 1.5383128671908976e-7 0 1.5383128671908976e-7 0 0
          4.09609698340854e-8 4.09609698340854e-8 0 4.09609698340854e-8 0 0
          3.788667393152531e-8 3.788667393152531e-8 0 3.788667393152531e-8 0 0
          1.5000945786343317e-7 1.5000945786343317e-7 0 1.5000945786343317e-7 0 0
          1.925360219738021e-8 1.925360219738021e-8 0 1.925360219738021e-8 0 0
          1.5479382334838843e-8 1.5479382334838843e-8 0 1.5479382334838843e-8 0 0
          1.082944213692054e-8 1.082944213692054e-8 0 1.082944213692054e-8 0 0
          1.0577047977856548e-8 1.0577047977856548e-8 0 1.0577047977856548e-8 0 0
          6.946770277383817e-9 6.946770277383817e-9 0 6.946770277383817e-9 0 0
          2.457219139853984e-8 2.457219139853984e-8 0 2.457219139853984e-8 0 0
          5.271873888028512e-8 5.271873888028512e-8 0 5.271873888028512e-8 0 0
          3.4979638114585284e-8 3.4979638114585284e-8 0 3.4979638114585284e-8 0 0
          5.203592826306504e-8 5.203592826306504e-8 0 5.203592826306504e-8 0 0
          1.648100705405765e-7 1.648100705405765e-7 0 1.648100705405765e-7 0 0
          1.5847882305068544e-7 1.5847882305068544e-7 0 1.5847882305068544e-7 0 0
          2.2226868691793923e-7 2.2226868691793923e-7 0 2.2226868691793923e-7 0 0
          7.93438675294712e-8 7.93438675294712e-8 0 7.93438675294712e-8 0 0
          1.1170657120944315e-8 1.1170657120944315e-8 0 1.1170657120944315e-8 0 0
          4.677415105237254e-8 4.677415105237254e-8 0 4.677415105237254e-8 0 0
          8.795930537526222e-8 8.795930537526222e-8 0 8.795930537526222e-8 0 0
          6.610348484291514e-8 6.610348484291514e-8 0 6.610348484291514e-8 0 0
          2.831416424333723e-8 2.831416424333723e-8 0 2.831416424333723e-8 0 0
          1.2551631077773222e-8 1.2551631077773222e-8 0 1.2551631077773222e-8 0 0
          1.1735402823166826e-8 1.1735402823166826e-8 0 1.1735402823166826e-8 0 0
          1.8598439314297087e-8 1.8598439314297087e-8 0 1.8598439314297087e-8 0 0
          1.7529450668575022e-8 1.7529450668575022e-8 0 1.7529450668575022e-8 0 0
          6.307852132843924e-8 6.307852132843924e-8 0 6.307852132843924e-8 0 0
          4.553370939938504e-8 4.553370939938504e-8 0 4.553370939938504e-8 0 0
          7.698299132919184e-8 7.698299132919184e-8 0 7.698299132919184e-8 0 0
          5.8520623666701215e-8 5.8520623666701215e-8 0 5.8520623666701215e-8 0 0
          1.1112642916829759e-7 1.1112642916829759e-7 0 1.1112642916829759e-7 0 0
          9.39947924435201e-8 9.39947924435201e-8 0 9.39947924435201e-8 0 0
          2.4159148673185945e-8 2.4159148673185945e-8 0 2.4159148673185945e-8 0 0
          1.5729370198986724e-8 1.5729370198986724e-8 0 1.5729370198986724e-8 0 0
          2.2115960149215668e-8 2.2115960149215668e-8 0 2.2115960149215668e-8 0 0
          3.882224091743879e-8 3.882224091743879e-8 0 3.882224091743879e-8 0 0
          5.448196485792419e-8 5.448196485792419e-8 0 5.448196485792419e-8 0 0
          4.8148892381517015e-8 4.8148892381517015e-8 0 4.8148892381517015e-8 0 0
          4.173797807817916e-8 4.173797807817916e-8 0 4.173797807817916e-8 0 0
          3.773113196950079e-8 3.773113196950079e-8 0 3.773113196950079e-8 0 0
          2.6387745888600645e-8 2.6387745888600645e-8 0 2.6387745888600645e-8 0 0
          1.8598985136950496e-8 1.8598985136950496e-8 0 1.8598985136950496e-8 0 0
          9.851066975606303e-9 9.851066975606303e-9 0 9.851066975606303e-9 0 0
          6.968669814654674e-9 6.968669814654674e-9 0 6.968669814654674e-9 0 0
          4.9399159282833736e-8 4.9399159282833736e-8 0 4.9399159282833736e-8 0 0
          2.966817491986503e-8 2.966817491986503e-8 0 2.966817491986503e-8 0 0
          3.0566267650046184e-8 3.0566267650046184e-8 0 3.0566267650046184e-8 0 0
          3.651545308882971e-8 3.651545308882971e-8 0 3.651545308882971e-8 0 0
          2.0647081542554968e-7 2.0647081542554968e-7 0 2.0647081542554968e-7 0 0
          2.4481842545234137e-7 2.4481842545234137e-7 0 2.4481842545234137e-7 0 0
          7.818958210750594e-9 7.818958210750594e-9 0 7.818958210750594e-9 0 0
          9.162688704520458e-8 9.162688704520458e-8 0 9.162688704520458e-8 0 0
          9.260253548721088e-8 9.260253548721088e-8 0 9.260253548721088e-8 0 0
          1.0115954011985271e-7 1.0115954011985271e-7 0 1.0115954011985271e-7 0 0
          1.1857381367102945e-7 1.1857381367102945e-7 0 1.1857381367102945e-7 0 0
          1.284664945463323e-7 1.284664945463323e-7 0 1.284664945463323e-7 0 0
          7.332293279467535e-8 7.332293279467535e-8 0 7.332293279467535e-8 0 0
          8.292126025631161e-8 8.292126025631161e-8 0 8.292126025631161e-8 0 0
          6.163593480965629e-8 6.163593480965629e-8 0 6.163593480965629e-8 0 0
          2.7432410667536153e-8 2.7432410667536153e-8 0 2.7432410667536153e-8 0 0
          7.269648795575289e-9 7.269648795575289e-9 0 7.269648795575289e-9 0 0
          4.633729227636168e-9 4.633729227636168e-9 0 4.633729227636168e-9 0 0
          7.295091243957113e-9 7.295091243957113e-9 0 7.295091243957113e-9 0 0
          4.8033694586067245e-9 4.8033694586067245e-9 0 4.8033694586067245e-9 0 0
          2.9669388649721344e-8 2.9669388649721344e-8 0 2.9669388649721344e-8 0 0
          1.93259337644041e-8 1.93259337644041e-8 0 1.93259337644041e-8 0 0
          1.2105557096593686e-8 1.2105557096593686e-8 0 1.2105557096593686e-8 0 0
          8.009327079465679e-9 8.009327079465679e-9 0 8.009327079465679e-9 0 0
          1.1003549832121355e-8 1.1003549832121355e-8 0 1.1003549832121355e-8 0 0
          8.48921090569712e-9 8.48921090569712e-9 0 8.48921090569712e-9 0 0
          7.778305447974226e-9 7.778305447974226e-9 0 7.778305447974226e-9 0 0
          3.275745992309689e-8 3.275745992309689e-8 0 3.275745992309689e-8 0 0
          6.999741066928871e-8 6.999741066928871e-8 0 6.999741066928871e-8 0 0
          1.7797111531412393e-7 1.7797111531412393e-7 0 1.7797111531412393e-7 0 0
          1.1609194332827994e-7 1.1609194332827994e-7 0 1.1609194332827994e-7 0 0
          6.997367830134485e-8 6.997367830134485e-8 0 6.997367830134485e-8 0 0
          9.022099180258913e-9 9.022099180258913e-9 0 9.022099180258913e-9 0 0
          8.240068308288333e-9 8.240068308288333e-9 0 8.240068308288333e-9 0 0
          5.565104649839308e-8 5.565104649839308e-8 0 5.565104649839308e-8 0 0
          4.195546350922278e-8 4.195546350922278e-8 0 4.195546350922278e-8 0 0
          1.3722389504156078e-8 1.3722389504156078e-8 0 1.3722389504156078e-8 0 0
          1.2227047526876257e-8 1.2227047526876257e-8 0 1.2227047526876257e-8 0 0
          6.703107412653681e-8 6.703107412653681e-8 0 6.703107412653681e-8 0 0
          5.10269660326025e-8 5.10269660326025e-8 0 5.10269660326025e-8 0 0
          1.7661888947674133e-8 1.7661888947674133e-8 0 1.7661888947674133e-8 0 0
          1.1833306434920643e-8 1.1833306434920643e-8 0 1.1833306434920643e-8 0 0
          1.5997576225073627e-8 1.5997576225073627e-8 0 1.5997576225073627e-8 0 0
          2.8254953261660593e-8 2.8254953261660593e-8 0 2.8254953261660593e-8 0 0
          2.0261698487507337e-8 2.0261698487507337e-8 0 2.0261698487507337e-8 0 0
          4.3101540851573365e-8 4.3101540851573365e-8 0 4.3101540851573365e-8 0 0
          2.135251532700717e-8 2.135251532700717e-8 0 2.135251532700717e-8 0 0
          2.051089142968926e-8 2.051089142968926e-8 0 2.051089142968926e-8 0 0
          4.025848413647437e-8 4.025848413647437e-8 0 4.025848413647437e-8 0 0
          3.048348371130148e-8 3.048348371130148e-8 0 3.048348371130148e-8 0 0
          1.884589968097945e-8 1.884589968097945e-8 0 1.884589968097945e-8 0 0
          1.3193564950708068e-8 1.3193564950708068e-8 0 1.3193564950708068e-8 0 0
          1.5363171794642495e-8 1.5363171794642495e-8 0 1.5363171794642495e-8 0 0
          1.1890137222353467e-8 1.1890137222353467e-8 0 1.1890137222353467e-8 0 0
          9.011815603494419e-9 9.011815603494419e-9 0 9.011815603494419e-9 0 0
          5.243415013531197e-8 5.243415013531197e-8 0 5.243415013531197e-8 0 0
          5.450195860286795e-9 5.450195860286795e-9 0 5.450195860286795e-9 0 0
          7.874552361827553e-8 7.874552361827553e-8 0 7.874552361827553e-8 0 0
          8.115835111844024e-8 8.115835111844024e-8 0 8.115835111844024e-8 0 0
          8.509338256400393e-8 8.509338256400393e-8 0 8.509338256400393e-8 0 0
          1.0235641431841119e-7 1.0235641431841119e-7 0 1.0235641431841119e-7 0 0
          1.047814767668864e-7 1.047814767668864e-7 0 1.047814767668864e-7 0 0
          1.3377021255638155e-7 1.3377021255638155e-7 0 1.3377021255638155e-7 0 0
          4.809348052969505e-9 4.809348052969505e-9 0 4.809348052969505e-9 0 0
          4.896672213634115e-9 4.896672213634115e-9 0 4.896672213634115e-9 0 0
          2.139504577179992e-8 2.139504577179992e-8 0 2.139504577179992e-8 0 0
          4.425705873967537e-9 4.425705873967537e-9 0 4.425705873967537e-9 0 0
          6.5017327356210095e-9 6.5017327356210095e-9 0 6.5017327356210095e-9 0 0
          1.9621436173815622e-8 1.9621436173815622e-8 0 1.9621436173815622e-8 0 0
          4.912361389400742e-9 4.912361389400742e-9 0 4.912361389400742e-9 0 0
          6.079349901856335e-8 6.079349901856335e-8 0 6.079349901856335e-8 0 0
          5.255897270795192e-9 5.255897270795192e-9 0 5.255897270795192e-9 0 0
          3.9404686022246646e-8 3.9404686022246646e-8 0 3.9404686022246646e-8 0 0
          9.858173970568815e-9 9.858173970568815e-9 0 9.858173970568815e-9 0 0
          8.516152691777672e-9 8.516152691777672e-9 0 8.516152691777672e-9 0 0
          4.808649367222546e-8 4.808649367222546e-8 0 4.808649367222546e-8 0 0
          3.531324876724547e-8 3.531324876724547e-8 0 3.531324876724547e-8 0 0
          1.5250150165293026e-8 1.5250150165293026e-8 0 1.5250150165293026e-8 0 0
          1.2332171448496407e-8 1.2332171448496407e-8 0 1.2332171448496407e-8 0 0
          1.2528426789314228e-8 1.2528426789314228e-8 0 1.2528426789314228e-8 0 0
          1.1259762355571568e-8 1.1259762355571568e-8 0 1.1259762355571568e-8 0 0
          6.359235520192536e-9 6.359235520192536e-9 0 6.359235520192536e-9 0 0
          5.631094901138933e-9 5.631094901138933e-9 0 5.631094901138933e-9 0 0
          5.765164228588712e-8 5.765164228588712e-8 0 5.765164228588712e-8 0 0
          4.354501733696061e-8 4.354501733696061e-8 0 4.354501733696061e-8 0 0
          2.6280235889299474e-8 2.6280235889299474e-8 0 2.6280235889299474e-8 0 0
          1.4364123583037598e-8 1.4364123583037598e-8 0 1.4364123583037598e-8 0 0
          1.3247280965698405e-8 1.3247280965698405e-8 0 1.3247280965698405e-8 0 0
          6.998699990118852e-9 6.998699990118852e-9 0 6.998699990118852e-9 0 0
          1.5737547790977617e-7 1.5737547790977617e-7 0 1.5737547790977617e-7 0 0
          1.249199564222665e-7 1.249199564222665e-7 0 1.249199564222665e-7 0 0
          6.50787768357864e-9 6.50787768357864e-9 0 6.50787768357864e-9 0 0
          6.628796745859572e-8 6.628796745859572e-8 0 6.628796745859572e-8 0 0
          1.3413363580725285e-8 1.3413363580725285e-8 0 1.3413363580725285e-8 0 0
          1.0780933432387634e-7 1.0780933432387634e-7 0 1.0780933432387634e-7 0 0
          1.0362423552981133e-7 1.0362423552981133e-7 0 1.0362423552981133e-7 0 0
          8.674543137555681e-8 8.674543137555681e-8 0 8.674543137555681e-8 0 0
          8.609342171738041e-8 8.609342171738041e-8 0 8.609342171738041e-8 0 0
          6.90293521056873e-8 6.90293521056873e-8 0 6.90293521056873e-8 0 0
          6.995672924239218e-8 6.995672924239218e-8 0 6.995672924239218e-8 0 0
          2.8973095862183294e-8 2.8973095862183294e-8 0 2.8973095862183294e-8 0 0
          2.594006296225579e-8 2.594006296225579e-8 0 2.594006296225579e-8 0 0
          6.9994317213523645e-9 6.9994317213523645e-9 0 6.9994317213523645e-9 0 0
          5.821537642512859e-9 5.821537642512859e-9 0 5.821537642512859e-9 0 0
          3.329329212168589e-8 3.329329212168589e-8 0 3.329329212168589e-8 0 0
          2.2568534158600043e-8 2.2568534158600043e-8 0 2.2568534158600043e-8 0 0
          1.1043802677295038e-8 1.1043802677295038e-8 0 1.1043802677295038e-8 0 0
          6.815702170478624e-9 6.815702170478624e-9 0 6.815702170478624e-9 0 0
          4.1170283834953865e-8 4.1170283834953865e-8 0 4.1170283834953865e-8 0 0
          3.128592166009566e-8 3.128592166009566e-8 0 3.128592166009566e-8 0 0
          5.145432073469754e-8 5.145432073469754e-8 0 5.145432073469754e-8 0 0
          1.668782697787274e-8 1.668782697787274e-8 0 1.668782697787274e-8 0 0
          9.179659807587982e-9 9.179659807587982e-9 0 9.179659807587982e-9 0 0
          9.887826698450783e-9 9.887826698450783e-9 0 9.887826698450783e-9 0 0
          4.8445022184920794e-8 4.8445022184920794e-8 0 4.8445022184920794e-8 0 0
          3.555684777177401e-8 3.555684777177401e-8 0 3.555684777177401e-8 0 0
          7.236632873151592e-8 7.236632873151592e-8 0 7.236632873151592e-8 0 0
          7.085805017591321e-8 7.085805017591321e-8 0 7.085805017591321e-8 0 0
          8.818092450671474e-8 8.818092450671474e-8 0 8.818092450671474e-8 0 0
          7.376416177789411e-8 7.376416177789411e-8 0 7.376416177789411e-8 0 0
          2.4066874082961662e-8 2.4066874082961662e-8 0 2.4066874082961662e-8 0 0
          5.429269428933814e-8 5.429269428933814e-8 0 5.429269428933814e-8 0 0
          5.7039402903072225e-8 5.7039402903072225e-8 0 5.7039402903072225e-8 0 0
          5.7549599457399575e-8 5.7549599457399575e-8 0 5.7549599457399575e-8 0 0
          3.379660460720307e-8 3.379660460720307e-8 0 3.379660460720307e-8 0 0
          2.1394664755772346e-8 2.1394664755772346e-8 0 2.1394664755772346e-8 0 0
          2.9089750299339588e-8 2.9089750299339588e-8 0 2.9089750299339588e-8 0 0
          1.9668247461168144e-8 1.9668247461168144e-8 0 1.9668247461168144e-8 0 0
          4.069466096781988e-8 4.069466096781988e-8 0 4.069466096781988e-8 0 0
          3.915038445712459e-8 3.915038445712459e-8 0 3.915038445712459e-8 0 0
          3.08558202111161e-8 3.08558202111161e-8 0 3.08558202111161e-8 0 0
          2.0029459367847706e-8 2.0029459367847706e-8 0 2.0029459367847706e-8 0 0
          6.181085273359758e-8 6.181085273359758e-8 0 6.181085273359758e-8 0 0
          5.082638840212509e-8 5.082638840212509e-8 0 5.082638840212509e-8 0 0
          3.939708792752178e-8 3.939708792752178e-8 0 3.939708792752178e-8 0 0
          4.234991726837462e-8 4.234991726837462e-8 0 4.234991726837462e-8 0 0
          1.4386068804440259e-8 1.4386068804440259e-8 0 1.4386068804440259e-8 0 0
          1.229745394564885e-8 1.229745394564885e-8 0 1.229745394564885e-8 0 0
          1.8703601901468157e-8 1.8703601901468157e-8 0 1.8703601901468157e-8 0 0
          9.674835332021072e-9 9.674835332021072e-9 0 9.674835332021072e-9 0 0
          2.3805782638369926e-8 2.3805782638369926e-8 0 2.3805782638369926e-8 0 0
          2.3483289515700775e-8 2.3483289515700775e-8 0 2.3483289515700775e-8 0 0
          2.514819737854284e-8 2.514819737854284e-8 0 2.514819737854284e-8 0 0
          3.378956709951446e-8 3.378956709951446e-8 0 3.378956709951446e-8 0 0
          1.182510637175632e-8 1.182510637175632e-8 0 1.182510637175632e-8 0 0
          9.311697003385551e-9 9.311697003385551e-9 0 9.311697003385551e-9 0 0
          7.991062062442625e-9 7.991062062442625e-9 0 7.991062062442625e-9 0 0
          1.4638180698267184e-8 1.4638180698267184e-8 0 1.4638180698267184e-8 0 0
          6.67962679583626e-9 6.67962679583626e-9 0 6.67962679583626e-9 0 0
          9.688909836285415e-9 9.688909836285415e-9 0 9.688909836285415e-9 0 0
          7.74770106623862e-9 7.74770106623862e-9 0 7.74770106623862e-9 0 0
          3.808018430777408e-8 3.808018430777408e-8 0 3.808018430777408e-8 0 0
          2.9014867080252087e-7 2.9014867080252087e-7 0 2.9014867080252087e-7 0 0
          2.8801311844050116e-7 2.8801311844050116e-7 0 2.8801311844050116e-7 0 0
          4.1535420779377044e-7 4.1535420779377044e-7 0 4.1535420779377044e-7 0 0
          3.441862842957568e-7 3.441862842957568e-7 0 3.441862842957568e-7 0 0
          5.983471332344571e-7 5.983471332344571e-7 0 5.983471332344571e-7 0 0
          3.4047511353141174e-7 3.4047511353141174e-7 0 3.4047511353141174e-7 0 0
          3.116334390507169e-7 3.116334390507169e-7 0 3.116334390507169e-7 0 0
          3.649203899122237e-7 3.649203899122237e-7 0 3.649203899122237e-7 0 0
          3.6794526308270263e-7 3.6794526308270263e-7 0 3.6794526308270263e-7 0 0
          3.926372407813529e-7 3.926372407813529e-7 0 3.926372407813529e-7 0 0
          3.315111334645305e-7 3.315111334645305e-7 0 3.315111334645305e-7 0 0
          3.3643607063288724e-7 3.3643607063288724e-7 0 3.3643607063288724e-7 0 0
          3.8093143930610954e-7 3.8093143930610954e-7 0 3.8093143930610954e-7 0 0
          4.143330359589477e-7 4.143330359589477e-7 0 4.143330359589477e-7 0 0
          4.259509394961428e-7 4.259509394961428e-7 0 4.259509394961428e-7 0 0
          3.274842570184618e-7 3.274842570184618e-7 0 3.274842570184618e-7 0 0
          3.142807280717825e-7 3.142807280717825e-7 0 3.142807280717825e-7 0 0
          4.702723468980213e-7 4.702723468980213e-7 0 4.702723468980213e-7 0 0
          4.525187077718411e-7 4.525187077718411e-7 0 4.525187077718411e-7 0 0
          3.9977806981978917e-7 3.9977806981978917e-7 0 3.9977806981978917e-7 0 0
          2.992425150181015e-7 2.992425150181015e-7 0 2.992425150181015e-7 0 0
          3.5655641632480233e-7 3.5655641632480233e-7 0 3.5655641632480233e-7 0 0
          5.730284879780094e-7 5.730284879780094e-7 0 5.730284879780094e-7 0 0
          3.743774706603417e-7 3.743774706603417e-7 0 3.743774706603417e-7 0 0
          4.537657034109375e-7 4.537657034109375e-7 0 4.537657034109375e-7 0 0
          3.0489456282979864e-7 3.0489456282979864e-7 0 3.0489456282979864e-7 0 0
          2.2134391533837935e-7 2.2134391533837935e-7 0 2.2134391533837935e-7 0 0
          3.0284671112428564e-7 3.0284671112428564e-7 0 3.0284671112428564e-7 0 0
          1.915229828932691e-7 1.915229828932691e-7 0 1.915229828932691e-7 0 0
          2.425833482184393e-7 2.425833482184393e-7 0 2.425833482184393e-7 0 0
          1.8002993966721462e-7 1.8002993966721462e-7 0 1.8002993966721462e-7 0 0
          2.2029771227698718e-7 2.2029771227698718e-7 0 2.2029771227698718e-7 0 0
          2.3386495224307608e-7 2.3386495224307608e-7 0 2.3386495224307608e-7 0 0
          1.492769051749209e-7 1.492769051749209e-7 0 1.492769051749209e-7 0 0
          1.3550549664421985e-7 1.3550549664421985e-7 0 1.3550549664421985e-7 0 0
          1.0549979347471869e-7 1.0549979347471869e-7 0 1.0549979347471869e-7 0 0
          1.7143436611910125e-7 1.7143436611910125e-7 0 1.7143436611910125e-7 0 0
          1.7278072720080216e-7 1.7278072720080216e-7 0 1.7278072720080216e-7 0 0
          1.2518924350700388e-7 1.2518924350700388e-7 0 1.2518924350700388e-7 0 0
          1.2526863334891905e-7 1.2526863334891905e-7 0 1.2526863334891905e-7 0 0
          8.850546075745384e-8 8.850546075745384e-8 0 8.850546075745384e-8 0 0
          6.352740608886828e-8 6.352740608886828e-8 0 6.352740608886828e-8 0 0
          8.540464811553798e-8 8.540464811553798e-8 0 8.540464811553798e-8 0 0
          5.991540323572895e-8 5.991540323572895e-8 0 5.991540323572895e-8 0 0
          3.9857771920033226e-8 3.9857771920033226e-8 0 3.9857771920033226e-8 0 0
          <InformationKey name="L2_NORM_RANGE" location="vtkDataArray" length="2">
            <Value index="0">
              5.648704078e-11
            </Value>
            <Value index="1">
              4.3629854367e-06
            </Value>
          </InformationKey>
        </DataArray>
        <DataArray type="Float64" Name="Stress" NumberOfComponents="6" format="ascii" RangeMin="2.8603936459714744e-15" RangeMax="7.278273942621564e-10">
          3.556391522469034e-16 5.11573242078238e-15 0 -2.3573491905472e-15 0 0
          -6.105225407962882e-15 1.6793032444347425e-14 0 -4.688919799307338e-15 0 0
          -1.0114647973819819e-15 2.4813204599082308e-15 0 -1.0009193518020405e-15 0 0
          -9.707506803030389e-16 5.305295293506995e-15 0 -5.461169663236094e-16 0 0
          -5.712846376819675e-15 1.385126910930742e-14 0 -8.097711773607502e-16 0 0
          -1.1859563330563103e-15 1.087843441414067e-14 0 -1.084160734954768e-15 0 0
          -2.255759858955135e-15 1.08789402400126e-15 0 3.166623715590603e-15 0 0
          -2.7240754570464526e-15 6.853349616345916e-15 0 4.544762664419052e-15 0 0
          -5.665154385695348e-15 1.4325720642129856e-14 0 2.003951233630703e-15 0 0
          -2.6882130679799e-14 7.834282550965684e-14 0 1.5518725435922995e-14 0 0
          -3.1314888238736582e-15 -5.347549148579337e-15 0 7.0024608991532766e-15 0 0
          -5.103039661192143e-15 1.0565280034761032e-14 0 2.231683851053348e-14 0 0
          -1.788935894218336e-14 6.00673821652779e-15 0 1.5939152717718075e-14 0 0
          -2.0521013714183995e-14 -5.051977249819805e-14 0 5.503523994501527e-14 0 0
          -2.54495891321152e-14 -9.474406665175497e-15 0 5.384604388765197e-14 0 0
          4.442532028745489e-15 6.390411456733897e-14 0 -2.983087133196392e-14 0 0
          -2.1860857896399552e-14 -7.984998242370964e-14 0 1.0085284588694293e-13 0 0
          -5.949529755810799e-15 1.5896931830344728e-14 0 3.4690151341254016e-15 0 0
          -1.3738944366485438e-14 8.825333822344461e-14 0 -7.56627679830144e-15 0 0
          -3.604502591568387e-14 2.3270765014596135e-14 0 3.843536415730992e-14 0 0
          -2.167501785438441e-13 7.227333568371415e-13 0 2.3499559063984274e-13 0 0
          -1.8600121421740286e-13 8.317031771521937e-13 0 1.8355410471096447e-13 0 0
          -2.4960421502962315e-13 -8.277117135000249e-13 0 9.82997089850548e-13 0 0
          -3.236080997683049e-13 -1.3659115036772537e-12 0 1.2013667309972217e-12 0 0
          -3.3842032254792165e-13 7.805653421452424e-13 0 3.5916025253691775e-13 0 0
          -1.6180368627835656e-13 9.75399112164577e-13 0 1.3655497354107365e-13 0 0
          -2.542725480360156e-13 6.388148515835678e-13 0 2.8796912735932604e-13 0 0
          -2.269020113349704e-13 7.717479902992661e-13 0 2.2199673237136953e-13 0 0
          -1.5138415136687593e-13 4.628559895908117e-13 0 1.1804931598793473e-13 0 0
          -2.020361852463141e-13 8.530441344199249e-13 0 1.5612605951651287e-13 0 0
          -1.2011185339824495e-13 5.468791212360269e-13 0 8.987967080612088e-14 0 0
          -3.019486795716815e-13 2.381861478335543e-13 0 3.6372256810753003e-13 0 0
          -1.889900139573955e-13 9.15968105852039e-13 0 8.803396164182557e-14 0 0
          -3.7118302064386057e-13 -4.29860628170841e-13 0 8.007013590103938e-13 0 0
          -3.571602211624638e-13 -7.856748250702795e-13 0 1.0100941812390984e-12 0 0
          -1.9483124094820674e-13 -4.511816241442429e-13 0 5.532741492361301e-13 0 0
          -1.5106976248884103e-13 1.1442065701830497e-12 0 7.161847254968517e-14 0 0
          -1.812167177499503e-13 9.133947001594248e-13 0 -7.34862958981077e-16 0 0
          -3.861593401396662e-13 7.211789649619154e-14 0 5.795579757252325e-13 0 0
          -3.554152426305581e-13 4.727042229117259e-13 0 4.641762546897129e-13 0 0
          -3.878637849562553e-13 5.008440584988978e-13 0 4.4614269152298967e-13 0 0
          -1.751866513088279e-13 3.905456382929281e-13 0 1.6987293960697431e-13 0 0
          -1.7897325757285138e-13 3.848395480301285e-13 0 1.5762917691398962e-13 0 0
          -1.1178360867385237e-13 3.2278970348954564e-13 0 1.4741185299402007e-13 0 0
          -1.4971616251292651e-13 4.966135085884802e-13 0 1.165441490644157e-13 0 0
          -9.290055060000236e-14 2.954727135145171e-13 0 6.557900639772639e-14 0 0
          -1.0905000705486519e-13 6.511524049945949e-13 0 4.701601472108448e-14 0 0
          -1.2792388647311615e-13 5.168385659405597e-13 0 6.507503409369332e-14 0 0
          -6.491495442325652e-14 3.486042238775165e-13 0 4.0834352639955306e-14 0 0
          -4.103020707231781e-13 -2.0939193599283258e-13 0 7.591023662954252e-13 0 0
          -1.3560018686128026e-13 -1.2679800909327437e-12 0 1.0394119080044775e-12 0 0
          -3.6646165756132167e-13 -1.299335203839942e-14 0 5.112379377707041e-13 0 0
          -1.6796988843563985e-13 3.3026159423693825e-14 0 2.685096123156365e-13 0 0
          -1.791414401400889e-13 1.27942863547344e-12 0 -6.124186109807251e-14 0 0
          -1.4103712798124635e-13 7.94753863414501e-13 0 -7.148176838300409e-14 0 0
          -2.207336989279939e-13 3.4452497714889136e-13 0 2.636051996280299e-13 0 0
          -1.1575888604032578e-13 5.487833183662999e-13 0 1.691114331907142e-14 0 0
          -8.756277475541295e-14 7.482161638703311e-13 0 -8.130934308653821e-15 0 0
          -1.3356639785116927e-13 7.872151305978052e-13 0 -5.1185045385682903e-14 0 0
          -1.6229281387034814e-13 -6.46053230397735e-13 0 6.578684134541642e-13 0 0
          -2.2827097463995354e-13 -2.724884884489147e-13 0 5.128391451462049e-13 0 0
          -2.3545943923750935e-13 -5.957599269757617e-14 0 4.35619827915823e-13 0 0
          -2.421163577663644e-13 -1.1595219345467684e-13 0 3.776961714626226e-13 0 0
          -1.893779977950321e-13 1.7705377376482817e-13 0 3.1071771501111764e-13 0 0
          -8.745236656288487e-14 1.8474627448476701e-13 0 7.45571045211239e-14 0 0
          -7.249389711174017e-14 1.6798379406409296e-13 0 6.863693133852239e-14 0 0
          -8.783831339136134e-14 2.8676860611275825e-13 0 6.304846512526464e-14 0 0
          -5.943751432588594e-14 1.9296278921279187e-13 0 2.5679609618060956e-14 0 0
          -7.636642170309369e-14 3.9382396345201036e-13 0 1.2019581144373144e-15 0 0
          -7.157547604371081e-14 2.783228935843124e-13 0 1.2862928036879154e-14 0 0
          -3.8751267502369815e-14 1.8225615058553207e-13 0 5.515753526532141e-15 0 0
          -8.930705961716638e-14 1.467184986010817e-13 0 1.1627336261202036e-13 0 0
          -1.5806348999098088e-13 1.9536384257577924e-13 0 1.8956431310520653e-13 0 0
          -9.815881610018698e-14 -2.4377725254560913e-14 0 1.5138898656364194e-13 0 0
          -1.1290967146556903e-13 6.324263243351598e-14 0 1.0983486468558284e-13 0 0
          -1.5884122586910374e-13 1.2007952790170738e-12 0 -1.5905051169561265e-13 0 0
          -8.484599184068049e-14 3.53509334041148e-13 0 -1.7877357269427558e-14 0 0
          -1.934643718109449e-13 -9.597145723135585e-13 0 7.268961710173058e-13 0 0
          -8.417716126367485e-14 -3.076584981932976e-13 0 2.801799770813741e-13 0 0
          -1.1831069387916147e-13 -1.401391395049234e-13 0 2.5416242302656934e-13 0 0
          -5.6094812507988086e-14 9.470658309124129e-14 0 3.904897912510945e-14 0 0
          -2.5900550228949767e-14 8.370997274436589e-14 0 1.0485257317543613e-14 0 0
          -3.280816598697082e-14 6.700715040489166e-14 0 3.512584104091075e-14 0 0
          -1.1817038536865077e-13 5.2402438010617865e-14 0 1.699190008745659e-13 0 0
          -1.319410282853156e-13 1.852951125293041e-13 0 1.6058466769260176e-13 0 0
          -5.491872787589423e-14 4.177431410386311e-13 0 -2.896677003854453e-14 0 0
          -1.056733944112062e-13 -1.7806443951403036e-13 0 2.8739408797407207e-13 0 0
          -1.2961138294437445e-13 -1.7772933264737274e-13 0 2.5164762248392285e-13 0 0
          -1.4493554434128958e-13 8.61462597827671e-13 0 -1.6031550622228405e-13 0 0
          -3.54746711518826e-14 1.0420521079894208e-13 0 -6.5578480080016026e-15 0 0
          -2.332361543531423e-14 1.492855831313498e-13 0 -3.089505028023295e-14 0 0
          -5.1752956198977597e-14 4.968770398127295e-14 0 1.0958807004844835e-13 0 0
          -6.80582481204071e-14 6.385478003549413e-13 0 -1.5056612292499418e-13 0 0
          -1.5129227463899577e-13 1.4775822145863251e-12 0 -3.433466133433283e-13 0 0
          -9.912770977490967e-14 -1.9156681670519402e-13 0 2.631890150507797e-13 0 0
          -5.0120029020742416e-14 6.17996798847156e-14 0 5.288776993716617e-14 0 0
          -8.807639179986918e-14 3.9983355641361945e-13 0 -7.015330049379645e-14 0 0
          -3.743063516745855e-14 3.1005574964719006e-13 0 -1.1344690459658633e-13 0 0
          -1.2308259843598726e-13 9.368112560209871e-13 0 -2.781830538334856e-13 0 0
          4.810312721649841e-14 6.919449838065542e-13 0 -3.444648981530388e-13 0 0
          2.9726656423643486e-14 5.12431346209339e-13 0 -2.383569561406499e-13 0 0
          -2.6603499192196073e-14 2.1246271648315247e-13 0 -6.727246643242833e-14 0 0
          1.625780512218574e-14 2.338622736806718e-13 0 -1.2000246986639863e-13 0 0
          -1.1372767547095118e-14 7.723359959537938e-14 0 -3.234372089898724e-14 0 0
          5.4480038873762175e-11 -2.936978479188221e-11 0 -6.094277780119046e-11 0 0
          -4.422903098391923e-11 -2.5915388952889634e-11 0 -1.9925837048023637e-10 0 0
          5.891873089675342e-11 -1.087614124860322e-11 0 -6.257151965955715e-11 0 0
          9.81353110782444e-11 -4.3926919759104575e-11 0 -4.5650359177238606e-11 0 0
          -6.566080447777552e-10 2.5461400955518563e-10 0 -1.8376696522989541e-10 0 0
          1.6351122515636516e-12 6.356670782441368e-11 0 -1.7003338744538605e-10 0 0
          3.285412259256595e-11 -2.4884044677070322e-11 0 -6.857904687517225e-11 0 0
          3.856705356060553e-11 2.9963404213085627e-12 0 -7.409367545259262e-11 0 0
          2.3872895375955186e-11 -8.04376722909618e-12 0 -5.2489170677077423e-11 0 0
          3.012376475867143e-11 1.929583715001256e-11 0 -6.284741753202725e-11 0 0
          3.046269742513229e-11 -1.3918974599843335e-11 0 -2.236199374925407e-11 0 0
          3.332956898503231e-11 -1.630170045660258e-11 0 -1.1468250762240095e-11 0 0
          4.7886081512658725e-11 -7.659454667783802e-11 0 -3.4927982588732396e-12 0 0
          7.36179299432512e-12 -2.17174837882383e-11 0 -1.0864657686820711e-10 0 0
          2.6639964726088792e-11 1.784344553394885e-11 0 -1.0232603579869354e-10 0 0
          7.560805355471498e-12 1.2772950014559844e-11 0 -7.699532064642547e-11 0 0
          1.6012414477813914e-11 -2.378636816874237e-11 0 -8.148188605787075e-11 0 0
          7.757776869811472e-12 7.272720009783628e-13 0 -6.918704900897724e-11 0 0
          -1.2533966335687167e-10 1.207399827362626e-10 0 -2.107395404933336e-11 0 0
          -2.2166008613953958e-10 1.185451108899778e-10 0 6.172218204276687e-11 0 0
          -3.3709186913635673e-10 6.036420635641725e-10 0 2.022374391668234e-10 0 0
          -3.751186344429568e-11 3.578076232484055e-11 0 -9.490925115775844e-11 0 0
          -2.3341020221319793e-11 5.254287320102825e-11 0 -8.975042574316628e-11 0 0
          1.6292194882863935e-10 3.1579145667991415e-10 0 5.187451060662361e-10 0 0
          -1.3804208751674665e-10 1.9877462681227823e-10 0 9.733802376548027e-11 0 0
          -1.0215198549866508e-11 2.6685168635255406e-10 0 2.4173129267302237e-10 0 0
          -2.1695403376032183e-10 1.1825397672254498e-10 0 -6.674335046168318e-11 0 0
          3.117831453834968e-11 -5.687395266599683e-11 0 4.1513211456134525e-11 0 0
          2.407467277205419e-11 -5.176398811341801e-13 0 2.817567375065121e-11 0 0
          5.5059460322475974e-11 -8.098178721124976e-12 0 -4.2361657810245385e-11 0 0
          2.3710607872228855e-11 2.193366172622504e-12 0 3.158427131428921e-11 0 0
          1.0302780282162937e-10 5.920992488936482e-11 0 2.870208446227787e-10 0 0
          1.6450072158928177e-11 1.2335967280530868e-11 0 2.8471091154645276e-11 0 0
          1.7941767431235523e-11 -1.9908673056089465e-11 0 -1.4324692617486218e-12 0 0
          1.2565623384122354e-11 9.715782629393516e-11 0 2.895531615721759e-10 0 0
          -7.748109288056228e-11 1.2133858597819466e-10 0 9.870297783796142e-11 0 0
          1.54146153999806e-11 1.235923076366727e-11 0 2.8595163432561044e-11 0 0
          1.7650152226743734e-11 2.6135506790960568e-11 0 3.236239491864814e-11 0 0
          1.4443511679384981e-11 3.1623763113956404e-12 0 3.0017269791816803e-11 0 0
          1.6589916297588925e-11 3.902433661317159e-11 0 3.202982940979805e-11 0 0
          9.029566524848813e-11 3.343333136411361e-11 0 2.355341100489849e-10 0 0
          1.6217859469688805e-11 2.383468763553632e-11 0 3.116012746925176e-11 0 0
          5.0283514107936796e-12 1.076961720932925e-11 0 -4.851064419653652e-11 0 0
          -2.4055371186750133e-11 3.497714447142141e-11 0 -5.869731071688244e-11 0 0
          1.743545540658547e-11 -4.361761365605675e-12 0 -2.649612687994988e-11 0 0
          -6.866292672164304e-11 7.816151591686805e-11 0 -2.918737407111126e-11 0 0
          -7.656486443348458e-12 3.992963841767267e-11 0 -5.127146308772662e-11 0 0
          -1.1674024975662214e-11 2.4158931331386435e-11 0 -3.194841693417704e-11 0 0
          2.3029061512230975e-11 1.4488011890843624e-11 0 -3.829638012808329e-11 0 0
          2.5309387386448133e-12 7.285106143055934e-12 0 -2.2910201553292463e-11 0 0
          -8.439875788661645e-11 7.11414785770958e-11 0 -4.337364149050574e-11 0 0
          -3.39405924047452e-11 4.732234457448931e-11 0 -2.4659627810102667e-11 0 0
          1.4637555595430236e-11 -9.547319386556899e-12 0 -9.051219935020538e-12 0 0
          2.3529151612382658e-11 7.570584917620474e-13 0 -1.819037163020117e-11 0 0
          6.227662989836651e-12 6.876619412706844e-14 0 -1.2263034336438015e-11 0 0
          -1.3935270642732927e-10 8.83236091630299e-11 0 5.905751734172985e-12 0 0
          -8.649725326379174e-11 7.984399128743401e-11 0 5.122729467190829e-11 0 0
          -7.436037539489887e-11 6.029953823341463e-11 0 4.566816209870357e-11 0 0
          1.3533331821022839e-11 -1.6137169938305546e-12 0 -5.089719197066444e-12 0 0
          -3.412473445044095e-11 4.0866333177623704e-11 0 -2.5782691430651194e-11 0 0
          -1.9660295027060625e-11 2.659270651698893e-11 0 -1.4243680616644705e-11 0 0
          -3.075367561843006e-12 2.365421339350754e-11 0 -2.6108795919176225e-11 0 0
          -6.24598489287765e-12 1.3652048813562715e-11 0 -1.4395847748520092e-11 0 0
          -5.420358718609121e-11 6.083329466191816e-11 0 6.09672873732278e-12 0 0
          8.099488985115533e-12 1.1134251753264011e-11 0 -1.74692809013691e-11 0 0
          -9.50762618701914e-13 6.5825793810458955e-12 0 -1.0939696360415581e-11 0 0
          -6.746008088615209e-11 5.381955468801937e-11 0 -8.509562960936683e-12 0 0
          -3.0337479696328667e-11 3.7296006396187297e-11 0 -3.654007133302631e-12 0 0
          8.300881329760464e-12 4.771172142068072e-12 0 -8.246263693619493e-12 0 0
          5.848338458522321e-12 -1.2756918965792589e-12 0 -4.8048773909541904e-12 0 0
          7.116564653281e-12 3.200911822782727e-12 0 -2.2600902827890187e-12 0 0
          1.0941250979646358e-11 -8.001147779808125e-12 0 -1.2044471544940664e-12 0 0
          -4.5436136197804274e-11 6.53801486855803e-11 0 7.188306533126272e-11 0 0
          -5.10278302740753e-11 4.906857983614687e-11 0 4.3172727664515476e-11 0 0
          -5.950499846138059e-11 7.513499004173535e-11 0 7.248053142027869e-11 0 0
          2.0883165664900085e-11 -1.087167405226043e-11 0 1.9765448779585552e-12 0 0
          -6.955591918437162e-11 5.131464605182004e-11 0 1.9838873743646862e-11 0 0
          -3.665261109016769e-11 3.8510946870137344e-11 0 1.6155015533321175e-11 0 0
          -3.318993537990818e-11 3.172948963751148e-11 0 -7.933880529504695e-12 0 0
          -1.8027171744222934e-11 2.070108011466767e-11 0 -2.8105940225997573e-12 0 0
          -1.678051724799002e-11 2.3031578110641527e-11 0 -1.1448076864452774e-11 0 0
          -8.223759288152381e-12 1.4335441462449908e-11 0 -5.204163316308981e-12 0 0
          -3.5956995790716833e-12 1.505796410996947e-11 0 -1.1824482381208236e-11 0 0
          -5.602848277201154e-12 9.384331358701071e-12 0 -6.546330627889873e-12 0 0
          9.397924456368748e-12 -3.6566525374130937e-13 0 1.3540730482660918e-12 0 0
          1.3646285719441438e-12 9.25026496853973e-12 0 -8.517732231103632e-12 0 0
          1.6214322923101122e-12 2.916691416686127e-12 0 -5.671733961563359e-12 0 0
          3.4860899864850948e-12 5.2837894303730285e-12 0 -3.2906759995072548e-12 0 0
          -2.9793229198609126e-11 3.665416136359268e-11 0 5.208407908068838e-11 0 0
          -4.248559213041046e-11 3.337582350077238e-11 0 3.7567375728351744e-11 0 0
          -4.302927559281564e-11 3.400944541179974e-11 0 5.5088968472463855e-12 0 0
          -2.6494723804239427e-11 2.605164398154678e-11 0 5.359830799859385e-12 0 0
          2.6092120170863585e-12 2.0779683384686282e-12 0 -1.7541080180579341e-12 0 0
          4.1075006761326235e-12 5.010697510181992e-12 0 -5.859262636891953e-13 0 0
          5.66016598569514e-12 -3.9608358134475894e-13 0 -1.6234116497066814e-13 0 0
          4.51588332869922e-12 2.805673364429014e-12 0 6.55872611201261e-13 0 0
          8.573881511379301e-12 -2.6301157363735643e-12 0 4.714993743301271e-12 0 0
          -4.091916116876688e-11 2.8325192150275043e-11 0 2.1762438414112457e-11 0 0
          -1.79037781214087e-11 5.4452262243254654e-11 0 6.97958526759862e-11 0 0
          -2.7869621944524303e-11 3.2932586794506626e-11 0 5.248588629850629e-11 0 0
          -1.9189214748680558e-11 1.639513227650194e-11 0 4.1166880673938916e-11 0 0
          -2.8699381830464552e-11 2.6989738507276174e-11 0 3.291495758244645e-11 0 0
          -2.6030034442963102e-11 1.602986520424637e-11 0 3.1333087261541625e-11 0 0
          -1.8250288212435656e-11 1.8430067277451013e-11 0 -3.5800891621366705e-12 0 0
          -4.12182538502142e-12 1.0492865864619192e-11 0 -5.246372354507309e-12 0 0
          -2.629580323333733e-14 5.701754019553475e-12 0 -3.719861824666035e-12 0 0
          -2.161581016316001e-13 4.654514884232209e-12 0 -3.2833753021311903e-12 0 0
          -1.5543468917135203e-11 8.295863644220144e-11 0 1.7104386609581347e-10 0 0
          6.717606004507779e-12 2.8332143236783922e-12 0 4.863266035799618e-12 0 0
          1.1947881307107118e-11 -2.2907834607872846e-12 0 8.776879550615309e-12 0 0
          1.3631799534812766e-11 -1.3079617717754263e-11 0 2.620163229994421e-11 0 0
          9.665872151527473e-13 3.206133198871219e-12 0 -1.7526956544621723e-13 0 0
          -2.307734306170204e-11 2.1547683220854615e-11 0 1.7373684928201002e-11 0 0
          -1.9817922344938043e-11 4.8991898149470775e-11 0 8.20562623982238e-11 0 0
          -1.0289433064947299e-11 1.9298444740445524e-11 0 5.2809129403122366e-11 0 0
          3.591255019684243e-11 9.351989127574726e-11 0 1.8882820595758398e-10 0 0
          -2.259542302981945e-11 1.5162286327061952e-10 0 1.278545496182074e-10 0 0
          4.873089111075178e-12 2.938315068697914e-12 0 3.0064908137147807e-12 0 0
          6.297421940917513e-12 3.865628567304315e-12 0 8.153604475709882e-12 0 0
          9.157649550463797e-12 -1.58592880518129e-12 0 1.2518423453448292e-11 0 0
          1.6389410921224615e-11 -2.0036592776832565e-11 0 9.000334702811759e-12 0 0
          -1.1103427068793773e-11 1.8741606858752598e-11 0 5.023636959008497e-11 0 0
          -6.195525927251406e-12 3.451882142733535e-12 0 3.952952040746834e-11 0 0
          -1.6554922261237798e-11 1.4352074412364298e-11 0 3.8635707725739905e-11 0 0
          -1.2279309421961993e-11 3.9474252151852306e-12 0 3.274501636986555e-11 0 0
          -1.8176173837014627e-11 1.2934966027935148e-11 0 2.6863017435561466e-11 0 0
          -2.3789868803846226e-11 1.446332532831111e-11 0 1.9498318879562428e-11 0 0
          -9.677837282070789e-13 2.5032816749190102e-11 0 6.429613074382317e-11 0 0
          6.923166008053803e-11 3.8293295635741033e-11 0 2.019561243386768e-10 0 0
          -2.7368613854434326e-11 2.0660977301032216e-11 0 8.072074426300718e-12 0 0
          2.5497917066526384e-11 4.173086157138804e-11 0 1.3974220901213777e-10 0 0
          -3.4196800427330938e-12 6.566444680199843e-12 0 -2.3845436211320654e-12 0 0
          -1.5116810994472617e-11 1.1137050048646425e-11 0 1.5939072007423684e-11 0 0
          1.150113515927899e-12 5.410850000254516e-12 0 -7.690321770417581e-13 0 0
          1.900242975433301e-12 5.6386619019180735e-12 0 1.0147002687223679e-12 0 0
          4.949354818783535e-12 6.716402470705524e-12 0 6.985472914730745e-12 0 0
          7.222175878383148e-12 4.223290475780307e-12 0 1.0243425588554145e-11 0 0
          5.997480242846784e-12 8.850855319349596e-12 0 1.4594186210151433e-11 0 0
          9.561975522674586e-12 -2.7115013285122213e-13 0 1.6951887389303735e-11 0 0
          -1.5650684276487158e-11 5.688696913024839e-12 0 2.4757392412258507e-11 0 0
          3.874823484205196e-12 2.197288603531935e-11 0 7.146674683255931e-11 0 0
          3.0203587649864823e-12 3.82032403206197e-12 0 4.8213851074983923e-11 0 0
          5.206186456908876e-11 3.6319969169351374e-11 0 1.4658034886050254e-10 0 0
          3.731299899873727e-12 6.415918722760621e-11 0 1.0653489356481357e-10 0 0
          -6.355852267615119e-12 3.139857661753012e-12 0 3.751945779281499e-11 0 0
          -3.1690708340944987e-12 -5.933432253996858e-12 0 3.082037365373162e-11 0 0
          -1.038026480908649e-11 3.540944075925597e-12 0 2.985453670265382e-11 0 0
          -7.2657677916772536e-12 -2.7840287995596716e-12 0 2.531244959082715e-11 0 0
          -8.892325824463102e-12 1.0673037797837213e-11 0 -1.4855238768192183e-12 0 0
          -2.19485597826741e-12 7.72627555455799e-12 0 -1.2397995418367526e-12 0 0
          1.4352994794825346e-11 1.3915647114082178e-11 0 3.1540128103566824e-11 0 0
          -3.7323398816945306e-13 3.8251270161528245e-12 0 4.561644340859504e-11 0 0
          2.5201141055102348e-12 -7.121679620658038e-12 0 3.5727681109072276e-11 0 0
          3.6577150795789555e-14 3.819770565569769e-12 0 6.587084000611482e-13 0 0
          1.5747977651842322e-12 4.305644384964927e-12 0 1.982875995538977e-12 0 0
          3.4914109636134042e-12 5.9766842126107864e-12 0 5.485696835048865e-12 0 0
          7.30707104351437e-12 1.120505594881223e-11 0 2.2302486949217864e-11 0 0
          3.992494304356121e-12 9.657935096327876e-12 0 1.012285444271347e-11 0 0
          9.35501331826425e-12 -2.2512228235560878e-12 0 2.264371771499793e-11 0 0
          -1.5259115588786837e-11 5.846700242385147e-12 0 1.71188966164964e-11 0 0
          -1.911102294426749e-11 1.1306601002378393e-11 0 1.142289675231743e-11 0 0
          -1.1315443719537511e-11 4.538405211601441e-12 0 2.1394724307741793e-11 0 0
          3.929418579630754e-11 5.42146514915951e-12 0 1.1414437918717627e-10 0 0
          9.374978855162167e-12 2.249390402462993e-12 0 5.488100141141956e-11 0 0
          4.323083430690455e-12 9.593678299786712e-12 0 1.116778518165452e-11 0 0
          2.6437603537295205e-12 1.6339411406840966e-11 0 1.475579148175206e-11 0 0
          5.368081302184335e-12 8.632861799747494e-12 0 1.619355637641388e-11 0 0
          2.8989963259349867e-12 1.935157728527009e-11 0 2.0443269299400307e-11 0 0
          -8.142998421588483e-12 1.1031093270116726e-11 0 -3.0215659696729294e-13 0 0
          -2.425920831834518e-12 4.927070695631292e-12 0 -3.1218084561438515e-13 0 0
          -9.767324446352352e-12 -8.185128619844982e-13 0 2.0053735295730526e-11 0 0
          -4.696667012535821e-12 6.360923460245621e-12 0 8.935228752192614e-14 0 0
          -1.422511164754003e-12 5.02432853017578e-12 0 -1.2713831186854898e-12 0 0
          1.6582489436036813e-13 5.287183752174649e-12 0 1.8331486594075786e-13 0 0
          5.870942117421553e-13 5.634099155514635e-12 0 1.4749902041817244e-12 0 0
          1.918828662581249e-12 6.434849335127506e-12 0 2.6508410321158206e-12 0 0
          3.568278936032908e-12 5.168656761661141e-12 0 2.9705176203269073e-12 0 0
          5.160807720903223e-12 1.015204709815522e-11 0 2.343362384299229e-11 0 0
          2.8552444523462776e-12 1.0075739380401946e-11 0 7.986381245259891e-12 0 0
          -1.0198427270731378e-11 4.597434222619829e-12 0 1.4040625457559747e-11 0 0
          -1.3772506217509944e-11 1.4664608257143002e-11 0 6.7313810008909896e-12 0 0
          1.4810975303501445e-11 1.761437531995907e-11 0 8.203053179699355e-11 0 0
          -1.0749852946586672e-11 8.189469600878812e-12 0 8.990314575789344e-12 0 0
          6.43406253832386e-11 5.610799944178167e-13 0 1.2114894446716672e-10 0 0
          1.7389404166920882e-11 1.1218339363174481e-12 0 5.895703924548136e-11 0 0
          1.1226062919577444e-11 -8.103239786959112e-12 0 4.100194888649374e-11 0 0
          8.980590990910483e-13 -6.709664651420013e-12 0 3.398962829595498e-11 0 0
          3.0745612992346912e-12 -1.081414229521071e-11 0 2.568912774052228e-11 0 0
          -3.4276578443124975e-12 -5.374038068017711e-12 0 2.8466693213719815e-11 0 0
          -1.791281114088341e-12 -1.085252593953266e-11 0 2.6341723928709998e-11 0 0
          -6.077786632874927e-12 -2.19851547488132e-12 0 2.321488348292897e-11 0 0
          -3.930721378846995e-12 -7.415899396600024e-12 0 2.015389018122216e-11 0 0
          -4.579478072349737e-12 7.0300229424303e-12 0 3.9866365106245334e-13 0 0
          -3.0084419324720383e-12 4.525178688336353e-12 0 7.245550407749986e-13 0 0
          -2.090817699806119e-12 6.0295868574695425e-12 0 3.0238029589934227e-13 0 0
          -9.152918415717517e-12 8.243435596825104e-12 0 2.1028412827544877e-12 0 0
          6.666852768639779e-12 -8.271552854516124e-12 0 3.945618099975002e-11 0 0
          8.31462671948417e-12 -1.469935638832705e-11 0 2.977039569925512e-11 0 0
          -2.7886715746770213e-13 4.009955753900692e-12 0 1.0903955807913315e-12 0 0
          1.9022567826678445e-12 2.6627069652946665e-11 0 2.7516904716546733e-11 0 0
          5.181584071951086e-13 4.73523277252372e-12 0 1.963551939854747e-12 0 0
          7.714714809272148e-13 6.243296980604267e-12 0 2.4290340485788622e-12 0 0
          2.3529693685586216e-12 9.800302476887625e-12 0 7.221065198140257e-12 0 0
          5.25283373972892e-12 2.1553437761889572e-11 0 3.0329826671761004e-11 0 0
          1.4725343123714999e-12 6.157818200633146e-12 0 3.78031337107522e-12 0 0
          1.4696689096244295e-12 7.698495301853741e-12 0 3.855356954235583e-12 0 0
          1.757051162909639e-12 1.4724447184629766e-11 0 1.0667743397638583e-11 0 0
          -7.216994497677284e-12 -6.794678162624685e-13 0 1.7159214008001093e-11 0 0
          1.3024071605162422e-12 1.4282099349010795e-11 0 1.0939608248959258e-11 0 0
          -3.1115219844003107e-13 2.215449269405934e-11 0 1.3593436482053245e-11 0 0
          -9.469603808795532e-12 8.511350654915059e-13 0 1.4068461684576571e-11 0 0
          1.6096674794855038e-11 -1.2943581901118906e-11 0 4.565232367738235e-11 0 0
          1.5167753975648036e-12 1.5104186115740828e-11 0 1.472701139061283e-11 0 0
          -9.079425702225119e-13 2.631316432143159e-11 0 1.822493557226451e-11 0 0
          -1.216729147111742e-11 5.1752332156209914e-12 0 1.093052821943496e-11 0 0
          -7.724637557744988e-12 3.856480325350217e-12 0 8.701704391173067e-12 0 0
          3.5195030049718724e-11 2.0003554247239e-11 0 9.648702131083307e-11 0 0
          3.599565589516212e-11 -6.209278836381877e-12 0 8.910229323920435e-11 0 0
          5.178535817381907e-11 -8.16529622932232e-12 0 9.494122979471999e-11 0 0
          1.0993592997526571e-12 1.7433986003348174e-11 0 2.0006465872362942e-11 0 0
          -2.0576938986644762e-12 3.216220174609849e-11 0 2.3717434809128664e-11 0 0
          -1.279359365771669e-11 8.307161760321886e-12 0 5.979458958280003e-12 0 0
          2.3947828435728744e-11 -6.520181140915581e-12 0 6.520370855506007e-11 0 0
          -1.8079161188825637e-11 1.3497994916406547e-11 0 3.3562886439933368e-12 0 0
          -1.2300939560853686e-12 4.429083579926413e-12 0 1.3011386675045854e-13 0 0
          -4.7499282574760135e-12 5.164393800926221e-12 0 1.970034234926657e-12 0 0
          -1.7236069514744026e-12 3.873744666798179e-12 0 4.864196704624737e-13 0 0
          -7.799768619884934e-12 8.027981143437323e-12 0 3.0388344604046833e-12 0 0
          2.8005798299971512e-12 7.402514288164237e-12 0 4.852597332818411e-12 0 0
          -6.806322092952641e-12 7.629934892031061e-13 0 1.165838187461926e-11 0 0
          -2.813151396123279e-13 4.66148705071901e-12 0 8.383564359716633e-13 0 0
          1.478006002692873e-11 1.2632852069680507e-11 0 2.8839116452834198e-11 0 0
          1.1678809975041431e-11 7.47293345290858e-13 0 2.6152621513506463e-11 0 0
          7.460754429256307e-13 1.3365352518688385e-11 0 7.978380583540919e-12 0 0
          6.64847069609991e-12 1.8228935062630197e-11 0 2.7611239659508285e-11 0 0
          -2.179163556193888e-14 5.199980801352375e-12 0 1.5530784454089622e-12 0 0
          1.5728702092752276e-12 9.900122622245075e-12 0 5.785264844420621e-12 0 0
          6.507664060163754e-14 2.3411236502542443e-11 0 2.535012459847467e-11 0 0
          4.3551104873594935e-12 -1.4611117917068133e-11 0 2.9016679563026613e-11 0 0
          6.811141951566908e-12 -1.819521930128512e-11 0 2.2878110181010396e-11 0 0
          -2.9192225950797468e-12 5.1695800706499144e-12 0 1.089051435705531e-12 0 0
          -2.0345670597293793e-12 3.3376646492892758e-12 0 9.79353226255303e-13 0 0
          -5.018879629382463e-12 5.565374686941415e-12 0 1.8425993360985487e-12 0 0
          -2.967285041059418e-12 3.580221520346953e-12 0 1.553704473599661e-12 0 0
          -5.74052284950317e-12 -4.1879118352649264e-12 0 1.5695374611075503e-11 0 0
          3.8186661148554437e-11 -7.758204883053423e-12 0 6.952182887388128e-11 0 0
          3.5332469261452514e-11 -2.5321773134137985e-11 0 6.298041578467184e-11 0 0
          2.3798186613569957e-11 -1.3479179691457738e-11 0 4.714620237508149e-11 0 0
          3.346624136917347e-11 -1.9084150954466097e-11 0 5.598442739245527e-11 0 0
          1.6271280384885848e-11 -1.77632942110532e-11 0 3.3611385429138296e-11 0 0
          -3.42476623284889e-13 -1.0014436550797738e-11 0 2.285218622885936e-11 0 0
          -3.5664878335913713e-12 -6.280397659324538e-12 0 1.7964023398164458e-11 0 0
          -2.2267635532914665e-12 -9.709080179949758e-12 0 1.6273702957889916e-11 0 0
          3.806829162243919e-14 4.6823239189047646e-12 0 1.832361362851303e-12 0 0
          1.0847835391049694e-13 5.492291288486527e-12 0 1.9763285119259014e-12 0 0
          5.451284690428466e-13 6.380506883504175e-12 0 3.0954741765709403e-12 0 0
          5.790574178324194e-13 7.773728996676684e-12 0 3.2718667394497253e-12 0 0
          9.578078835238796e-13 8.841988246897087e-12 0 5.0443669952888875e-12 0 0
          5.766738562122988e-13 8.997786210190231e-12 0 4.2545957817609616e-12 0 0
          1.1497587392539263e-11 -1.7657821576993276e-11 0 3.237128851111612e-11 0 0
          1.2327515470554742e-11 -2.107224575841683e-11 0 2.43086848493615e-11 0 0
          -1.5181741703671873e-12 4.797680147309124e-12 0 9.666484963728803e-13 0 0
          -7.430301432572686e-12 5.519490023013737e-12 0 3.7574702476715895e-12 0 0
          8.676968061601851e-13 1.3109611447195959e-11 0 7.714830623911942e-12 0 0
          1.6350183464336478e-13 1.2357584953707268e-11 0 5.9692200337096685e-12 0 0
          -4.2719627143417807e-13 3.672731889708171e-12 0 1.2190077384247429e-12 0 0
          -4.287819760532496e-12 4.271399754513711e-11 0 2.925720677060128e-11 0 0
          8.980316103105326e-13 4.0685664668139664e-11 0 3.383986570831118e-11 0 0
          2.6022524559925394e-12 3.57829722378292e-11 0 2.8969147245449332e-11 0 0
          -4.086220239783977e-13 1.8650217197573593e-11 0 1.0115912752725417e-11 0 0
          9.736025480992648e-12 3.440326844989939e-11 0 3.477112708296722e-11 0 0
          -2.6970382543090477e-12 2.380748512667784e-11 0 1.7179428939866143e-11 0 0
          -4.170613164256468e-12 3.1620683732904696e-11 0 1.798761505550222e-11 0 0
          -2.105421939882183e-12 2.0098966253113162e-11 0 1.2630454842935291e-11 0 0
          -4.879847491621379e-12 2.8813174110665126e-11 0 1.6063444398719717e-11 0 0
          -7.938952773062153e-12 1.5103184651728874e-12 0 9.464071127650627e-12 0 0
          -5.331227740311131e-12 1.1848881074322335e-12 0 7.525408166402307e-12 0 0
          -8.903468332343122e-12 4.437254007823989e-12 0 6.589249678007482e-12 0 0
          -6.008912481313108e-12 -2.0372610480475015e-12 0 1.1437550194866028e-11 0 0
          -4.462494529744e-12 2.8224431652363983e-11 0 2.084524604527464e-11 0 0
          -7.65060265923831e-12 4.5366797949126325e-11 0 2.2635555632680997e-11 0 0
          -1.4262684190014807e-12 1.8177809699169095e-11 0 9.802815354798802e-12 0 0
          -2.9206654711978875e-12 2.5817318148649045e-11 0 1.1737745597843909e-11 0 0
          -4.410187499813245e-12 -3.3601244662439452e-12 0 1.3398369735622452e-11 0 0
          1.9405165219251102e-11 -2.3192818402909477e-11 0 3.618244647210614e-11 0 0
          -1.186170517917522e-12 3.0327798679965274e-12 0 8.333716393843619e-13 0 0
          -6.4743304325096474e-12 5.331135747812846e-12 0 4.369994249314678e-12 0 0
          -1.0057472106826576e-12 3.904133405152045e-12 0 7.298527949930707e-13 0 0
          -5.262855453378031e-13 4.144356911036779e-12 0 1.0890190262824466e-12 0 0
          -4.09308836660358e-12 3.562326574731116e-12 0 2.8425604979807825e-12 0 0
          -1.2691455599566175e-12 1.5993001149800666e-11 0 7.15962493904501e-12 0 0
          -3.329700094268638e-12 -6.086040911326941e-12 0 1.2335292057777696e-11 0 0
          -3.180129960718766e-13 4.618052120178035e-12 0 1.5204783151652307e-12 0 0
          -6.054461710716714e-12 3.8486066747078243e-11 0 2.456656304701208e-11 0 0
          -3.04176085660282e-12 3.984591380929452e-12 0 1.6692147854704318e-12 0 0
          -1.7612230489923722e-12 2.4894292889200904e-12 0 1.2776122112015964e-12 0 0
          -4.4243089197339206e-12 3.876929497659107e-12 0 2.642438264063591e-12 0 0
          -2.644546386311135e-12 2.4929420981176096e-12 0 1.9517673217994915e-12 0 0
          5.580850858325299e-11 -2.2692564858976548e-11 0 6.684492403289775e-11 0 0
          3.40285520788169e-13 8.278479572617248e-12 0 3.8625443473113644e-12 0 0
          -1.7587299008576765e-14 7.89366700708599e-12 0 3.385086157439511e-12 0 0
          -1.9323046067973946e-12 4.057590031017685e-12 0 1.3469077859135725e-12 0 0
          -1.160965123249274e-12 2.4221288149424047e-12 0 8.526878358878198e-13 0 0
          4.9461046799649694e-15 5.944280651822567e-12 0 2.404960154901593e-12 0 0
          3.8651582221024964e-14 7.975931938253486e-12 0 2.8849700318123186e-12 0 0
          8.530661753037533e-12 -2.066723570147467e-11 0 2.391391604643384e-11 0 0
          9.391128391079907e-12 -2.181406472557688e-11 0 1.733207279696821e-11 0 0
          4.022203368750086e-12 -1.6874407033832928e-11 0 2.1706123556369712e-11 0 0
          2.2914832434301614e-14 1.1432108171258506e-11 0 5.347093686518257e-12 0 0
          -3.063253781120531e-13 1.0027612884818355e-11 0 4.01399639664668e-12 0 0
          -4.384370075725218e-12 -1.4969098153079593e-12 0 9.283298641610138e-12 0 0
          -1.842456165040881e-13 4.254573987331981e-12 0 1.7029212596144015e-12 0 0
          -1.9813691390860466e-13 5.221493563605147e-12 0 1.8309133762534313e-12 0 0
          2.7746745791001745e-11 -2.303100043121244e-11 0 3.864639695240771e-11 0 0
          1.9196394476945266e-11 -2.4763990240102837e-11 0 2.5794208768033846e-11 0 0
          -5.260706136269388e-13 1.576601222189448e-11 0 7.262886858208761e-12 0 0
          -1.196400061347214e-12 1.2857599366696101e-11 0 4.861570917435743e-12 0 0
          -5.0214912314255565e-12 6.125140229016784e-11 0 3.4729870715504104e-11 0 0
          5.457210408505904e-12 6.545644142252622e-11 0 3.9947771720688864e-11 0 0
          6.487473626355867e-13 -1.1543385488343754e-11 0 1.711913310795706e-11 0 0
          -1.521222063696044e-12 -7.948772458112872e-12 0 1.3977813429018411e-11 0 0
          -1.3798569594862935e-13 -9.71899362093583e-12 0 1.165664627003428e-11 0 0
          1.3873346797070426e-11 -2.4745138977921626e-11 0 2.5228838808751007e-11 0 0
          1.4241140394359614e-11 -2.5626508267764697e-11 0 1.8172040067700547e-11 0 0
          -8.636668517507749e-13 3.3713206644949954e-12 0 8.849936392359521e-13 0 0
          -5.656961746732791e-12 3.1544773659844953e-12 0 4.263702960936632e-12 0 0
          -5.1976744876597115e-12 -6.211488193529916e-13 0 7.803985506581312e-12 0 0
          -3.4723102923816645e-12 -3.935398508893295e-13 0 6.043723606854946e-12 0 0
          -5.9451235660192e-12 1.6438588179154933e-12 0 6.1281972455152405e-12 0 0
          -3.630811164346318e-12 1.2161765302912698e-12 0 4.533850382412898e-12 0 0
          -4.908456066937264e-12 3.0125454790349478e-12 0 4.7533660061387506e-12 0 0
          -8.274207545099961e-12 3.2326111188174604e-11 0 1.5834818089087983e-11 0 0
          -1.1720279020513556e-11 4.4140711158456966e-11 0 1.7792404737473818e-11 0 0
          -4.776328635114507e-13 3.3194626777305793e-12 0 1.0519824678949854e-12 0 0
          -1.1951048397433125e-11 6.082551002082694e-11 0 2.797041337863014e-11 0 0
          -2.267021637406001e-12 2.183629331361526e-11 0 8.65470118425746e-12 0 0
          -1.233632891503626e-11 4.40004427192082e-11 0 1.9757013583697905e-11 0 0
          -1.1246933435181604e-11 4.258963981628921e-11 0 1.7629651552920405e-11 0 0
          -3.8613766758150515e-12 2.1023393387780283e-11 0 8.014832126239204e-12 0 0
          -4.991664372273226e-12 2.9058349192248398e-11 0 8.913477593762981e-12 0 0
          -4.3121812829290955e-12 2.4706776030471555e-11 0 1.131386175757998e-11 0 0
          1.4985891613808366e-11 3.062334065473537e-11 0 3.2061605072207174e-11 0 0
          -2.6724960795165507e-12 -4.8718477559541426e-12 0 1.0395921256798916e-11 0 0
          -3.6301040900150487e-12 -3.4722899112593215e-12 0 8.957042022515697e-12 0 0
          2.0483637286942036e-11 -3.0622852225244355e-11 0 2.6492654483309034e-11 0 0
          -3.224276102564648e-12 2.0760642265615655e-12 0 3.051998233263295e-12 0 0
          -2.658418722656856e-12 2.853821180266768e-12 0 2.0608386191416435e-12 0 0
          -1.5387423378566151e-12 1.764180395470042e-12 0 1.2970456657178299e-12 0 0
          -1.7661274301103327e-12 2.6095164849145e-12 0 1.4499717458817496e-12 0 0
          -1.7440031153145685e-12 2.155300762867152e-12 0 1.3941815831813093e-12 0 0
          -6.900297577325264e-13 3.781158059924097e-12 0 1.0865535787030078e-12 0 0
          -2.9485948863653405e-12 1.7728945224434158e-11 0 5.662628724801385e-12 0 0
          -4.682393444386263e-13 4.064393545203472e-12 0 1.2091075117003806e-12 0 0
          1.0332558627065282e-12 -1.3031175770306629e-11 0 1.9105591453423564e-11 0 0
          -3.558578565620202e-12 2.2893539352726352e-12 0 2.8163406917380915e-12 0 0
          -2.1085464279960832e-12 1.5580243729343654e-12 0 2.062077640632648e-12 0 0
          -1.3296744823201874e-12 2.9751604182441537e-12 0 1.0174439784812442e-12 0 0
          -1.0062839340167972e-12 3.3033489531424166e-12 0 1.0544450875638106e-12 0 0
          6.704942307202874e-11 -2.894178980708814e-11 0 9.467301556407931e-11 0 0
          5.7309153720163865e-11 -4.433927353249927e-11 0 6.376587305323153e-11 0 0
          -2.7871678243994633e-12 -2.61063772613603e-12 0 7.193479089611041e-12 0 0
          5.457359554246502e-12 -1.6920298474920064e-11 0 1.6047168055934666e-11 0 0
          1.0257376789044497e-11 -2.4863876878778446e-11 0 1.776534522496759e-11 0 0
          1.1509215942367634e-11 -2.598742310110505e-11 0 1.3583410720610198e-11 0 0
          5.867669938803563e-12 -2.0833152388115545e-11 0 1.7518318696301142e-11 0 0
          7.070023114877145e-12 -1.9679071264904317e-11 0 1.2449698110990367e-11 0 0
          -3.258446392980669e-13 4.016344681280065e-12 0 1.323963586996552e-12 0 0
          -3.7681175488834206e-13 4.4672236090770375e-12 0 1.3049011195445682e-12 0 0
          -2.4393366947073185e-13 5.6633523539657836e-12 0 2.1351940733332765e-12 0 0
          -3.3858364760353785e-13 1.2592398794760554e-11 0 4.834950951207465e-12 0 0
          -1.7726685005494356e-12 -6.728324713480048e-12 0 9.466268024858753e-12 0 0
          2.0101418555328594e-11 -2.97903951554812e-11 0 1.863443197635474e-11 0 0
          -1.7399477200418992e-12 1.758263651406209e-11 0 6.013390076255639e-12 0 0
          -2.3784535112030893e-12 1.4833927882104824e-11 0 4.029553354312356e-12 0 0
          2.8464584133858465e-11 -3.011139095559063e-11 0 2.624679527872641e-11 0 0
          1.5457905461340498e-12 -1.3295942057601987e-11 0 1.3916081175878365e-11 0 0
          -7.977939961959475e-13 -8.20861306514032e-12 0 1.0523251157789137e-11 0 0
          1.6301651313990281e-13 -9.789225050747139e-12 0 9.085629627578543e-12 0 0
          1.4724427581085435e-11 -2.9325579316031485e-11 0 1.8386911687857494e-11 0 0
          1.4337301004375477e-11 -2.8423683477501056e-11 0 1.3828075205969025e-11 0 0
          -3.859234675254625e-12 5.897118675081497e-14 0 5.117751215559004e-12 0 0
          -2.610403584851561e-12 7.237618992828306e-14 0 3.7548315343448045e-12 0 0
          -3.8632564099813455e-12 1.4128968145723049e-12 0 3.89032187978568e-12 0 0
          -2.715717371627313e-12 1.0080982882393623e-12 0 2.823509766131678e-12 0 0
          1.6333875567400292e-12 -1.5741925944753042e-11 0 1.637097215714045e-11 0 0
          -3.265341118229958e-12 -1.7837043565826555e-12 0 6.154697948007329e-12 0 0
          -2.2155129023490614e-12 -1.2465993883413061e-12 0 4.677822147615118e-12 0 0
          -1.0264894415505924e-11 3.4229397950106827e-11 0 1.094832679307568e-11 0 0
          -4.4124019996965974e-13 2.8619827794907e-12 0 8.73566657240574e-13 0 0
          -6.49907079385013e-13 2.568601691338326e-12 0 8.113416233507755e-13 0 0
          -3.8407376785013585e-12 2.3850024397176372e-11 0 6.504211034467701e-12 0 0
          -5.7657802553793545e-12 2.325287901180307e-11 0 5.699491282359742e-12 0 0
          -6.394787628938802e-12 3.007277045308331e-11 0 5.628252360237136e-12 0 0
          -7.152050350431388e-12 2.752918398042229e-11 0 7.364601707196826e-12 0 0
          -2.147397348554268e-12 -4.068177189996969e-12 0 6.880017321110239e-12 0 0
          4.9718814286029845e-11 -3.2617390624375066e-11 0 4.2015688900433226e-11 0 0
          -1.4811710831621644e-12 -5.2813445777942484e-12 0 7.810255829465872e-12 0 0
          3.128088644080204e-11 -3.3755602679718345e-11 0 3.97967495031147e-11 0 0
          -2.1436784554142638e-12 1.4260003815523325e-12 0 1.9634629664645057e-12 0 0
          -1.3155110404790767e-12 9.087743783093605e-13 0 1.3880860321892409e-12 0 0
          -6.337470711052893e-13 2.9731248580829542e-12 0 9.48175198204389e-13 0 0
          -4.886673659521251e-13 1.978190345934393e-12 0 6.160386376125047e-13 0 0
          -2.0796765583016895e-11 5.854255240429909e-11 0 1.249381187973792e-11 0 0
          -8.271763956902689e-13 2.6036105757347896e-12 0 1.0041878256453495e-12 0 0
          -4.3578494997547855e-12 1.9360422262635573e-11 0 3.9665620612178175e-12 0 0
          -4.852355039298899e-13 3.3162392450766315e-12 0 9.294148760901436e-13 0 0
          8.48061912548687e-12 -2.4576369342413423e-11 0 1.3850789460437415e-11 0 0
          8.295199290260734e-12 -2.289259051874844e-11 0 9.064933716170307e-12 0 0
          -7.76294032655379e-12 3.6420197121664535e-11 0 1.2987162183060458e-11 0 0
          -7.86595094345435e-13 -6.670798654393835e-12 0 7.1067834787222196e-12 0 0
          -3.6562289871077996e-13 3.4049911840923724e-12 0 9.90453194236189e-13 0 0
          -4.5102550911223493e-13 3.64992957232745e-12 0 9.018443771885826e-13 0 0
          -3.479068776390526e-13 4.642578003997366e-12 0 1.5366764278347458e-12 0 0
          -1.370700272809288e-12 1.4297952397570447e-11 0 4.197457638813602e-12 0 0
          -2.851579753163386e-12 1.898517861614726e-11 0 4.425772880132475e-12 0 0
          -3.3232283867207345e-12 1.5588752175060325e-11 0 2.6308307995742965e-12 0 0
          -1.6867700959149933e-12 -3.0454440565603572e-12 0 5.381602372448255e-12 0 0
          1.3192324243727463e-12 -1.1816392043377577e-11 0 9.879302941320176e-12 0 0
          -1.2343499873874843e-13 -8.00491246542699e-12 0 7.779666252257829e-12 0 0
          6.148257489000597e-13 -9.00674058621507e-12 0 6.6553830150242995e-12 0 0
          -2.462603541079359e-12 -7.599113605475805e-13 0 4.0225109449081635e-12 0 0
          -1.597188557945237e-12 -4.966020531827508e-13 0 2.8488434758884354e-12 0 0
          -2.486911549237586e-12 5.958788132001947e-13 0 3.0378707614834587e-12 0 0
          -2.001454396844589e-12 -2.3088537109452324e-12 0 4.706625576866635e-12 0 0
          -1.4090646333293036e-12 -1.6258585022119844e-12 0 3.4930562212836365e-12 0 0
          3.961585072482874e-12 -1.910142469724816e-11 0 1.2864663649182959e-11 0 0
          -1.2020848401707161e-11 4.354955895002218e-11 0 1.0992311029592391e-11 0 0
          -9.110929751732666e-12 3.7111590277356194e-11 0 7.615714347823192e-12 0 0
          -4.8185670855980966e-12 2.4681469906796443e-11 0 3.989453440165166e-12 0 0
          -3.870065560818471e-13 2.3355699035186937e-12 0 6.394690553178611e-13 0 0
          -7.2641917908250134e-12 2.4465729824293245e-11 0 3.059454878574601e-12 0 0
          -7.073875736899412e-12 3.028564751516329e-11 0 1.9977858866499913e-12 0 0
          -8.781699831514397e-12 2.8576303126298555e-11 0 3.724754198642583e-12 0 0
          -1.1168589271277321e-11 3.563192455504458e-11 0 4.313937846911397e-12 0 0
          -7.382321646574434e-13 -5.177455992633322e-12 0 5.734209880909234e-12 0 0
          -1.1544932821972702e-12 -4.077870911019066e-12 0 5.094543218526846e-12 0 0
          1.3559519155270602e-11 -3.1185198881256516e-11 0 1.2507135390078947e-11 0 0
          -1.680769259033445e-12 6.938622196606831e-13 0 1.9438682537386133e-12 0 0
          -1.3630050662395804e-12 1.3094545350303303e-12 0 1.489714798926633e-12 0 0
          -7.249079305147681e-13 2.1902602180220624e-12 0 8.00702116033554e-13 0 0
          -5.330165034764191e-13 2.3925141456204044e-12 0 6.923724019257978e-13 0 0
          -3.7786971324700803e-13 1.57023470661133e-12 0 4.598042742769447e-13 0 0
          -4.86788880448819e-13 5.273259217241243e-12 0 1.4138698896638506e-12 0 0
          -1.0067710765793436e-12 1.006441211933913e-11 0 3.308318034235975e-12 0 0
          -3.5749614268294346e-13 6.455580423570592e-12 0 2.075535283002261e-12 0 0
          -1.9084674879427747e-12 1.1591758771998555e-11 0 2.7047222520258807e-12 0 0
          -1.335165972808516e-11 3.452051401126376e-11 0 6.1099152022824594e-12 0 0
          -1.071761847169269e-11 3.5879045336609345e-11 0 3.703396972704791e-12 0 0
          -1.936881249034782e-11 4.568886304696349e-11 0 6.326097324892388e-12 0 0
          -5.2072600766313575e-12 1.9868831837453594e-11 0 1.963768720108568e-12 0 0
          -4.428781903376987e-13 2.6184321948783976e-12 0 6.32944117630006e-13 0 0
          -5.947105025733771e-13 8.91926741214036e-12 0 2.800753149434944e-12 0 0
          2.5290394384296133e-12 -1.3517442720439904e-11 0 1.0616686931520569e-11 0 0
          2.1576438289600455e-12 -1.2691872582930212e-11 0 8.024529481612718e-12 0 0
          -9.636644095080462e-13 -3.0460115583659144e-12 0 3.903884487923196e-12 0 0
          -3.410270777635302e-13 2.797231538128291e-12 0 6.61253589319819e-13 0 0
          -4.2833895444047786e-13 2.8235684130852143e-12 0 5.392216684067759e-13 0 0
          -4.038163671114251e-13 3.97893901126679e-12 0 1.0286139754715045e-12 0 0
          -5.508000030527099e-13 4.161715262321837e-12 0 8.357513266969407e-13 0 0
          -2.0666520609633535e-12 1.4963176461593798e-11 0 2.8893700296318066e-12 0 0
          -2.38615826227197e-12 1.1471800447199044e-11 0 1.5407317044566438e-12 0 0
          -3.4648149664842444e-12 1.9378759420543295e-11 0 2.4790436635870692e-12 0 0
          -3.830555486118031e-12 1.5666986377392515e-11 0 1.0789042844527145e-12 0 0
          8.88423741238382e-12 -2.6767865819194026e-11 0 9.55940658525711e-12 0 0
          4.8812683834315115e-12 -2.1230848494114822e-11 0 9.241921514927647e-12 0 0
          -1.5148900072205654e-12 -1.1638008845667784e-12 0 3.075648446542053e-12 0 0
          -9.37189128666232e-13 -7.480420231832807e-13 0 2.0374532992875352e-12 0 0
          -1.6820748916277826e-12 -1.0568095593752948e-13 0 2.5236240876393545e-12 0 0
          -1.8864984593538537e-13 -6.099036508663419e-12 0 5.158807813846089e-12 0 0
          1.2544989839352863e-12 -1.0578240127975858e-11 0 7.049483610591807e-12 0 0
          1.9269622371364163e-12 -1.098372799861903e-11 0 5.635672759898289e-12 0 0
          2.1790548900522637e-13 -7.340919577820895e-12 0 5.593463436403124e-12 0 0
          7.816064683638475e-13 -7.85883186465486e-12 0 4.7163662197455115e-12 0 0
          -1.1774280707459592e-12 -2.384941798524977e-12 0 3.447640441152607e-12 0 0
          -8.209713905026766e-13 -1.6749998006663436e-12 0 2.49343255263165e-12 0 0
          -7.149416622263228e-13 1.7402144053566028e-12 0 6.337232852865716e-13 0 0
          -4.908907122345518e-13 1.4076772026573982e-12 0 5.142779791090494e-13 0 0
          -1.141330877897743e-12 1.1065662209007291e-11 0 2.4382721091281698e-12 0 0
          -5.933363465018967e-13 6.351527538355311e-12 0 1.715485476505368e-12 0 0
          -8.255079991752406e-13 7.171998008186822e-12 0 1.4027683413131879e-12 0 0
          -8.989945079812177e-13 7.723019944533193e-12 0 1.9189326079673007e-12 0 0
          -1.5703753620012107e-11 4.7236861142421063e-11 0 2.9811460171627672e-12 0 0
          -1.67360561155469e-11 5.092130407484117e-11 0 9.562577078889575e-12 0 0
          -3.0990550052365366e-13 1.831410391779999e-12 0 4.3305295277980744e-13 0 0
          -5.237139505275793e-12 2.4530407428283406e-11 0 1.3229830524450387e-12 0 0
          -7.643116213679586e-12 2.4478248484129547e-11 0 2.9305135982123186e-13 0 0
          -6.878592493944345e-12 2.8505280650100485e-11 0 -1.1619580514013263e-12 0 0
          -9.889374258821186e-12 2.958375810268951e-11 0 4.2432165037785453e-13 0 0
          -9.374107263187734e-12 3.394407846233877e-11 0 -9.191027481835958e-13 0 0
          3.052344484186815e-12 -1.5524862963553044e-11 0 8.785135456215586e-12 0 0
          4.884631690458372e-12 -1.7278770972583663e-11 0 8.97213914868915e-12 0 0
          3.5964658497553447e-12 -1.510049805459975e-11 0 6.308599969917987e-12 0 0
          -5.508734489042115e-13 -3.7385570279158865e-12 0 3.661934283541971e-12 0 0
          -5.04912243484613e-13 1.642252341846544e-12 0 5.72111940369061e-13 0 0
          -3.215127228767994e-13 1.0497514393182699e-12 0 3.9315603940836944e-13 0 0
          -4.160235013743554e-13 1.7940114344726425e-12 0 4.750668915082682e-13 0 0
          -2.728844820707949e-13 1.1818119728596689e-12 0 3.1639955666644494e-13 0 0
          -2.883326301932035e-13 -4.6794052108933024e-12 0 4.050434873115215e-12 0 0
          -1.5837243240869105e-12 4.167630041008664e-13 0 2.0636095378700652e-12 0 0
          -9.630779204068187e-13 4.382811097825808e-13 0 1.2816281354584688e-12 0 0
          -6.569498589492405e-13 6.735375915522718e-13 0 7.533330312690541e-13 0 0
          -8.895570276737432e-13 1.2926410395004893e-12 0 8.672685008789323e-13 0 0
          -6.383030998011929e-13 1.3469043837981296e-12 0 7.380737907283721e-13 0 0
          -3.646640841878008e-13 1.958258859882543e-12 0 3.9436429429105095e-13 0 0
          -1.284466691967275e-12 7.819200700557173e-12 0 1.4722077324602054e-12 0 0
          -5.5211805370289546e-12 1.970054583109185e-11 0 -5.822646539068757e-14 0 0
          -1.7296030498569243e-11 4.206278748479058e-11 0 4.586443344137068e-13 0 0
          1.3066373636811764e-11 -2.7968853537166112e-11 0 8.5977995022908e-12 0 0
          4.964683861160643e-12 -1.7896193285596437e-11 0 7.2556124408555e-12 0 0
          -2.7899277815639666e-13 2.174445240925682e-12 0 4.004223703189729e-13 0 0
          -3.4822628441079863e-13 2.077016433480116e-12 0 2.85709326577325e-13 0 0
          -2.464574179315526e-12 1.4920677063660823e-11 0 1.3394297555826047e-12 0 0
          -2.721243139165917e-12 1.1781589149208787e-11 0 4.306977198921086e-13 0 0
          -3.735436012037665e-13 3.255432009680425e-12 0 5.822272645211511e-13 0 0
          -4.835087752727676e-13 3.027304360207657e-12 0 3.7900145699389814e-13 0 0
          -3.646927461379711e-12 1.8971134621646718e-11 0 4.764634272120083e-13 0 0
          -3.896057540327586e-12 1.5084090356980224e-11 0 -4.376353240661807e-13 0 0
          -9.15653092341762e-13 -1.41144435611561e-12 0 2.2311258548138814e-12 0 0
          -5.935631525220958e-13 -9.401382154032927e-13 0 1.5408213557705806e-12 0 0
          -1.140024423708903e-12 -4.592346141089223e-13 0 1.955700482958148e-12 0 0
          1.2098105141664207e-13 -5.271772410969722e-12 0 3.6203429990279832e-12 0 0
          -5.025507125317912e-13 -2.7666767490135235e-12 0 2.718798724032824e-12 0 0
          -1.4702742714019219e-12 1.0901194386693778e-11 0 1.4923716677985791e-12 0 0
          -5.898806146456434e-13 5.0238932687356645e-12 0 9.94609807004092e-13 0 0
          -8.077440787868652e-13 5.199254030821121e-12 0 6.758214937841692e-13 0 0
          1.0642244213357381e-12 -9.226227589451788e-12 0 4.866322274617944e-12 0 0
          3.525030723076645e-13 -6.365012508474849e-12 0 3.851131476554143e-12 0 0
          -6.388303789944683e-13 -2.193447076313341e-12 0 2.431955478612036e-12 0 0
          -4.910341612945124e-13 -1.5356861401965186e-12 0 1.7371151980964739e-12 0 0
          -1.2804061345352722e-12 -9.326469451225753e-14 0 1.7157329059375603e-12 0 0
          -9.641050356491676e-13 4.838725143324317e-13 0 1.274368948755797e-12 0 0
          -7.323914699372157e-13 1.0529231571902801e-12 0 8.76214435299651e-13 0 0
          2.266987181383669e-12 -1.2986196489359601e-11 0 5.860889460735529e-12 0 0
          -2.294441152231792e-13 1.3725190015630734e-12 0 2.6677569749900224e-13 0 0
          -5.0420928155709876e-12 2.341047948546836e-11 0 -1.2050119394071102e-12 0 0
          -7.675065472905913e-12 2.3820371719109112e-11 0 -2.1948033409317173e-12 0 0
          -6.05416484926558e-12 2.6579071808146903e-11 0 -4.113693967709937e-12 0 0
          -1.0304727806849306e-11 2.8240627553392926e-11 0 -2.5847597256761937e-12 0 0
          -8.181392756043397e-12 3.075316834292587e-11 0 -4.749787005538641e-12 0 0
          -1.462467424434491e-11 3.496863156865342e-11 0 -3.676082672831806e-12 0 0
          -3.502420278007579e-13 1.1232089282010002e-12 0 3.9356024093158616e-13 0 0
          -3.0198721072513477e-13 1.2697602411092683e-12 0 3.000747654735912e-13 0 0
          -5.5393747380874634e-14 -4.00285812111328e-12 0 2.7535271377651387e-12 0 0
          -3.321749437624943e-13 7.705980538428746e-13 0 4.408143116097752e-13 0 0
          -5.001672645353169e-13 9.452900077352813e-13 0 5.452935108229348e-13 0 0
          -1.97037626719098e-13 -3.1807499108465957e-12 0 2.5213906058691897e-12 0 0
          -4.2887176124774203e-13 5.750603944170155e-13 0 4.842087818475589e-13 0 0
          -5.273872621111869e-12 1.883842445403666e-11 0 -1.9229224461426624e-12 0 0
          -2.7294484432723173e-13 1.393543417818458e-12 0 2.1585579489176445e-13 0 0
          -1.7099789264252598e-12 1.1097104234014172e-11 0 4.775684827149729e-13 0 0
          -2.979300200660659e-13 2.4473271030939412e-12 0 2.9485049024467295e-13 0 0
          -3.8243774318716326e-13 2.1244739687606453e-12 0 1.2878316153744698e-13 0 0
          -2.437395461908898e-12 1.4247235719879105e-11 0 -1.43695923234314e-13 0 0
          -2.5477264428287565e-12 1.063138642160045e-11 0 -6.884912988541971e-13 0 0
          -4.664534610199449e-13 3.823283969560595e-12 0 3.885328033828014e-13 0 0
          -6.104818280273749e-13 3.1635663654100767e-12 0 1.1795119621908505e-13 0 0
          -5.401836969879375e-13 -1.315506679159204e-12 0 1.580979526263064e-12 0 0
          -6.099788245100923e-13 -6.985336542152177e-13 0 1.4176566632446047e-12 0 0
          -2.1387378421796946e-13 1.606820887121287e-12 0 2.1537545362145487e-13 0 0
          -2.654794710177115e-13 1.4618855152016365e-12 0 1.2044463333219327e-13 0 0
          -3.351562146615902e-12 1.7972861652378338e-11 0 -1.4109332089429919e-12 0 0
          -3.46716311864817e-12 1.3812270916437327e-11 0 -1.7941087023885074e-12 0 0
          -9.111121025068223e-13 6.94856509493253e-12 0 6.953260861286751e-13 0 0
          -2.2591340815260623e-13 -2.3361805587626548e-12 0 1.8209001300091624e-12 0 0
          -3.2320409865907764e-13 -1.7933299433909537e-12 0 1.6302322867590814e-12 0 0
          -6.228349255235798e-13 4.920271032924638e-13 0 7.700096954876374e-13 0 0
          -1.2774473727048091e-11 3.7831258744925064e-11 0 -2.011091033783236e-12 0 0
          -1.040507084221198e-11 3.3661700593385724e-11 0 -5.65849887005055e-12 0 0
          -5.85359897907392e-13 2.598782820378775e-13 0 6.837558902736068e-13 0 0
          -4.277149238646225e-12 2.170937923861869e-11 0 -3.4323185341999557e-12 0 0
          -1.0693483526956265e-12 1.9124495404671786e-12 0 1.0837735642519511e-12 0 0
          -1.1679361628258946e-11 3.068178573972335e-11 0 -7.030568317244687e-12 0 0
          -8.574810222528067e-12 3.04093494704089e-11 0 -8.273736435171409e-12 0 0
          -9.263600460519002e-12 2.6586527931086066e-11 0 -5.342624307691154e-12 0 0
          -6.3292981879081885e-12 2.8080445326245313e-11 0 -7.732556923149308e-12 0 0
          -6.705941115194296e-12 2.233531127876021e-11 0 -4.392087862417876e-12 0 0
          -4.525572470136343e-12 2.408029207397661e-11 0 -6.420893322711264e-12 0 0
          -1.5163830306071251e-12 7.62231171200499e-12 0 7.120168363840805e-13 0 0
          -1.4775935125424481e-12 7.384264993118636e-12 0 9.590491524280609e-14 0 0
          -2.3233955559832455e-13 1.7503058792617764e-12 0 1.2429222418676846e-13 0 0
          -2.543040020675432e-13 1.5168607651102592e-12 0 5.0563121041862855e-14 0 0
          -1.5683614121013918e-12 1.003021214679425e-11 0 -5.03002079656116e-13 0 0
          -1.4092558097028338e-12 6.771628867781226e-12 0 -5.917005738498943e-13 0 0
          -3.2444536005809815e-13 2.8556846488242186e-12 0 4.6356793797033366e-14 0 0
          -2.7415531329253055e-13 1.8342465987790243e-12 0 2.4230992311839735e-14 0 0
          -2.1432565155338625e-12 1.3097329296822303e-11 0 -1.5006913549708039e-12 0 0
          -2.12572422056027e-12 1.0005447418331652e-11 0 -1.538440659079735e-12 0 0
          -4.42333095982528e-12 1.744151484310072e-11 0 -3.4612802374491265e-12 0 0
          -6.662221481207654e-13 4.5253954184395085e-12 0 -1.2322946397837012e-14 0 0
          -5.911716731570564e-13 -2.8009941513925243e-13 0 1.0773018660376507e-12 0 0
          -7.311953842510892e-13 -1.1264676473312009e-14 0 1.142519522678207e-12 0 0
          -2.5634966872318108e-12 1.653061928241032e-11 0 -3.130141884316166e-12 0 0
          -2.5251114543991726e-12 1.2079979067439783e-11 0 -2.841462428300255e-12 0 0
          -7.30973020368871e-12 2.4503637378290175e-11 0 -7.534803141187117e-12 0 0
          -5.178565694691865e-12 2.5455343788078333e-11 0 -9.138135929281239e-12 0 0
          -1.079600454645757e-11 2.7978859678850214e-11 0 -9.470617399966414e-12 0 0
          -5.392538730707142e-12 2.4389466187198057e-11 0 -1.0592949887334418e-11 0 0
          -1.1674327639756716e-12 6.7204913340243245e-12 0 1.9114946309403048e-13 0 0
          -3.0486897526510677e-12 1.9544025745888754e-11 0 -5.083928554652246e-12 0 0
          -4.978707900686811e-12 2.0322591963196173e-11 0 -5.958991220356457e-12 0 0
          -2.0217102749876836e-12 2.1998463313164825e-11 0 -8.512954001845822e-12 0 0
          -1.4771215194703339e-12 1.1379711148186e-11 0 -2.4486100529151885e-12 0 0
          -6.032537659513828e-13 6.744853028997664e-12 0 -1.7940320698074797e-12 0 0
          -1.1956992764892905e-12 9.302070045980635e-12 0 -1.3390528118014137e-12 0 0
          -9.15432364926342e-13 5.70677887743293e-12 0 -1.088763627660614e-12 0 0
          -3.102766711964696e-12 1.5267014094219078e-11 0 -4.36532294300578e-12 0 0
          -1.2675244221632337e-12 1.481202629004195e-11 0 -4.517130676528528e-12 0 0
          -1.0419398938189953e-12 1.128964661403188e-11 0 -3.6453269422402934e-12 0 0
          -7.244040775970774e-13 5.973496136034892e-12 0 -7.913156822821379e-13 0 0
          -5.5831137967673065e-12 2.307207435047691e-11 0 -1.0179506720143435e-11 0 0
          2.744073975324388e-13 2.1680882128369663e-11 0 -1.2591805582075803e-11 0 0
          -6.832092504429297e-13 1.678227748229508e-11 0 -6.369989248670089e-12 0 0
          -2.1728059994376473e-12 1.790226809458067e-11 0 -6.629430330753147e-12 0 0
          -6.99003208770672e-13 3.837692650201295e-12 0 -3.1374455899674237e-13 0 0
          -5.381518500129277e-13 3.1867703236539016e-12 0 -6.463852208803869e-13 0 0
          -4.684590815671188e-13 5.571417469402642e-12 0 -1.4429101929761163e-12 0 0
          -9.41705667238405e-14 2.2083653354760893e-12 0 -6.982585610024498e-13 0 0
          -7.133187215389531e-13 7.670523374435367e-12 0 -1.8189020008132783e-12 0 0
          -1.4880981561028885e-14 8.258330869754676e-12 0 -2.7552130375961485e-12 0 0
          6.877626849734167e-13 9.893201699232998e-12 0 -3.821477561957227e-12 0 0
          4.715107769025519e-13 1.3912421460166916e-11 0 -5.44733915820004e-12 0 0
          -3.859564053178333e-13 3.0024712926568347e-12 0 -4.948508463870754e-13 0 0
          -3.5966577250825695e-13 2.4269494762458442e-12 0 -2.650501992865132e-13 0 0
          -3.103952130445571e-13 1.872789060843622e-12 0 -1.0032128511482582e-13 0 0
          2.799789667735171e-13 4.0273897528190535e-12 0 -1.5321388378500074e-12 0 0
          -1.5156538522504096e-13 1.5035038492244954e-12 0 -2.863502274381977e-13 0 0
          -2.2682584572652725e-13 1.9452805535652113e-12 0 -3.8598020553314733e-13 0 0
          -3.770377013381101e-14 1.4263861909673535e-12 0 -4.993699181357166e-13 0 0
          1.249202210860148e-12 1.7969293340834433e-11 0 -8.274113908788265e-12 0 0
          2.2727401139561077e-11 5.2961156002206064e-11 0 4.064128859974976e-11 0 0
          2.002128068244883e-11 5.088615168930952e-11 0 3.05291317522272e-11 0 0
          1.8903726655651894e-11 1.0100988052806611e-10 0 4.200392859825868e-11 0 0
          2.13177512869614e-11 7.054831662512276e-11 0 2.705641934408475e-11 0 0
          1.4248895262629248e-11 1.9308973912155681e-10 0 3.035834974560452e-11 0 0
          -7.649722575713802e-12 6.143158045227105e-11 0 2.561625211057682e-11 0 0
          -1.6027749738755627e-11 5.725657848086173e-11 0 1.9088869220515034e-11 0 0
          -1.4546299587009575e-11 8.361742526251705e-11 0 2.896773057977679e-11 0 0
          -1.9312988340406343e-11 8.153056109756598e-11 0 1.3243381887938897e-11 0 0
          -2.12425285794124e-13 9.19498604836357e-11 0 4.10114930061866e-11 0 0
          -2.009386007944009e-11 7.464355143315096e-11 0 1.9052445318857635e-11 0 0
          -2.5881900517178106e-11 7.345507198355364e-11 0 6.823371040631223e-12 0 0
          -2.4213237084032235e-11 9.658877840238218e-11 0 1.4788284898593076e-11 0 0
          -3.0882349776070415e-11 1.0104813744626046e-10 0 -7.83537861644025e-12 0 0
          -1.6678171221556674e-11 1.1019671578603705e-10 0 2.3742002965708594e-11 0 0
          -2.60968707322256e-11 8.01140634125601e-11 0 5.14232264493933e-12 0 0
          1.3110982834600425e-11 5.927393588803789e-11 0 3.313071506337987e-11 0 0
          -2.0792031777419155e-11 1.2031359615605905e-10 0 -2.2602941365365953e-13 0 0
          -7.180100267477978e-12 1.1620882658239046e-10 0 1.8149734482725375e-11 0 0
          8.110007701483023e-12 1.0872511768871157e-10 0 2.402910669237457e-11 0 0
          -2.83102552874834e-11 6.844262749230069e-11 0 4.995835851500325e-14 0 0
          -3.3602985499655874e-11 8.403855347016663e-11 0 -1.2763577776523054e-11 0 0
          -1.7203649306697422e-11 1.9678726598056282e-10 0 1.3918121100829885e-11 0 0
          -2.982627105630731e-11 9.708821256795579e-11 0 -6.603931914141084e-12 0 0
          -2.7427684700471603e-11 1.2840166711057453e-10 0 9.221842239611395e-13 0 0
          -2.779250945224681e-11 7.358907685397784e-11 0 -1.2011525565281533e-11 0 0
          -2.393725180888564e-11 5.0511060604612385e-11 0 -3.9159308093011834e-12 0 0
          -3.2253080958009385e-11 7.194692603716152e-11 0 -1.6011603714031965e-11 0 0
          -1.7887136516510238e-11 4.475902469621131e-11 0 -6.106549434530179e-12 0 0
          -2.1315712197602514e-11 5.4073548971766026e-11 0 -6.44581244495989e-13 0 0
          -2.0444777128818136e-11 4.459716522532933e-11 0 -7.447689241686511e-12 0 0
          -2.499570761189174e-11 5.167768116473988e-11 0 -1.6824282676870673e-11 0 0
          -2.257306222543866e-11 5.20711505882527e-11 0 -1.2700686068703761e-11 0 0
          -1.4090330442311494e-11 3.6804505966021826e-11 0 -8.91654987902171e-12 0 0
          -1.6673712328659346e-11 3.6402338499780766e-11 0 -9.70212185199353e-12 0 0
          -9.477471132531233e-12 2.8712516839876344e-11 0 -1.144500779198136e-11 0 0
          -2.0500121019658027e-11 4.282881077911214e-11 0 -1.6305533505430237e-11 0 0
          -1.7046141774257252e-11 3.7452559551648736e-11 0 -1.404415676980696e-11 0 0
          -1.1171999847952765e-11 2.73938203389613e-11 0 -1.3936218470491324e-11 0 0
          -1.5170143900261803e-11 3.519034443137778e-11 0 -1.4974993161317443e-11 0 0
          -7.22174365413527e-12 2.2224553288417976e-11 0 -1.2551501253399215e-11 0 0
          -2.752558585431908e-12 1.8389704601267168e-11 0 -1.300150876216332e-11 0 0
          -8.550338997597282e-12 2.8357747864491367e-11 0 -1.4501125253791544e-11 0 0
          -5.131096764406506e-12 2.5260528367343785e-11 0 -1.4826672911610854e-11 0 0
          1.1261027697942206e-12 1.6198555227039945e-11 0 -1.14733172388453e-11 0 0
          <InformationKey name="L2_NORM_RANGE" location="vtkDataArray" length="2">
            <Value index="0">
              2.860393646e-15
            </Value>
            <Value index="1">
              7.2782739426e-10
            </Value>
          </InformationKey>
        </DataArray>
        <DataArray type="Float64" Name="Strain" NumberOfComponents="6" format="ascii" RangeMin="0.00004363557840255315" RangeMax="0.0007808171891021911">
          0 0.000055981078677727925 0 -0.00005544721208687699 0 0
          -0.000029307949233193217 0.00006938434552253147 0 -0.000040418817702544414 0 0
          -0.00003615023766773152 0.00007790974380263713 0 -0.0000653718074889299 0 0
          -0.00003700206892451757 0.0001484090388423457 0 -0.00003226749839592683 0 0
          -0.00008350366098619048 0.00017822593449037902 0 -0.000021666308689447456 0 0
          -0.00003057583061683674 0.00017255488984114055 0 -0.00003650849111212337 0 0
          -0.00003946534790683543 0.00002107026222719372 0 0.00011466108957346497 0 0
          -0.000039429111213192957 0.00008676373743892694 0 0.00011976424616761761 0 0
          -0.00008350366098619048 0.0001845256917611808 0 0.000053736292317341965 0 0
          -0.00008732326786720288 0.0002166620426255274 0 0.00008966436748325681 0 0
          -0.000018109764806946146 -0.000033662813886998274 0 0.00009829120338602825 0 0
          -0.000018109764806946146 0.00003387725440818248 0 0.00014809321420313892 0 0
          -0.00008716934517366266 0.000034523038388339445 0 0.00016234228320173886 0 0
          -0.00002482608769803938 -0.0000716559207748635 0 0.0001718265157918089 0 0
          -0.000030220560749957954 -0.000009392744801131652 0 0.00014040471762815222 0 0
          0 0.0000973946393868636 0 -0.00009772249011660017 0 0
          -0.000014070604513643708 -0.00006757621690826497 0 0.00018611052761729124 0 0
          -0.00008350374698799046 0.00019306246469555707 0 0.00008783228992341276 0 0
          -0.000044786889989752415 0.0002010329214781451 0 -0.00003647218571527538 0 0
          -0.00008312163531969805 0.00005688880601364378 0 0.00018144754420616028 0 0
          -0.00008571547711210589 0.0002368633347405163 0 0.00016137504397767838 0 0
          -0.00007560286025115126 0.0002619009396367483 0 0.0001217449946179384 0 0
          -0.0000241233241687999 -0.0001017821788571148 0 0.00026409769242475434 0 0
          -0.000022700828571179776 -0.0001333759094296321 0 0.0002551298587246808 0 0
          -0.0000931611788027304 0.0001907643438633787 0 0.0001822628575861131 0 0
          -0.000062144551505876 0.0002670362085867167 0 0.00007905585537816497 0 0
          -0.00009332349102938214 0.00020512135149595447 0 0.00019246246426390216 0 0
          -0.00009092221675196518 0.00025522184527655874 0 0.0001538934573160483 0 0
          -0.000098546651528196 0.00025413861508398017 0 0.00013556344402264588 0 0
          -0.00008350450823202936 0.0002770575936014922 0 0.00010670872941325826 0 0
          -0.0000786977301543895 0.00027632467794013414 0 0.00009568134617062482 0 0
          -0.00008674064272793291 0.00007058304666266547 0 0.00021188108385526835 0 0
          -0.00007446021231629458 0.0002738049669667162 0 0.00005549380177317795 0 0
          -0.00005068206652659643 -0.00006000127965822443 0 0.0002543357486404335 0 0
          -0.00003595037594477109 -0.00009040980058287913 0 0.0002567433988896955 0 0
          -0.000033713070770079515 -0.0000902580571996564 0 0.00024407905204080392 0 0
          -0.00005229729114691796 0.00026185860927560703 0 0.000034740642074916384 0 0
          -0.00006571241828603611 0.0002486536583150889 0 -4.2209679430459015e-7 0 0
          -0.0000746749279676412 0.000018892080727925817 0 0.00023665808300819726 0 0
          -0.00008638924193819843 0.00011067115011376396 0 0.00022091197837130385 0 0
          -0.00009306776214850245 0.00011621482894980732 0 0.00021012506904068284 0 0
          -0.00010311336577427873 0.00020523330542335857 0 0.0001851750604203279 0 0
          -0.00010826657958629843 0.00020907490658340645 0 0.00017744285609864986 0 0
          -0.00008405923180377782 0.00020701796701832667 0 0.00019747291442757478 0 0
          -0.0001009114410496643 0.0002777043636413149 0 0.00013654164044443523 0 0
          -0.00010416131288578647 0.0002772314520233236 0 0.00012880061982148183 0 0
          -0.00006392269378114408 0.0002728664800300815 0 0.00004165860171667081 0 0
          -0.00008738249878965048 0.0002803702798562979 0 0.00007423361741629836 0 0
          -0.00007068463424218883 0.0002799786385466417 0 0.00006925486647453604 0 0
          -0.00005919279557395415 -0.000027052993588643718 0 0.00024286878083139887 0 0
          -0.0000053683316527043434 -0.00014238292918758704 0 0.00025153149351405367 0 0
          -0.00007583881488621696 0.0000025896410817366315 0 0.0002268695748111249 0 0
          -0.00006909243190956094 0.00001814018481585911 0 0.0002330672304025938 0 0
          -0.000054957322036071755 0.0002648347104874047 0 -0.00002685460172742815 0 0
          -0.00005953928524305216 0.0002440444156860178 0 -0.000046379373159598413 0 0
          -0.00009394246369960003 0.00013816594620100144 0 0.00021648489909731312 0 0
          -0.0000740790030746652 0.0002680109993881504 0 0.00001741088232262315 0 0
          -0.0000460188118349932 0.00024869389260962003 0 -0.000005734266632047546 0 0
          -0.000056677006585464067 0.00023975062104865787 0 -0.00003295605114837758 0 0
          -0.000020310435352164448 -0.00010983531853177016 0 0.00024349074810548242 0 0
          -0.00004360344718500736 -0.000053454357529352566 0 0.0002285036857446322 0 0
          -0.00006144933074123083 -0.000011477935645252436 0 0.0002475335906893466 0 0
          -0.0000664056903475037 -0.000028122261287170068 0 0.0002292173005771564 0 0
          -0.00007147304518171058 0.00006740924282944236 0 0.00023553190817839266 0 0
          -0.00010452340634575797 0.00019886964086197062 0 0.00016620293947528533 0 0
          -0.00009663071478294961 0.00019863373972586529 0 0.0001685482423898491 0 0
          -0.00010425825368480659 0.0002833207396153077 0 0.0001304634771547443 0 0
          -0.00010348679393445772 0.0002799744514858604 0 0.00007802791793822276 0 0
          -0.00006939397634042035 0.00026697705075038377 0 0.000001719745440307275 0 0
          -0.00008492156647875253 0.0002645961284995827 0 0.000025697867428772018 0 0
          -0.00007351443632103399 0.00026441287232791515 0 0.000016867522009153683 0 0
          -0.00008464302396198918 0.00013008369546344616 0 0.00021156181473496794 0 0
          -0.00009242804440654202 0.00011111735812448882 0 0.00021834725761754262 0 0
          -0.0000661026284240724 -0.00001202888484918306 0 0.00022190426153044697 0 0
          -0.00009517037538058187 0.00005767681696032165 0 0.00019060722246303354 0 0
          -0.00004478831404899729 0.00022398645753897846 0 -0.0000628826378201984 0 0
          -0.00007877188918736097 0.0002587354692903662 0 -0.000027528989713671964 0 0
          -0.000019310864535048012 -0.00014417151723642037 0 0.00023689580844433235 0 0
          -0.00002309065018144942 -0.00011098911611649587 0 0.0002203977344105898 0 0
          -0.00004460789075576163 -0.00005420011776729967 0 0.00022337675355098226 0 0
          -0.00010074725085500448 0.00015849574098908902 0 0.0001342583619551417 0 0
          -0.00011415413590549215 0.000307736278073269 0 0.00008071541728615287 0 0
          -0.00011715677205811629 0.0002166620426255274 0 0.00023494724146361283 0 0
          -0.00007089703115178286 0.000035280211026521725 0 0.00021154050861242984 0 0
          -0.00009441318874330189 0.00012677791346810862 0 0.00022393349984632492 0 0
          -0.00004716403641958626 0.0002368102855591911 0 -0.00003480635702855217 0 0
          -0.00003291798896461915 -0.000060236064567505826 0 0.00021690675723625032 0 0
          -0.000046370280627613715 -0.00006672197826870155 0 0.00021287092889464015 0 0
          -0.00004710636906837196 0.00020044107559069987 0 -0.00007886678689414603 0 0
          -0.00008050803543717481 0.0002010329214781451 0 -0.00002643620223172869 0 0
          -0.000054483635311072616 0.00024396242632170002 0 -0.00010683678687634863 0 0
          -0.00005894043339893206 0.00005688880601364378 0 0.00025026459370135586 0 0
          -0.00003401075375978119 0.00019456246808478023 0 -0.00009741038558010832 0 0
          -0.000038346896967721616 0.00022465094497180123 0 -0.00011087339011550828 0 0
          -0.000031399552543665826 -0.00006757621690826497 0 0.00020600157180493422 0 0
          -0.00010059417139409953 0.00012068424847112605 0 0.00020913067548768426 0 0
          -0.00005189894156168608 0.00018182699439222238 0 -0.00006721177085323085 0 0
          -0.000021615556003271366 0.00011457553691294117 0 -0.00008892698304258315 0 0
          -0.00003342486502675728 0.000167892463248574 0 -0.00010567675042879188 0 0
          0 0.00013326066376520633 0 -0.0001425928448169089 0 0
          -0.0000016543968354313044 0.00014318438727260426 0 -0.00014304121108262398 0 0
          -0.000031469796411598256 0.00016301105860287588 0 -0.0001094525778454463 0 0
          0 0.00011056526756508694 0 -0.0001219469919633893 0 0
          -0.00002089833154827995 0.0000973946393868636 0 -0.0000863602686720295 0 0
          0.00004315842292084652 -0.00002531786552943671 0 -0.00009953831860914657 0 0
          -0.00006286364642000847 -0.00003384240472812175 0 -0.0006315210616261394 0 0
          0.00006214558808698666 -0.000015591996769925842 0 -0.00013938441807101725 0 0
          0.00006545649304219189 -0.000032828274832238935 0 -0.00006316576796905682 0 0
          -0.0003547833662754037 0.0001579802925617841 0 -0.0002068190097388889 0 0
          -0.0000035274795795727995 0.00008039950108585693 0 -0.00046084357067210403 0 0
          0.0000427270742233872 -0.00003356491633209509 0 -0.00018123304718250296 0 0
          0.00005286956190533311 4.3444916423586433e-7 0 -0.00021844432584439046 0 0
          0.00003978699446400332 -0.000015801692483091397 0 -0.00018283892103548995 0 0
          0.00004689458801480917 0.00002802639482712803 0 -0.00021902939476486222 0 0
          0.00006401524788595279 -0.00003266251347058137 0 -0.00009742343613958882 0 0
          0.00007954535195854595 -0.00004297478903574417 0 -0.00005662122755090451 0 0
          0.000039291753225638004 -0.00005901684084563298 0 -0.000005516875857646507 0 0
          0.000015814551895241592 -0.000039626142603143774 0 -0.00041427726841249373 0 0
          0.00003906053546589043 0.000024592416346976356 0 -0.00033660252255792757 0 0
          0.00001342247869762312 0.000024635598287943178 0 -0.00033128694415569706 0 0
          0.000028534025727412146 -0.000040217556636749224 0 -0.0002815165805570008 0 0
          0.000014530764437755861 3.543719100090187e-7 0 -0.0002790191552062782 0 0
          -0.00016395602319850718 0.00015870887941771289 0 -0.0000552652398442844 0 0
          -0.000196640244144127 0.0001145747537694957 0 0.00011292519293288345 0 0
          -0.00014984483956232645 0.00024788967638345386 0 0.0001710086288526317 0 0
          -0.00008359058487151464 0.00008022442224428643 0 -0.00042425986217867727 0 0
          -0.00004826018742185261 0.00009683868767339751 0 -0.00034322661179685826 0 0
          0.00009495141734321403 0.0002050770790761377 0 0.0007473975533673904 0 0
          -0.00011478730900552504 0.0001575020441367623 0 0.00015738000164303156 0 0
          -0.000028230091756372214 0.0002625736616106559 0 0.0005074324724178853 0 0
          -0.0002732937141246292 0.0001618296913925791 0 -0.00017327505930828883 0 0
          0.00004205157943298031 -0.00007066995769515298 0 0.00010628762109216252 0 0
          0.0000849092533408459 -0.00000771691777209059 0 0.00021224557566868222 0 0
          0.00008041455114581215 -0.000017241445920209916 0 -0.00013100141149903531 0 0
          0.00008300069089489355 0.0000019202838938570804 0 0.00023802916830558063 0 0
          0.00009820568774330378 0.00005167610870929901 0 0.0006095666748137385 0 0
          0.00007993098742719576 0.00005737491872853834 0 0.00031219227851094064 0 0
          0.00006500431046058911 -0.00007116027345129526 0 -0.000010306436515996817 0 0
          0.000004992604895856165 0.00008271925243598204 0 0.0005321056967305648 0 0
          -0.00008358045675674721 0.00012327950878032734 0 0.00020538907125458364 0 0
          0.00007376448741042803 0.00005720385412903444 0 0.0003099799675628113 0 0
          0.00007058978257058887 0.00011105019321935774 0 0.0003086248849300706 0 0
          0.000051296358107279654 0.000007783646753455397 0 0.00023156052178708816 0 0
          0.00005050050457061616 0.00013781845688128048 0 0.00024932929646333246 0 0
          0.00009564853703468735 0.00002952595788126332 0 0.0005477834542181878 0 0
          0.000060054480192416135 0.00009365296275336796 0 0.0002748999915915 0 0
          0.00001151083253926469 0.00002802639482712803 0 -0.0002790954447908101 0 0
          -0.00006998633665847298 0.00009683868767339923 0 -0.0003317554801581255 0 0
          0.00005487057978957469 -0.000017241445920209916 0 -0.00017531498656418515 0 0
          -0.0001445837160292526 0.0001618296913925791 0 -0.0001218244398835406 0 0
          -0.000023813377924231535 0.00009236032927599674 0 -0.0002503417102307434 0 0
          -0.000049390628822721595 0.00009235828178517396 0 -0.00025276470393683997 0 0
          0.00005384181289164202 0.00003150788834269287 0 -0.00020028181598119718 0 0
          0.000009103029806622337 0.000031966056445627495 0 -0.00022035258915447596 0 0
          -0.00017037617106086542 0.0001468525888510177 0 -0.00017692356416220073 0 0
          -0.00011043701654387707 0.00014737199146727293 0 -0.0001564667588933265 0 0
          0.00006224088849497188 -0.00004297478903574417 0 -0.000078754199775852 0 0
          0.00007688184015275249 -0.0000028774636597721226 0 -0.0001274236294073615 0 0
          0.00003567203560133356 -0.00000208758406257983 0 -0.00015036703092410268 0 0
          -0.00021736846622049592 0.00014643022514880706 0 0.00001887332678300862 0 0
          -0.00012283617246027553 0.0001145747537694957 0 0.00014622854973960278 0 0
          -0.00012394306107757188 0.00010329962382078783 0 0.00015413281488249652 0 0
          0.00006696037847614021 -0.000012535455793108266 0 -0.000053424462905307234 0 0
          -0.00010519520262039568 0.00012304640316924612 0 -0.00015694356887668544 0 0
          -0.00009492124337456483 0.0001233878342453863 0 -0.00013445721027948828 0 0
          -0.000016188171812770698 0.00008186389715814438 0 -0.00019154968890016698 0 0
          -0.00004174713406907048 0.00008173124807068884 0 -0.00017866850722463224 0 0
          -0.00013249251623377546 0.0001464799437729452 0 0.000029569984626179 0 0
          0.00003286140042072579 0.00004742151826022008 0 -0.00016762746081160334 0 0
          -0.000010064583997097375 0.00004751301717825653 0 -0.00016722497771654745 0 0
          -0.00016955519309373918 0.00013933060225871253 0 -0.00004334582819030949 0 0
          -0.00011692505907109817 0.00013991498157560513 0 -0.00002775238701601223 0 0
          0.000049549097716930104 0.000026077179660522785 0 -0.00010967227915719812 0 0
          0.00004385393715197533 -0.000012426053240705563 0 -0.0000759172659075666 0 0
          0.00005426528069387695 0.00002130121757462286 0 -0.000038053301435096634 0 0
          0.00005075858991767691 -0.00003868108888024045 0 -0.000011373994180462199 0 0
          -0.00007229058646933818 0.00009913133055219294 0 0.00022239209468962427 0 0
          -0.0001067607908656603 0.00010318560093749875 0 0.0001811045648387306 0 0
          -0.00008358045675674677 0.00010235965364577268 0 0.00020019368932147527 0 0
          0.00006500431046058911 -0.00003702014292680019 0 0.00001270079852806749 0 0
          -0.0001602634087738853 0.00012306351557860116 0 0.00009300671456977234 0 0
          -0.00011825957560479981 0.00012345888829883337 0 0.0001039058193896568 0 0
          -0.00012884049914546896 0.00012389403792354044 0 -0.00006177397973710199 0 0
          -0.0001106077602386229 0.00012474474206086174 0 -0.00003416009266707841 0 0
          -0.00007817292252529579 0.00010290914569761368 0 -0.00010414128757181822 0 0
          -0.00006369118949865618 0.00010297384066741551 0 -0.00007689563523908475 0 0
          -0.000026201124037800866 0.00008639400799126569 0 -0.00014274720259588314 0 0
          -0.000054914673848754664 0.0000858044375010318 0 -0.0001229309117443026 0 0
          0.00005674954877092347 -0.000006136633443972957 0 0.00001744286414603587 0 0
          0.00000511733170152932 0.00006493025628913872 0 -0.00012921480270543587 0 0
          0.000013218277492196492 0.00002612569176184463 0 -0.00011303903364417249 0 0
          0.00003123276728171664 0.00005048729661550136 0 -0.00007049055700152247 0 0
          -0.00006184362237445667 0.00007405113401039946 0 0.00021303931360777854 0 0
          -0.00010217224913273741 0.000082843072617249 0 0.00018324309004396188 0 0
          -0.00014731711756420414 0.00012007976517378581 0 0.00003824211578462144 0 0
          -0.00012257524834331443 0.00012078992471436698 0 0.000049647433500456303 0 0
          0.00002759252692825092 0.000021231898848584295 0 -0.00004200418438279869 0 0
          0.000035769203209473285 0.000044960755371924004 0 -0.000011925577267368323 0 0
          0.00004314228958366469 -0.000005989045822185102 0 -0.000002633985980286715 0 0
          0.00004349406445007184 0.000025082106237307195 0 0.000014122124607650246 0 0
          0.00004122746208304285 -0.000015189063009178258 0 0.00004748368942735554 0 0
          -0.00013008711404918858 0.00009454315592406867 0 0.00014119569847709582 0 0
          -0.00003824229956513026 0.00009820440662961297 0 0.0002632375723075869 0 0
          -0.00006320337371267535 0.00007307605490153584 0 0.00023527916973448078 0 0
          -0.00005272794055629877 0.000045984647834225276 0 0.00022839757854275318 0 0
          -0.00008723752415809149 0.00008269873037544686 0 0.00020088105453159897 0 0
          -0.00008451753988644197 0.0000555453428021371 0 0.00020868345203840655 0 0
          -0.00010646089720888296 0.00010737269970204424 0 -0.00004174132625364463 0 0
          -0.00004303227357625272 0.0000956166005038547 0 -0.00009954416518724997 0 0
          -0.000005247802000503659 0.00007081400632022125 0 -0.00009879083661659713 0 0
          -0.000006004118701846751 0.00005194500220517556 0 -0.0000781283050282988 0 0
          -0.000028230091756372214 0.00011132624457456383 0 0.0004846648752761581 0 0
          0.00004517823110160605 0.0000163943005456876 0 0.00007207507550810325 0 0
          0.00005044406618849583 -0.000013005171000006325 0 0.0000782217042763142 0 0
          0.00004205157943298031 -0.00004056572775745955 0 0.00016208112689396204 0 0
          0.000011659127224464702 0.00004920965784248983 0 -0.000005877499485648856 0 0
          -0.00010059266023744289 0.00009476666950667019 0 0.0001521169498598351 0 0
          -0.00004209029912136575 0.00009128886394807782 0 0.0003181114417867447 0 0
          -0.000027336576934597844 0.000047038586093571346 0 0.0002654930262025775 0 0
          0.00003941067690739746 0.00012197032840658003 0 0.000541236258612281 0 0
          -0.0000416957874455478 0.00019276680967783908 0 0.00034413275889800003 0 0
          0.00003453460082762346 0.00001922845531448971 0 0.000047569157814497166 0 0
          0.00003255079371975518 0.0000185079906665055 0 0.00009416874235195719 0 0
          0.000032997330483188656 -0.000007913166163248973 0 0.00009533786672517492 0 0
          0.00004559411593764559 -0.00005429543743270137 0 0.000049362506032768686 0 0
          -0.000030059752603092075 0.00004728002266844374 0 0.0002603628827487418 0 0
          -0.00001953883331912371 0.000011787936655271654 0 0.00025671811206071646 0 0
          -0.00005206102599163283 0.00004598160912598377 0 0.00024511903470070343 0 0
          -0.00004347992324268534 0.000016628526929343343 0 0.00024259374777035962 0 0
          -0.00007427163964824528 0.0000552832354150576 0 0.00022372917757400285 0 0
          -0.0001047729667859134 0.00006810325269519975 0 0.00017623603626356135 0 0
          -0.0000059260599736637954 0.00005492720070059565 0 0.0003009645264078775 0 0
          0.00009564853703468781 0.000048105339176318644 0 0.0006206947361600335 0 0
          -0.0001319303892781552 0.00010334427955336134 0 0.00007908269013924768 0 0
          0.00003950231737005812 0.00006985244590870278 0 0.0005225415517834515 0 0
          -0.00005498631268489309 0.00009652220922773763 0 -0.00007235613203272778 0 0
          -0.00008954672831934128 0.00006867963736286044 0 0.00019212270773731082 0 0
          0.00001177846728679676 0.00008112813046522952 0 -0.000025034227132989017 0 0
          0.000021348498466215488 0.00007794247764479102 0 0.000030722038920644006 0 0
          0.0000328896228675244 0.00004675657902447703 0 0.00010963739041082486 0 0
          0.00003787043350649737 0.0000203395252752922 0 0.00011976219818887415 0 0
          0.000022944266535377972 0.00003595384432399269 0 0.00013308043679641094 0 0
          0.000042114010717082383 -0.000004113834419779669 0 0.00015938964932678945 0 0
          -0.00006847886878340347 0.000028920423223105847 0 0.00022600022666697107 0 0
          0.0000053081278903249415 0.00004907987419470344 0 0.0003456971488212091 0 0
          0.000007856103752119621 0.000010296052131987012 0 0.0002941110387145692 0 0
          0.00008298421870982817 0.00005478015517011454 0 0.0005252431639209048 0 0
          -0.0000012010260783078524 0.0001052799163904173 0 0.0003754536646652066 0 0
          -0.000021765099312102574 0.000011858029045272271 0 0.00026570347128345166 0 0
          -0.00001091493764867398 -0.000022621594481947623 0 0.00026103933822824686 0 0
          -0.0000425567032464613 0.000017070723206067458 0 0.00025574635165892285 0 0
          -0.000032693721735578176 -0.00001053507670143762 0 0.00025029997793900977 0 0
          -0.00009157601904346809 0.00010732537641990403 0 -0.00003020365762655447 0 0
          -0.0000380943775585116 0.0001098619289068743 0 -0.00003697887894353992 0 0
          0.000051296358107279214 0.000049503838114564936 0 0.00025854171720926034 0 0
          -0.000001827620810784759 0.0000110119401271749 0 0.000279011311468767 0 0
          0.000010710960550672948 -0.000025920811268451305 0 0.0002714781708017492 0 0
          -0.0000046740938320359755 0.0000779237704411379 0 0.00002876295291241447 0 0
          0.000016189331919481263 0.00005326104970377037 0 0.00005383577296169456 0 0
          0.00002438781213921466 0.00004546246371335842 0 0.00009303536300217887 0 0
          0.000022436040961979712 0.000036764098172970515 0 0.00016395718132282064 0 0
          0.000019306489545983796 0.000054531014850946885 0 0.00012587643418005603 0 0
          0.00002550038934509069 -0.000007779117789213138 0 0.00012985635584789068 0 0
          -0.00008914251529233978 0.00003930603201339651 0 0.00020836886092964114 0 0
          -0.00011789780991833512 0.00007486838172907073 0 0.00014478108535946697 0 0
          -0.00006228082817067099 0.000028514264459293567 0 0.00024505544158410467 0 0
          0.00007841682658645465 0.000005419809421021958 0 0.0004919710638930039 0 0
          0.00002458411042275765 0.000004260612505865326 0 0.0003130615598321419 0 0
          0.00002194964735399447 0.000055791362884391286 0 0.0001434134167428193 0 0
          0.000007270513102794602 0.00007789796606154538 0 0.00015218903646202573 0 0
          0.000022907931338630744 0.00003968429561346655 0 0.00016642405262992953 0 0
          0.000006053889806452264 0.0000746169050657346 0 0.0001703869062718833 0 0
          -0.00008325908913336618 0.00010837098968972857 0 -0.000006039638635796156 0 0
          -0.0000605993254512837 0.00011154171711585763 0 -0.000014616944962555423 0 0
          -0.00005570625400035394 -8.002821987301149e-7 0 0.0002460817985235049 0 0
          -0.00008404379787171207 0.00010936975732765347 0 0.0000031258064109629705 0 0
          -0.000028943152211308252 0.00008369029167601839 0 -0.000044424948016119755 0 0
          -0.000004189644904153121 0.00010956604956277851 0 0.000008143584724349187 0 0
          0.0000038098991526114333 0.00010904705520158996 0 0.00006151124320958636 0 0
          0.0000203933920256698 0.00008733214016018887 0 0.00007858421963042152 0 0
          0.00003402141173094401 0.00005216816218422161 0 0.00006736564467453281 0 0
          0.000018014944052686076 0.0000396011879960797 0 0.00020269271117629974 0 0
          0.000016954268941906953 0.00007771585105347065 0 0.00013441326796659997 0 0
          -0.00007890939500210833 0.00003981029349298652 0 0.0002253195843103619 0 0
          -0.00009965229012087933 0.00010524449935333904 0 0.00009700269392941968 0 0
          0.000028615100999622575 0.000034929948391483785 0 0.00036955859793836394 0 0
          -0.00009609307094221085 0.00007586800444321759 0 0.0001632565429551667 0 0
          0.0001222313675347374 -0.000007435961713699642 0 0.0004926049558540188 0 0
          0.00004745209063878869 -2.3862563730862256e-7 0 0.0003456820399453951 0 0
          0.00004003371206035098 -0.00003016661125045117 0 0.0002978224421133907 0 0
          0.000005205214494742594 -0.000025833675734862442 0 0.00027734980296895053 0 0
          0.000018385022789057907 -0.00005298732204231294 0 0.00026402655525703235 0 0
          -0.000013307501243130931 -0.00002237807571219485 0 0.00026532252798120185 0 0
          -0.00000482641131214405 -0.00004993862118320494 0 0.0002622892110586454 0 0
          -0.000032395790768096787 -0.00000971059556962835 0 0.0002715119113211587 0 0
          -0.000021066796876202806 -0.00004405995222563769 0 0.0002659270347005439 0 0
          -0.00008087975198017134 0.00011726762652635413 0 0.00001360853619174467 0 0
          -0.00008349521720353104 0.00011895578139641921 0 0.000038941937463738655 0 0
          -0.000050767995307771704 0.00012489675617025938 0 0.000013082490941518319 0 0
          -0.00011113971648263069 0.00010146947006859326 0 0.00005139966388938979 0 0
          0.00002452408905250413 -0.00002958050797034588 0 0.0002858083823541423 0 0
          0.00003983224221142836 -0.00006517771970254107 0 0.0002716772758455285 0 0
          -0.000015117714371108527 0.00010923729606032771 0 0.00006323233979387347 0 0
          1.727353948701056e-7 0.0000894266527100198 0 0.00019866613763470058 0 0
          0.0000035138431451167858 0.00008737997715152783 0 0.00007809941008881139 0 0
          0.000006318902778550972 0.0001159058115422183 0 0.00009729489095774848 0 0
          0.000013493826026885616 0.00007778850718069812 0 0.00012468250788623362 0 0
          0.000011579125040812074 0.00006534659578655722 0 0.00020008560002812378 0 0
          0.000012759043222524075 0.00007397356562709265 0 0.00009878166748006084 0 0
          0.000013068654279136813 0.00010623429055574545 0 0.0001153304847805374 0 0
          0.000004637726010689111 0.00009233571969844039 0 0.00014429106531205628 0 0
          -0.00005153335715804802 -0.000001277607529085275 0 0.00026381511083309827 0 0
          0.000002028617735561327 0.00009300836362687805 0 0.00015335999716897808 0 0
          -0.000009905708605623554 0.00011865701518236436 0 0.00015558059678538283 0 0
          -0.00007366574288290536 0.000011669365117021428 0 0.00023264491270817223 0 0
          0.00005331010286411717 -0.00004410784218441665 0 0.0003062889977799461 0 0
          0.00000249137979045958 0.00008005874897225145 0 0.00016814616900510775 0 0
          -0.000011846072498533469 0.00011415145639370478 0 0.00016871443585783174 0 0
          -0.00010023944642592616 0.000048179713270993234 0 0.00018708923212461126 0 0
          -0.00008928612943614024 0.0000490792528699624 0 0.0002079271909591451 0 0
          0.00007561599337531388 0.00003927233225101552 0 0.0004616656934465143 0 0
          0.00008206645995060375 -0.0000196263240647759 0 0.00042938392485545966 0 0
          0.00012232420416519567 -0.000027490054813156424 0 0.0004745085814257304 0 0
          -5.021507050451124e-7 0.0000773877819287475 0 0.00019079741549228222 0 0
          -0.00001589550150041209 0.00011959937366782126 0 0.00018782002739774054 0 0
          -0.00012019830343419708 0.00008267163382562163 0 0.00011497715979181611 0 0
          0.00006225150218376285 -0.000020881382213254474 0 0.00035582057645930604 0 0
          -0.00012686597132531476 0.00009842955515460253 0 0.00004789264837828477 0 0
          -0.0000374518241260946 0.00010993506977843671 0 0.000006777337714615297 0 0
          -0.00009588962354067983 0.00010312791405715878 0 0.00007909191573744993 0 0
          -0.00006305404931358758 0.00012635356214985244 0 0.00003291970711661807 0 0
          -0.00009689914777411207 0.00009936105563578901 0 0.00007536159950040236 0 0
          0.000023643171459684392 0.00007454866837218216 0 0.00010735653920710994 0 0
          -0.00006915352461668188 0.00001246250149690729 0 0.00025141263808956666 0 0
          -0.000017303945676774716 0.00013380206918878242 0 0.00005125865660752961 0 0
          0.000060054480192416135 0.00005013393334908547 0 0.0002664854186338462 0 0
          0.000043263333659913266 -2.4038487238080275e-7 0 0.0002081570789745327 0 0
          -0.00000154709454888431 0.00011251211108396619 0 0.0001442250211532393 0 0
          0.000020271164454888817 0.00006692769405301427 0 0.00022248583124836557 0 0
          -0.000009970242226294349 0.00013530353885538374 0 0.00008641570685310844 0 0
          0.000009442943064966527 0.00010451165242615892 0 0.00013209583060437002 0 0
          -0.000006021585621432791 0.00009020845597716953 0 0.00020898028275886005 0 0
          0.000023472793377291105 -0.00006517962350229001 0 0.00027126097168397867 0 0
          0.00004325374173151937 -0.00009998601029969927 0 0.00026209769555313243 0 0
          -0.00007816715438027416 0.00012808942582166223 0 0.00005553949924982362 0 0
          -0.00008447161073753891 0.00012965939082074514 0 0.0000780717953268224 0 0
          -0.00010010665877064226 0.00010952335787800264 0 0.00007298844452507036 0 0
          -0.00009433845542165287 0.0001110675281979785 0 0.00009748449815540478 0 0
          -0.00004206410915240388 -0.00002924625611193734 0 0.00025915184593552627 0 0
          0.00010426247767653446 -0.00002803475528078813 0 0.0004003731595960915 0 0
          0.00010094122115474805 -0.0000755928077360692 0 0.00036660870206484434 0 0
          0.00008112681567410448 -0.00004963528187166936 0 0.00033076029370946835 0 0
          0.00010126596652863442 -0.00006231646065501042 0 0.00034854424914444076 0 0
          0.00006895274983808556 -0.00007442090893364228 0 0.00028318187387817644 0 0
          0.000002043947906841094 -0.00005773114547045261 0 0.0002824642732068556 0 0
          -0.000022583455004574014 -0.00004352680414004053 0 0.00027725815378100074 0 0
          -0.000012128008584644148 -0.00007467090742024028 0 0.0002720559977773666 0 0
          -0.00000711965483401935 0.0001159114556758872 0 0.00009708227600682723 0 0
          -0.0000070444324984543635 0.00014135193075922887 0 0.00010894879422305493 0 0
          0.00000170051801910427 0.00010619650862553515 0 0.00011086329540370201 0 0
          6.774242076127562e-7 0.00013558868202677172 0 0.00012270515822676098 0 0
          0.000004087525260421586 0.00010453847088884825 0 0.00012853877294019696 0 0
          -7.156536015510104e-7 0.00013125546357247624 0 0.00013335144689707564 0 0
          0.00005112452109762698 -0.00007415334017571613 0 0.0002781923447256651 0 0
          0.0000687009794170509 -0.00010923093902977504 0 0.00025900130845332795 0 0
          -0.00005404752149931855 0.00014311529232632209 0 0.00006035197391801822 0 0
          -0.0001115331705541469 0.00008615527579073582 0 0.00011472130002972017 0 0
          -3.7654458231528923e-7 0.0001125263806847896 0 0.00014230240463532684 0 0
          -0.000007798321819867896 0.0001384162313624905 0 0.00014314923583086782 0 0
          -0.000025065331668153772 0.00013597059877108747 0 0.00009575974878309483 0 0
          -0.000023704263271638253 0.00014048996730937988 0 0.00020441186447780877 0 0
          -0.000006011136082512657 0.00012649910315020753 0 0.00022540313941741668 0 0
          4.058997847128636e-7 0.00012602560771846744 0 0.00021935002254262976 0 0
          -0.000011787702239502956 0.00012912448422789345 0 0.00014958470109638507 0 0
          0.00002524128423209897 0.00011591195357888578 0 0.0002556200845411751 0 0
          -0.000021014203629377004 0.00011586014104840315 0 0.00017743560555927382 0 0
          -0.00002846181424649685 0.0001426058377126515 0 0.00017194677693469418 0 0
          -0.000020654570187878625 0.00011938261133607499 0 0.00015931385113580367 0 0
          -0.00003313102052090598 0.0001403258686043631 0 0.00016539419509050877 0 0
          -0.00008692118136510393 0.000022283953868987814 0 0.00021875235482248564 0 0
          -0.00008073440240111206 0.000023197693719467614 0 0.0002400606321841207 0 0
          -0.00010963172275546735 0.00006017420510337143 0 0.00016774109031544382 0 0
          -0.00006111884678644671 -0.000016870453674532396 0 0.00025485278643577215 0 0
          -0.000026952048608106908 0.00011970628753561066 0 0.0001870551598810037 0 0
          -0.000039296582548951865 0.0001669368980025069 0 0.00017610102980444766 0 0
          -0.000018993540661888875 0.0001290515076108993 0 0.00014805677305124382 0 0
          -0.00002755326516042772 0.00015204179961907267 0 0.0001467076611146945 0 0
          -0.00004084423537763834 -0.000029861460913756466 0 0.000280271313789337 0 0
          0.00007708892174701834 -0.00009001565416152414 0 0.0002838750503631547 0 0
          -0.00006491251110420852 0.00014475112189591755 0 0.00008282995037626685 0 0
          -0.00009908765755530825 0.00008368919039230573 0 0.00013531592268169407 0 0
          -0.000043094218792180585 0.00013409359805474291 0 0.000052677868764213235 0 0
          -0.00003143210061332936 0.0001613660347081964 0 0.00008990661972438536 0 0
          -0.00009881873338125879 0.0000875757096000938 0 0.0001384216230530148 0 0
          -0.00002207144425721069 0.00014907273137041484 0 0.00014196705990260653 0 0
          -0.000030149782627314178 -0.00006072850064829225 0 0.00027369432343548683 0 0
          -0.000022360259812236635 0.00016235744411316954 0 0.00011379884852859049 0 0
          -0.00003126818562333536 0.00013935341010554007 0 0.00018821447943200877 0 0
          -0.00009409745715721206 0.00011897129066562769 0 0.00010123531874412992 0 0
          -0.00008931469497054146 0.00012060173645931098 0 0.00012618853522062157 0 0
          -0.0001055040776766601 0.00009405585219244941 0 0.0001270472592511289 0 0
          -0.00010043261743373576 0.00009540484457660307 0 0.00014880000603190846 0 0
          0.00015763462933910899 -0.00007299184331460945 0 0.0003927642863599328 0 0
          -0.000003743385951517769 0.00013136849162213252 0 0.00013148472198320222 0 0
          -0.000010914214027478789 0.00015214494849461824 0 0.00013954027832780228 0 0
          -0.00007804196835733035 0.00014773676735849693 0 0.00010153872661115707 0 0
          -0.00007870810718933513 0.00014818809744431404 0 0.00010799138232913191 0 0
          -0.000009277298577119002 0.00013505919219778024 0 0.00011688969747594173 0 0
          -0.000009980697841771113 0.0001542743239427392 0 0.00011940382452607775 0 0
          0.000051168426162766875 -0.00010914105378479529 0 0.0002625961304841166 0 0
          0.00007070091393525628 -0.00014562598465577437 0 0.00024030574272080002 0 0
          0.00003062978827662366 -0.00010113470435547988 0 0.0002737378265961519 0 0
          -0.000009360494007254949 0.00013862531621365755 0 0.00013871164560492555 0 0
          -0.000016219067577422867 0.0001624264487501883 0 0.00013878202880085195 0 0
          -0.00005850928522027382 -0.000016295500041172303 0 0.00027143796919563165 0 0
          -0.00001591397564459007 0.00014147594778989562 0 0.00012076302737513411 0 0
          -0.00001857718318050254 0.0001733231126373738 0 0.00012965932639788486 0 0
          0.00010777351579705253 -0.00009165986219418861 0 0.00030357320144458325 0 0
          0.0000974663868127901 -0.00012160492541642663 0 0.000257084700195362 0 0
          -0.000015298493894428788 0.0001490384104287112 0 0.00014652028899889212 0 0
          -0.000027296319186833544 0.00016899244944470603 0 0.0001358007411177511 0 0
          -0.000026934999957732228 0.00017880160632944425 0 0.00021562981056416739 0 0
          0.000002583857665073685 0.00018543979072343456 0 0.0002434926897607085 0 0
          0.000011051576536350981 -0.00008825007019794707 0 0.00027886148044182905 0 0
          -0.000009432830132054975 -0.00007637755508082568 0 0.00029116562857404743 0 0
          0.000005917016457877708 -0.00010685194372568856 0 0.00027439866231008646 0 0
          0.00007366632677385168 -0.00012145571709919805 0 0.00025494021809083873 0 0
          0.00009447894516526867 -0.00015694658019509535 0 0.00022920412285221256 0 0
          -0.00005192188981185844 0.00016225575769605958 0 0.00008951424531189922 0 0
          -0.0001064039630518374 0.00006424052251992503 0 0.00016514382930927617 0 0
          -0.00007530707758457108 -0.000003795866966819529 0 0.00024388476834458548 0 0
          -0.00006990515575318421 -0.00000308742197510005 0 0.0002623306431351951 0 0
          -0.00009596644598768389 0.00003258043454987952 0 0.0002076063955287347 0 0
          -0.00008643901325379889 0.00003416712632997923 0 0.00022562887571520485 0 0
          -0.00009365037255889977 0.00006136955433690052 0 0.00018605385859451167 0 0
          -0.00004692779638870714 0.00014674618060167934 0 0.00015107232110074786 0 0
          -0.00005765842631744243 0.00017527101409494858 0 0.00014838171918587812 0 0
          -0.00003424714400554105 0.0001620830803885702 0 0.00010878628242940415 0 0
          -0.000049959405323901626 0.00019038303264560076 0 0.00018474293065081366 0 0
          -0.000028787906260589306 0.0001672785553608301 0 0.0001408019304428639 0 0
          -0.00005771444605648508 0.00016816671691974934 0 0.0001584307043433869 0 0
          -0.000059065219067135706 0.0001803068737050344 0 0.00015677248131506605 0 0
          -0.000041719384000376376 0.00016687947450200625 0 0.00013437012504829786 0 0
          -0.000045819961857646804 0.00019215602776802976 0 0.00012459282269374579 0 0
          -0.00003673114385509594 0.0001523308723213188 0 0.00014742235508520692 0 0
          0.00005050050457061616 0.00011619220381024059 0 0.00026937658591636815 0 0
          -0.000030521633216534465 -0.00006128437681372949 0 0.0002908193932836999 0 0
          -0.0000478209921756826 -0.000045439122735390844 0 0.0002703750047942374 0 0
          0.0000979139774243071 -0.00013876548701482203 0 0.0002453804725987029 0 0
          -0.00009589962500967852 0.00006548398513697082 0 0.0001858531575184435 0 0
          -0.0000999641404833655 0.00010632623519923542 0 0.00015424988043007994 0 0
          -0.0000946001858121966 0.00010654436599002532 0 0.00015797745824653854 0 0
          -0.00008562693599983601 0.00012013019674366992 0 0.00013636485728068257 0 0
          -0.00009734859568880048 0.0001170207079284741 0 0.00015329389267397764 0 0
          -0.000046282256399003186 0.00018598211486204553 0 0.00011288619225625104 0 0
          -0.000042982156619149076 0.00018436321288417155 0 0.0001245189140392688 0 0
          -0.000034976570181367655 0.00019086154035607587 0 0.00012048739111567678 0 0
          0.000012582503931323776 -0.0000850203586582293 0 0.000265173946019052 0 0
          -0.00010470781806465127 0.00007144590530737318 0 0.00016966984453328218 0 0
          -0.00009432535948722786 0.00007252955506023074 0 0.00018767824607705542 0 0
          -0.00007845358865955581 0.0001566309462794303 0 0.00011112405006583599 0 0
          -0.00005740724022652029 0.000156685520919284 0 0.00010476486799875564 0 0
          0.00015056819991289864 -0.00007326145652625324 0 0.0004415118407650921 0 0
          0.00015672060232683192 -0.00012540264503659287 0 0.0003539618991256013 0 0
          -0.00004831837494526893 -0.00004481732382538719 0 0.0002853308106694185 0 0
          0.000050238788888113664 -0.00013101641376056514 0 0.00025995863321575416 0 0
          0.00007349900266439665 -0.00015684126211470539 0 0.00023302552703351978 0 0
          0.00009443079942573679 -0.00018996698770439935 0 0.00020605003803901112 0 0
          0.00004971424682710089 -0.00014433963429335135 0 0.0002546361825189878 0 0
          0.00007475158081707474 -0.00017868766077737495 0 0.00023591393432101897 0 0
          -0.00002596327348121266 0.0001733155669036651 0 0.00012152299628121602 0 0
          -0.00003045478726600408 0.00019908730145312253 0 0.0001236695052973307 0 0
          -0.000018818324649564808 0.00016763922928044643 0 0.00013479051547531974 0 0
          -0.000016181252404450733 0.00016815746369091124 0 0.00013785010608469871 0 0
          -0.000018117607316536175 -0.00009170529947752403 0 0.0002811336329219502 0 0
          0.00011955343312790648 -0.00016816445241608956 0 0.0002149234099857378 0 0
          -0.00003083693276444079 0.0001842926452557216 0 0.00013390114426746567 0 0
          -0.000046678476712725795 0.00020533933632441636 0 0.00011799868950906575 0 0
          0.00013241280515591833 -0.0001390526347048725 0 0.00024327713928432715 0 0
          0.000023814527653197254 -0.00012922341963437275 0 0.00028698650680548205 0 0
          -0.0000029538113329199926 -0.00010602573522718832 0 0.00029272115062186114 0 0
          0.000012146944842235389 -0.00014112585018978639 0 0.00027985250130942586 0 0
          0.0000929024483145037 -0.00016819767934821237 0 0.0002179715885282594 0 0
          0.000109664824855934 -0.00019777644836272952 0 0.00019884112112939753 0 0
          -0.00008300317653934174 0.000007031138535729986 0 0.0002351960267762118 0 0
          -0.00008056118393737883 0.000007819082700992536 0 0.00024739489637370005 0 0
          -0.00009576980338758572 0.00004064987024725731 0 0.00020117552261562636 0 0
          -0.00009690077258664139 0.0000416324744296504 0 0.00021008020353963309 0 0
          0.000020782764348496638 -0.00012080326969298762 0 0.0002668039366235205 0 0
          -0.00006260951666075182 -0.000031026362366279314 0 0.00026239194377395076 0 0
          -0.000059214224732101776 -0.000030390227861774817 0 0.0002783190222728694 0 0
          -0.00006546452386903913 0.00018091113222191372 0 0.00012124706578441307 0 0
          -0.00004229032530902901 0.00019108265449584857 0 0.0001234351148112467 0 0
          -0.00005919433172044434 0.00018675455619808002 0 0.00012400063768680438 0 0
          -0.0000464536131398064 0.000203741009264115 0 0.00011753512737256344 0 0
          -0.00006332109600270692 0.00020288807981734373 0 0.00010457112183583451 0 0
          -0.00006277772995756301 0.00022577683488434353 0 0.00008906864051472056 0 0
          -0.00006142858370523506 0.00018990191966265237 0 0.00010674066767728103 0 0
          -0.000035696217354149644 -0.00007502463567256659 0 0.00028173994062676596 0 0
          0.00017445258582208915 -0.00012105419973044984 0 0.00030159080524182625 0 0
          -0.00001984817268543327 -0.00009226172100829081 0 0.00029765395644161915 0 0
          0.00011300225397596232 -0.00012074019033316572 0 0.00028606062935463935 0 0
          -0.00009665344747747003 0.00006787537084518595 0 0.00018099456922977234 0 0
          -0.00009279602092743991 0.00006732277068614732 0 0.0001998472464481685 0 0
          -0.00005724062702178188 0.00020549527218309115 0 0.00013813612914171606 0 0
          -0.00006387419814447544 0.00020525001915957673 0 0.00013441465665219265 0 0
          -0.00008613647120237454 0.0002077963385916236 0 0.00009257304761394844 0 0
          -0.00006856853721641119 0.00018098897342030528 0 0.0001460904545033041 0 0
          -0.00006390880429052101 0.0002203217663416866 0 0.00009506748294331737 0 0
          -0.00004557057324465529 0.00021327916915283516 0 0.00012657130042450083 0 0
          0.00007903796797520996 -0.000195214187346733 0 0.00022982183426200606 0 0
          0.00009886387491532985 -0.00023468608586151403 0 0.0001938969259437468 0 0
          -0.000050967959728540294 0.00018298211725058505 0 0.00013753426161862122 0 0
          -0.000006058589027762194 -0.00012415783900922772 0 0.00028527422277378224 0 0
          -0.000034957512160983285 0.00019908996404158664 0 0.00012295772800775158 0 0
          -0.000042839228839111534 0.00022376766686233287 0 0.00011725947982031649 0 0
          -0.000026686926178850134 0.00018570199235751203 0 0.00013079812979660673 0 0
          -0.0000337861403677097 0.00020564854251481772 0 0.00012828377267715902 0 0
          -0.00004788639595296682 0.00022021949216000916 0 0.0001086769151855298 0 0
          -0.00006672767253932874 0.00023953523118933967 0 0.00008520798519904551 0 0
          -0.0000375764573888115 -0.00007459431999096153 0 0.0002932497758447768 0 0
          0.000028812320243822584 -0.00016027525430299802 0 0.0002844255232743322 0 0
          0.000007614651460574476 -0.00014060362331180413 0 0.00029260724656974104 0 0
          0.00002411600674771561 -0.00017586134049089094 0 0.0002766547137640273 0 0
          -0.00007116503306657849 -0.000017385799893241023 0 0.00025410060200189023 0 0
          -0.00006732658151677195 -0.000016611966353701575 0 0.0002625472871315737 0 0
          -0.00008634232305440042 0.000026253239343545797 0 0.0002219098457353574 0 0
          -0.000050304452059220825 -0.00005928818207511953 0 0.00027510180751183944 0 0
          -0.00004988308863773247 -0.000058807330018372365 0 0.0002875807977000533 0 0
          0.000049634868513665486 -0.0001818258600830825 0 0.0002582199332283172 0 0
          -0.00007020281484642254 0.00020706367558520226 0 0.00010969145795952412 0 0
          -0.0000668354066002911 0.00021578362548453801 0 0.00009312974784853 0 0
          -0.00006209437948606988 0.0002377239017926254 0 0.00008109217449320965 0 0
          -0.00004955201862197094 0.0002130892730696678 0 0.00012337650102958503 0 0
          -0.00008489228243213978 0.00023645485549378826 0 0.00006196971305312202 0 0
          -0.00007689542213290101 0.00025782396596581245 0 0.00003579797659729561 0 0
          -0.00008192236401424139 0.00022204563543345453 0 0.00006061384402556802 0 0
          -0.00008833067868529326 0.0002356771892073413 0 0.00005973224179487411 0 0
          -0.00000919665096304074 -0.00012461807276883317 0 0.00029818305317988307 0 0
          -0.00002289261221062203 -0.00010506918913374356 0 0.0002864167246529605 0 0
          0.00010440025450696703 -0.0002132672138488231 0 0.00017759012505145567 0 0
          -0.00008942225997088003 0.000041928876241613226 0 0.00021504751879763192 0 0
          -0.00009353689499376697 0.00009033151873141711 0 0.0002049883162697114 0 0
          -0.00008065659773212467 0.0002060298297808039 0 0.00015748692181815791 0 0
          -0.00006583938183297597 0.00022873148026493007 0 0.0001394295666606979 0 0
          -0.00006981268876165452 0.00022884857745348268 0 0.00014098394867013406 0 0
          -0.000034582734317824986 0.00021506741387385987 0 0.00012255898613759605 0 0
          -0.00003223192424235883 0.00019142308636834648 0 0.00013366627431897547 0 0
          -0.000022952589551434276 0.00018448027522810582 0 0.00012638467380116948 0 0
          -0.00005194187562358309 0.00022436223668419707 0 0.0001107130897654094 0 0
          -0.00009516973991162804 0.0002141794695461416 0 0.00007896434567484481 0 0
          -0.00008301464633460169 0.00023012149387998228 0 0.00004977469796919398 0 0
          -0.00010100293979012223 0.00021072079155498097 0 0.00006062296713434744 0 0
          -0.00008268665860431421 0.00025389937784747426 0 0.0000527177147279542 0 0
          -0.00005570558579828429 0.0002361568825378249 0 0.0001206886001383189 0 0
          -0.000025861167120938357 0.0001907624647612309 0 0.0001275406196387574 0 0
          0.00003926928713668691 -0.00015501946294253224 0 0.0002570909702806575 0 0
          0.00004579369257958985 -0.00019344838393490005 0 0.0002585680291508415 0 0
          -0.000026443753409609565 -0.00010476849909075711 0 0.0002936789476748594 0 0
          -0.000042482493970935706 0.00022379727518538774 0 0.00011221411277338866 0 0
          -0.00005300122672618622 0.00024211274580639754 0 0.000097869853384078 0 0
          -0.000036430599609208695 0.00021453854888190543 0 0.00011780277531513452 0 0
          -0.00004772354980716838 0.00023858483786074218 0 0.00010155197441844268 0 0
          -0.00004904595544418357 0.00023848087610737215 0 0.00009756662067379546 0 0
          -0.00006962341024678391 0.0002545040597147552 0 0.00007207316455832115 0 0
          -0.00006224323920654096 0.0002537799017773172 0 0.0000685912941582221 0 0
          -0.00008371268476333263 0.00027111747225794583 0 0.000039269337575291484 0 0
          0.00009628408921918856 -0.0002453942156251681 0 0.00018322856388880017 0 0
          0.00006734788541950782 -0.00022851323360255978 0 0.00020942961109919405 0 0
          -0.00005910495854064456 -0.000043628009386335875 0 0.00027116564742223824 0 0
          -0.00005603824465899701 -0.000043231522915470385 0 0.00027590268857439793 0 0
          -0.00007540492702031853 5.067462772868729e-7 0 0.0002430515912673345 0 0
          0.000006036565546906554 -0.0001561014678858278 0 0.000283040349650612 0 0
          0.000036369418829781624 -0.00019493404438135613 0 0.0002756031308657294 0 0
          0.00005564342729132798 -0.00022992669532187135 0 0.0002493096390144863 0 0
          0.000017374104580019137 -0.0001754993662213487 0 0.0002854493118287251 0 0
          0.000035046174017112016 -0.00020883908317854364 0 0.000266248573092859 0 0
          -0.00003817513801280533 -0.00008690996081706006 0 0.0002782910738437644 0 0
          -0.00003771984976658259 -0.0000866225318283757 0 0.0002855538244693825 0 0
          -0.0000844971796431215 0.0001809300292521755 0 0.00013702379661034833 0 0
          -0.00008412841602804095 0.00020602377702146201 0 0.00015719098832874716 0 0
          -0.000038513392717156756 0.00022465804230909755 0 0.0001051337647814536 0 0
          -0.000034734660863502183 0.00021456547496725206 0 0.0001231617406472086 0 0
          -0.00004313584520985721 0.00023551590237528598 0 0.00009775143636133723 0 0
          -0.00003915663618816491 0.0002123107458429459 0 0.00011193415689043405 0 0
          -0.00009157408970649112 0.00023308077535923042 0 0.00003075418190928952 0 0
          -0.00008247080878710268 0.00021184972068133886 0 0.00008319753360230592 0 0
          -0.00005568203876013772 0.00023598104010986293 0 0.00011797003699965322 0 0
          -0.00007544870581140985 0.0002705462145289482 0 0.00003075466156912741 0 0
          -0.00010048678203066905 0.00026893348517023586 0 0.000006740629650528636 0 0
          -0.00008721677148005485 0.0002853019732054227 0 -0.00002446601325542313 0 0
          -0.00010032170627689545 0.0002542159834835213 0 0.0000076222994548555395 0 0
          -0.00009095196792609727 0.000268160094410493 0 -0.000015238906148598961 0 0
          0.00005611009830872248 -0.00021371988772369253 0 0.00025520444707440937 0 0
          0.00007308278990709163 -0.0002115730843907562 0 0.00023046751011304446 0 0
          0.0000750633988704421 -0.00024799922068146577 0 0.00021801109981413205 0 0
          -0.000010562119451937231 -0.00013431657372835193 0 0.00028433228557543145 0 0
          -0.00008479968220685317 0.00022975888144336236 0 0.000167628239995281 0 0
          -0.00008477477981807873 0.00023039174394592405 0 0.00018072319783929764 0 0
          -0.00007381076200773328 0.0002488290964898185 0 0.0001387086802719311 0 0
          -0.00007360301596658894 0.0002489313503468288 0 0.00014030381412613837 0 0
          0.000001240922127790367 -0.000156379187732125 0 0.0002907854415738505 0 0
          -0.00008309474343404601 0.000027146708828619092 0 0.00022743989342233835 0 0
          -0.00008172683984086835 0.00004155929686833459 0 0.00022550535318153017 0 0
          -0.0000874979731277422 0.00008941690632785368 0 0.00020034134462019397 0 0
          -0.00008863337196367478 0.00012257491781534377 0 0.000167880541739319 0 0
          -0.00008585553277794397 0.00016319540888430238 0 0.0001851876684081905 0 0
          -0.00006411214516361695 0.0002539407973419026 0 0.0001079921523342473 0 0
          -0.00005556975397247744 0.00024040575193671007 0 0.00009572788847187818 0 0
          -0.00009802682368974927 0.0002857179223688924 0 -0.0000017718137013399437 0 0
          -0.00011313493876693992 0.00024207518081172433 0 0.000005489162837334126 0 0
          0.00012875408633688883 -0.0002476933714914833 0 0.00015774835371730995 0 0
          0.00008835568176675127 -0.00025958706974111624 0 0.00022086097049903397 0 0
          -0.00004747675645253479 0.00024213560959634181 0 0.00009453450153215185 0 0
          -0.00005953063404503752 0.00025392350224601873 0 0.00007385386174500242 0 0
          -0.00006265911321614635 0.0002700442902015134 0 0.00005126561958674627 0 0
          -0.00008402544271694128 0.0002841153212082095 0 0.000021865713464672577 0 0
          -0.00004352905594014059 0.00023811715621708753 0 0.00009037377003869853 0 0
          -0.00005651659515624362 0.00024928216624285344 0 0.00006602355160741274 0 0
          -0.00007376871177245975 0.00028559053216492634 0 0.000015140248208551444 0 0
          -0.00009649393712798276 0.0002996467524383464 0 -0.000018268051439025018 0 0
          -0.00004609230784353444 -0.0000759881869017414 0 0.0002690707706765074 0 0
          -0.000044448631761045433 -0.00007564045832265937 0 0.00027734847448099124 0 0
          -0.00006897403011761329 -0.000023652092780156262 0 0.0002603920725298299 0 0
          0.000017179584306106096 -0.0001860868088198945 0 0.00027291960161877806 0 0
          -0.000015245722761660031 -0.00013425322997235936 0 0.00028581223265959025 0 0
          -0.00005147606095254331 0.00025421171402153776 0 0.00007375030195225464 0 0
          -0.00004379659099900844 0.00023620176489675478 0 0.00009921636193554971 0 0
          -0.000056762511972168405 0.0002551426535669691 0 0.00007018221449296068 0 0
          0.00004218772053805732 -0.00023003642367803128 0 0.00025746787707650533 0 0
          0.000025969201723254665 -0.00020872031609196266 0 0.00026909358926122893 0 0
          -0.000025697364147290018 -0.00011355025579329672 0 0.00027486430773436137 0 0
          -0.000029002901818996464 -0.00011332843185482872 0 0.0002804439426166554 0 0
          -0.00008257020015760158 -2.756290544258383e-7 0 0.00023787477862620914 0 0
          -0.00008355898238166502 0.000046136416577336205 0 0.00022829054115092645 0 0
          -0.00008901488410639172 0.00012197035588825623 0 0.0002070988610180358 0 0
          0.00006019700146513039 -0.0002496133142817739 0 0.00023808328196702264 0 0
          -0.00005935334252419741 0.0002536795764959977 0 0.00010425904870930157 0 0
          -0.00008433978352853817 0.0003004692584113941 0 -0.00003259455665542699 0 0
          -0.00011448733772299424 0.0002988113573249721 0 -0.0000576025886647462 0 0
          -0.0000924692615524833 0.00031595729281563563 0 -0.00010297120513021802 0 0
          -0.00011934911803618774 0.00028170834115690983 0 -0.000053787916002641704 0 0
          -0.00009806804377312939 0.00029766323287849306 0 -0.00009655376726847722 0 0
          -0.00012696091447746133 0.00026787190877593616 0 -0.000058533629748338265 0 0
          -0.00008868486717750939 0.0002376016171564666 0 0.00017430290009197511 0 0
          -0.00007936215668440647 0.0002624845022654947 0 0.00013052931104497815 0 0
          0.000010373342829133155 -0.00018612306119194288 0 0.00027412948146950084 0 0
          -0.00008679206568194738 0.0001785787646206207 0 0.0002121547410666696 0 0
          -0.0000866679363088751 0.00015010156154117004 0 0.0001786408677935165 0 0
          0.0000012222484439823833 -0.00016072581460536235 0 0.00027370891421639524 0 0
          -0.00009503949258850056 0.00012261300913702836 0 0.00020995293781940507 0 0
          -0.00010783522165941752 0.00031457172644521283 0 -0.00006737274340852149 0 0
          -0.00007006599948303709 0.0002676137358205868 0 0.00008747751705008057 0 0
          -0.0000627070421184354 0.0002834330986294832 0 0.000025814718270020007 0 0
          -0.00004727929186829634 0.0002492968128843681 0 0.00006370668098332578 0 0
          -0.0000619867530932517 0.0002515187780842438 0 0.00003221033534774525 0 0
          -0.00007098380643133701 0.00029854058288523305 0 -0.000006365037105333274 0 0
          -0.00009268249560428064 0.00030478179019759286 0 -0.000041527939732343994 0 0
          -0.00004781261299310999 0.000251762821612487 0 0.00005426667031048644 0 0
          -0.00006705229710784559 0.0002588725688249049 0 0.000020372409595171745 0 0
          -0.000035665728707812155 -0.00010157336339317206 0 0.00026878764968419895 0 0
          -0.00004964986418979446 -0.00005802578640357827 0 0.00026817694702205156 0 0
          -0.00005098133924450149 0.0002539357877936869 0 0.00007213912973611793 0 0
          -0.00006491754293975018 0.00026177624265983604 0 0.00004555900291179307 0 0
          -0.0000794699502524647 0.0003144565789053751 0 -0.00005212839766377746 0 0
          -0.00010124393279136942 0.00032136692771105827 0 -0.00008775864082258408 0 0
          -0.00005282589845914209 0.00026568555823144077 0 0.00005635583218098569 0 0
          -0.0000044024144221017545 -0.00016086406712283928 0 0.0002700141957494438 0 0
          -0.000014923462144639549 -0.00013311254779123545 0 0.0002621213198231413 0 0
          -0.00009348365055115797 0.00007616615046409075 0 0.00023434647201684311 0 0
          -0.0000974698896289475 0.0002449920097627077 0 -0.000027219131969302793 0 0
          -0.0001015957818507418 0.00027409368301162555 0 -0.00009648260324768526 0 0
          -0.0000923306883792547 0.000045990697702284176 0 0.00022379032260512883 0 0
          -0.00008692241264608518 0.00033058402010996044 0 -0.0001102890729363869 0 0
          -0.00008925573873690465 0.00014749433048374017 0 0.000172099837446726 0 0
          -0.00012757673562748114 0.0002908900161601671 0 -0.00013890365439734166 0 0
          -0.00010271408818610678 0.0002979463351280285 0 -0.00017006695891952014 0 0
          -0.00012755616023970364 0.0003125867513997663 0 -0.0001311860416730692 0 0
          -0.00009578462054678486 0.0003298736482449104 0 -0.00019130783650782713 0 0
          -0.00011913439988055783 0.0003289204181946264 0 -0.00013552419168916567 0 0
          -0.00008824612316966505 0.0003472408709967097 0 -0.00019549945981590217 0 0
          -0.00007032837810149047 0.00026559395298724137 0 0.00005234497095899253 0 0
          -0.00007642720169898114 0.0002874068923917573 0 0.00000787497970858482 0 0
          -0.000050364495219292874 0.000251305336302121 0 0.00003782341882273063 0 0
          -0.00006153601954018013 0.0002624832676098974 0 0.00001850017202202262 0 0
          -0.00006776369584453258 0.00030325641220233597 0 -0.00003218048926347131 0 0
          -0.00008295034578334004 0.00030310229371431445 0 -0.00005584422158051467 0 0
          -0.0000471539888427506 0.0002595192249428119 0 0.0000089407583305233 0 0
          -0.00005868400905585051 0.00027076818533170474 0 0.000007572515983425706 0 0
          -0.00007386064884854014 0.00032038545242266104 0 -0.00007764028537918374 0 0
          -0.00008979662366302244 0.00032315901612235177 0 -0.00010473971773762399 0 0
          -0.00010906822150990453 0.0003434897065245732 0 -0.0001432829507900796 0 0
          -0.000058526365277004473 0.00027279734246025674 0 -0.0000015728755974157844 0 0
          -0.00006201581570096728 -0.000025926030051709062 0 0.00024997146111704666 0 0
          -0.00007355775022207058 0.0000039846893014157045 0 0.00024611743889947727 0 0
          -0.00007631326949219261 0.00034344571895551 0 -0.0001376240924845462 0 0
          -0.00009423443357393776 0.0003432177698833667 0 -0.0001702151723664333 0 0
          -0.00012402329990220373 0.0003441673222932271 0 -0.00022177621791858397 0 0
          -0.00009764356218079276 0.00036278561302449 0 -0.00027469327029246317 0 0
          -0.00014387723943120028 0.00032442393376423695 0 -0.00022876166443902936 0 0
          -0.000095684894686811 0.0003343048791151647 0 -0.0003058800197304494 0 0
          -0.00006763347693326198 0.0002814205437680511 0 0.000016917375932860715 0 0
          -0.00008083489460509454 0.00036234152758012745 0 -0.00019945165667594822 0 0
          -0.00011158083648375394 0.00036082741086106574 0 -0.00022252426661842936 0 0
          -0.00006144286329129342 0.000383069090094565 0 -0.0003150776407636693 0 0
          -0.00006683041718345764 0.0003383146247576997 0 -0.00015432140220375168 0 0
          -0.00004990110767847179 0.0003158785773950851 0 -0.00017860940343357974 0 0
          -0.00006306631122993112 0.0003212657718366013 0 -0.00009804767864238981 0 0
          -0.0000664327837828221 0.0002921479686221383 0 -0.00011790915949658141 0 0
          -0.0001018933804746009 0.000378853137454525 0 -0.00022848544864288218 0 0
          -0.00005842935345661625 0.0003789794164943558 0 -0.00024575718666422557 0 0
          -0.00005895365840797295 0.0003666755921192855 0 -0.00025163960425769434 0 0
          -0.00005665947939703143 0.0002994791260697103 0 -0.00008415116815217721 0 0
          -0.00011578370417785348 0.00037794472743504684 0 -0.0003507854746375304 0 0
          -0.000024153025183414338 0.00042439144758082487 0 -0.00052768938996067 0 0
          -0.0000467566499701837 0.00042537833128999177 0 -0.0003443928933181122 0 0
          -0.00008035223259995693 0.00042448827923960875 0 -0.00033342890648452387 0 0
          -0.00006685038192136045 0.0002690010000985752 0 -0.00004645299002440456 0 0
          -0.00006151536224042754 0.0002610751619842077 0 -0.00011195817659169773 0 0
          -0.00004556134271656011 0.00029835468803887823 0 -0.00016432122150749365 0 0
          -0.00002549364179992095 0.000227968112502688 0 -0.00015372775699992435 0 0
          -0.000052142664217013764 0.0003229255268964055 0 -0.00016274454491102455 0 0
          -0.00002497525159243853 0.0003502264685822528 0 -0.00024990552393250044 0 0
          0 0.00038984076681978515 0 -0.0003236711993486245 0 0
          -0.00001460713391965914 0.0004090316133752786 0 -0.0003433850564819108 0 0
          -0.000050077504262786836 0.00025509315424073105 0 -0.00008913512231247022 0 0
          -0.00005650439032984318 0.00026220714408156475 0 -0.00006062879024897515 0 0
          -0.000054902291157057784 0.00023605918974779728 0 -0.000026740417684762948 0 0
          0 0.0002726426575408334 0 -0.00022294134714478784 0 0
          -0.00003817654537136537 0.00022570776861268864 0 -0.00009131138656182978 0 0
          -0.00003721053853744048 0.00020154628285254823 0 -0.00008485349246482407 0 0
          -0.00001759051551028352 0.00018366348167442355 0 -0.00013728690827580735 0 0
          0 0.00046761583162262504 0 -0.00046280927852865165 0 0
          0.00006536353171302877 0.00017633749840278816 0 0.00029835030599325045 0 0
          0.0000569907961475856 0.0001711213183970341 0 0.00022577808602727763 0 0
          0.000028485204215990224 0.0002390116711045546 0 0.0002154025798595336 0 0
          0.00004748584506451629 0.00019981774926116535 0 0.00016743890106143608 0 0
          0.0000013738788803267397 0.0003196932759837565 0 0.00010806985003603236 0 0
          -0.000034863058070600406 0.00018122200894565968 0 0.0001602543470199761 0 0
          -0.00006393286677494373 0.00018651461341729123 0 0.00013047152951092616 0 0
          -0.000055555289031475165 0.00023093011944321298 0 0.00016908144307794344 0 0
          -0.00006760609947315975 0.00022428074057375422 0 0.00007666467339455729 0 0
          -0.000016750211640275126 0.00023323329514353744 0 0.00022248139256821634 0 0
          -0.00007594364359789446 0.0002284061446173016 0 0.00012241431563718127 0 0
          -0.00009171869350247415 0.00022273592343043975 0 0.00004319923333192028 0 0
          -0.00008084734197407362 0.00025688835851676243 0 0.00008268954353408248 0 0
          -0.0000911028710892459 0.0002480107324557626 0 -0.0000402800525292203 0 0
          -0.00005689874431807299 0.0002603250064334168 0 0.00011872368770163785 0 0
          -0.00009628709416507549 0.0002491177380978078 0 0.00003344633214873377 0 0
          0.000028485204215990224 0.00018491714741386206 0 0.00022453945400330468 0 0
          -0.00006173634135319154 0.00025781783771007804 0 -0.0000010237528407909893 0 0
          -0.000033577220351461816 0.000256817861306391 0 0.00008543057730929613 0 0
          0.0000013738788803267397 0.0002694103226620016 0 0.00012802602523402423 0 0
          -0.00011003979613343515 0.00023430238450301925 0 3.556022232687091e-7 0 0
          -0.00011016091690273103 0.00024122313697089387 0 -0.00007624717834057667 0 0
          -0.00005366847027867362 0.00034404356247750255 0 0.0000517349461095298 0 0
          -0.00009728466435725961 0.00026375181794343217 0 -0.00003757270690543874 0 0
          -0.00007977775284959772 0.00028595782044574594 0 0.0000043287810918102125 0 0
          -0.00010747744938738213 0.00024664952622681445 0 -0.00008391277698294587 0 0
          -0.00012348541430905148 0.0002347239026227682 0 -0.00003768313491274574 0 0
          -0.00012249542848976117 0.00024393750069042272 0 -0.00011261378994104976 0 0
          -0.00010917753333538997 0.00023917836987612587 0 -0.00006791326084764314 0 0
          -0.00010292913724092216 0.0002280480866082559 0 -0.000005659737409264166 0 0
          -0.00013023187560642173 0.0002545356177072575 0 -0.00008811633283950493 0 0
          -0.0001292228045930298 0.0002414444992255526 0 -0.00016266951540866282 0 0
          -0.00011152725616576519 0.00022839578866890573 0 -0.00011567556860003994 0 0
          -0.00011105931424733109 0.00025204441376311057 0 -0.00012722832925871118 0 0
          -0.0001411250336724537 0.00027602405276425443 0 -0.0001525068728319202 0 0
          -0.00010829455128719806 0.0002772259871995482 0 -0.00023107027790307528 0 0
          -0.00013636899627401597 0.0002570486940788838 0 -0.000202589405804655 0 0
          -0.0001132462837564273 0.0002226772758465816 0 -0.0001731330479059933 0 0
          -0.00010401161471058234 0.00022407247101812171 0 -0.00023711418417897689 0 0
          -0.0001400358666537388 0.0002881153683310481 0 -0.00025462667374012173 0 0
          -0.00009863489115672532 0.00025569698820336346 0 -0.00030206834065307965 0 0
          -0.00006318464067013954 0.0002912531001426404 0 -0.0004359254590793133 0 0
          -0.00012267808769702874 0.00033756750051672484 0 -0.00036165943507888 0 0
          -0.00011446268549381353 0.0004257503318161126 0 -0.0005270900569170955 0 0
          0 0.0004027360560738868 0 -0.0006131342657028313 0 0
          <InformationKey name="L2_NORM_RANGE" location="vtkDataArray" length="2">
            <Value index="0">
              4.3635578403e-05
            </Value>
            <Value index="1">
              0.0007808171891
            </Value>
          </InformationKey>
        </DataArray>
      </CellData>
      <Points>
        <DataArray type="Float32" Name="Points" NumberOfComponents="3" format="ascii" RangeMin="0.575821806374693" RangeMax="0.9950341539450956">
          0.8708332777023315 0.3653739094734192 0 0.860714316368103 0.28060439229011536 0
          0.8500000238418579 0.4099999964237213 0 0.8500000238418579 0.3233974874019623 0
          0.8500000238418579 0.23679490387439728 0 0.800000011920929 0.4099999964237213 0
          0.800000011920929 0.35874998569488525 0 0.800000011920929 0.3075000047683716 0
          0.800000011920929 0.2562499940395355 0 0.800000011920929 0.20499999821186066 0
          0.7855829000473022 0.2833690047264099 0 0.7801967263221741 0.2326371967792511 0
          0.7849156856536865 0.17809410393238068 0 0.7701786160469055 0.3153092861175537 0
          0.7706217765808105 0.29339540004730225 0 0.7717097997665405 0.27633070945739746 0
          0.7656427025794983 0.3409776985645294 0 0.7698035836219788 0.2523168921470642 0
          0.7675908207893372 0.21236099302768707 0 0.7715525031089783 0.16532769799232483 0
          0.7544441223144531 0.3706991970539093 0 0.7681100964546204 0.18829859793186188 0
          0.7624266147613525 0.2330619990825653 0 0.75 0.4099999964237213 0
          0.749905526638031 0.30120688676834106 0 0.7510836720466614 0.28298160433769226 0
          0.7484942078590393 0.32303810119628906 0 0.7520768046379089 0.26715388894081116 0
          0.750492513179779 0.2500039041042328 0 0.7490965127944946 0.19742019474506378 0
          0.7364636063575745 0.3487915098667145 0 0.7457147240638733 0.21774789690971375 0
          0.7511417865753174 0.17243710160255432 0 0.7508544921875 0.14851020276546478 0
          0.7311307787895203 0.33105140924453735 0 0.7322493195533752 0.2901006042957306 0
          0.7309662103652954 0.30994749069213867 0 0.7333226203918457 0.2734968066215515 0
          0.7282109260559082 0.37972819805145264 0 0.7342262268066406 0.25859200954437256 0
          0.7339295744895935 0.23889489471912384 0 0.7200285792350769 0.39706680178642273 0
          0.7302144169807434 0.20567350089550018 0 0.7348656058311462 0.1604457050561905 0
          0.7321398258209229 0.17933839559555054 0 0.726632297039032 0.22109229862689972 0
          0.7354196906089783 0.14676059782505035 0 0.7162578105926514 0.3378854990005493 0
          0.715178906917572 0.31723329424858093 0 0.7150315046310425 0.29804670810699463 0
          0.7161979079246521 0.28000369668006897 0 0.717178225517273 0.2648391127586365 0
          0.7179883718490601 0.2504681944847107 0 0.7089331150054932 0.36170080304145813 0
          0.7076787948608398 0.38490718603134155 0 0.7130498886108398 0.2131780982017517 0
          0.7184106707572937 0.16607660055160522 0 0.7102530002593994 0.22996729612350464 0
          0.7189459204673767 0.15344330668449402 0 0.7138698101043701 0.18957139551639557 0
          0.699999988079071 0.4099999964237213 0 0.7013440132141113 0.3235588073730469 0
          0.7195141911506653 0.13881950080394745 0 0.7006748914718628 0.30467209219932556 0
          0.700545072555542 0.287227600812912 0 0.701605498790741 0.2708246111869812 0
          0.7025058269500732 0.2568984031677246 0 0.7031980752944946 0.24257490038871765 0
          0.7001866102218628 0.20334060490131378 0 0.6891617178916931 0.33517369627952576 0
          0.6977335214614868 0.21843640506267548 0 0.702669620513916 0.1740746945142746 0
          0.7039654850959778 0.15948200225830078 0 0.6863555908203125 0.37692931294441223 0
          0.6996598243713379 0.18805590271949768 0 0.7044910192489624 0.14623670279979706 0
          0.6875978708267212 0.31058961153030396 0 0.68748539686203 0.2932542860507965 0
          0.705100417137146 0.13027819991111755 0 0.6873754262924194 0.2773919105529785 0
          0.6883394122123718 0.26247990131378174 0 0.6891760230064392 0.24953940510749817 0
          0.6896826028823853 0.23467199504375458 0 0.6814020276069641 0.3558084964752197 0
          0.686911404132843 0.20762979984283447 0 0.6890643239021301 0.17846709489822388 0
          0.6903507709503174 0.1650356948375702 0 0.6864784955978394 0.19277280569076538 0
          0.6908192038536072 0.1528957039117813 0 0.674828827381134 0.29886460304260254 0
          0.6914039850234985 0.13849130272865295 0 0.6754875183105469 0.2828773856163025 0
          0.675402820110321 0.26845020055770874 0 0.6762791872024536 0.25489360094070435 0
          0.677329421043396 0.24112440645694733 0 0.6709449887275696 0.3191247880458832 0
          0.690845787525177 0.12327779829502106 0 0.6774433851242065 0.22379179298877716 0
          0.6748278737068176 0.21168160438537598 0 0.6754485964775085 0.20205919444561005 0
          0.6761208772659302 0.1912887990474701 0 0.6630762815475464 0.3877303898334503 0
          0.6772615909576416 0.18080849945545197 0 0.6779654026031494 0.1700551062822342 0
          0.6627203226089478 0.34015730023384094 0 0.6784092783927917 0.15903650224208832 0
          0.6788992881774902 0.14585070312023163 0 0.6645663976669312 0.27344968914985657 0
          0.659839391708374 0.36508139967918396 0 0.662840723991394 0.2882671058177948 0
          0.664518415927887 0.2603212893009186 0 0.6653150916099548 0.24799680709838867 0
          0.6661118268966675 0.23567239940166473 0 0.6784029006958008 0.13204920291900635 0
          0.6789876222610474 0.11740829795598984 0 0.6631314754486084 0.22551150619983673 0
          0.6638193726539612 0.21560609340667725 0 0.6554415822029114 0.32426559925079346 0
          0.6644325852394104 0.20634040236473083 0 0.6559193134307861 0.30569809675216675 0
          0.6650562882423401 0.19643069803714752 0 0.6657760739326477 0.18481969833374023 0
          0.6667075753211975 0.1747570037841797 0 0.6671062707901001 0.1644940972328186 0
          0.6499999761581421 0.4099999964237213 0 0.6675975918769836 0.1526608020067215 0
          0.6546121835708618 0.2648898959159851 0 0.6546233296394348 0.2529312074184418 0
          0.6553475856781006 0.24172699451446533 0 0.6671726107597351 0.1400870978832245 0
          0.6514232754707336 0.27866610884666443 0 0.6677104234695435 0.12676359713077545 0
          0.6484575271606445 0.2921557128429413 0 0.6448748111724854 0.36978858709335327 0
          0.6530339121818542 0.23010189831256866 0 0.6537764072418213 0.21955209970474243 0
          0.6544069051742554 0.21032999455928802 0 0.6549972891807556 0.2011052966117859 0
          0.6556516885757446 0.1905495971441269 0 0.6663199067115784 0.11163009703159332 0
          0.6564506888389587 0.1790512055158615 0 0.6421127915382385 0.35343828797340393 0
          0.6568616032600403 0.16958990693092346 0 0.6572412848472595 0.15869709849357605 0
          0.6455140113830566 0.25712889432907104 0 0.6456276774406433 0.24621279537677765 0
          0.6398077011108398 0.3346843123435974 0 0.6568713784217834 0.14730949699878693 0
          0.6462860703468323 0.23602700233459473 0 0.657404899597168 0.13522540032863617 0
          0.6379325985908508 0.31745389103889465 0 0.6445965766906738 0.2237250953912735 0
          0.6452714800834656 0.21413449943065643 0 0.6458526253700256 0.20535460114479065 0
          0.6464475989341736 0.19575870037078857 0 0.6339619159698486 0.3838469088077545 0
          0.6365165114402771 0.30151841044425964 0 0.6471093893051147 0.183257594704628 0
          0.6475169062614441 0.17403709888458252 0 0.6544595956802368 0.1211320012807846 0
          0.6371951103210449 0.27020570635795593 0 0.6479300260543823 0.16436240077018738 0
          0.6355875730514526 0.28662869334220886 0 0.6371508240699768 0.25011229515075684 0
          0.636073887348175 0.25965529680252075 0 0.6476277709007263 0.15397070348262787 0
          0.6374498009681702 0.24010500311851501 0 0.6380481123924255 0.23084579408168793 0
          0.6531165242195129 0.10664000362157822 0 0.6288318037986755 0.3608275055885315 0
          0.6465998291969299 0.1423168033361435 0 0.6369271278381348 0.21792739629745483 0
          0.637538492679596 0.2092134952545166 0 0.638080894947052 0.20049509406089783 0
          0.6273059248924255 0.3417001962661743 0 0.638547420501709 0.18726779520511627 0
          0.6390693187713623 0.17828309535980225 0 0.6298884749412537 0.26468101143836975 0
          0.6259247064590454 0.3243080973625183 0 0.6393418908119202 0.1692872941493988 0
          0.6235712170600891 0.3982431888580322 0 0.6292871832847595 0.25385549664497375 0
          0.639090895652771 0.1599036008119583 0 0.629374086856842 0.2438068985939026 0
          0.6246811747550964 0.30849018692970276 0 0.6300173997879028 0.23455069959163666 0
          0.6305558085441589 0.226146399974823 0 0.6395577192306519 0.1499204933643341 0
          0.6413576006889343 0.12900809943675995 0 0.6235749125480652 0.2940967082977295 0
          0.6240149736404419 0.28003188967704773 0 0.6292865872383118 0.21436740458011627 0
          0.6296452879905701 0.20344309508800507 0 0.6313686966896057 0.1825810968875885 0
          0.6299580931663513 0.19246360659599304 0 0.6367797255516052 0.1384667009115219 0
          0.6316906809806824 0.17402610182762146 0 0.6218441128730774 0.2690111994743347 0
          0.6315088868141174 0.16543810069561005 0 0.6213344931602478 0.25801900029182434 0
          0.6384739279747009 0.11255659908056259 0 0.6318643093109131 0.15629950165748596 0
          0.6236917972564697 0.22206999361515045 0 0.6212583780288696 0.2478121966123581 0
          0.621968686580658 0.2382165938615799 0 0.6137710213661194 0.3911074101924896 0
          0.6136080026626587 0.3692311942577362 0 0.6239128112792969 0.20765259861946106 0
          0.6213347911834717 0.22960740327835083 0 0.622735321521759 0.21411900222301483 0
          0.6134598255157471 0.3493433892726898 0 0.623748779296875 0.202389195561409 0
          0.6237612962722778 0.19713160395622253 0 0.6133251190185547 0.33126330375671387 0
          0.6239354014396667 0.19159770011901855 0 0.6243926286697388 0.18543709814548492 0
          0.6132025718688965 0.3148266077041626 0 0.6245540976524353 0.1780093014240265 0
          0.6130911707878113 0.2998839020729065 0 0.628160297870636 0.1455812007188797 0
          0.6244211792945862 0.170291006565094 0 0.6129900217056274 0.28629928827285767 0
          0.6179541945457458 0.22433529794216156 0 0.6247010827064514 0.1619853973388672 0
          0.6180939078330994 0.21746620535850525 0 0.6128979921340942 0.27394959330558777 0
          0.6251993775367737 0.15295089781284332 0 0.6180089116096497 0.21076029539108276 0
          0.6128143072128296 0.26272231340408325 0 0.6177229285240173 0.20516279339790344 0
          0.626665472984314 0.13228000700473785 0 0.6127381920814514 0.2525154948234558 0
          0.6176658868789673 0.19974319636821747 0 0.6177486181259155 0.1943347007036209 0
          0.6276165843009949 0.1204380989074707 0 0.6126691102981567 0.2432364970445633 0
          0.6133723258972168 0.23459100723266602 0 0.6180130243301392 0.1883275955915451 0
          0.6182888150215149 0.18200230598449707 0 0.6125491261482239 0.2271319031715393 0
          0.6182311177253723 0.17490309476852417 0 0.6124981045722961 0.22015979886054993 0
          0.6182296872138977 0.16719910502433777 0 0.6124674081802368 0.2138165980577469 0
          0.6182950735092163 0.15879909694194794 0 0.6122804880142212 0.20807060599327087 0
          0.6121590733528137 0.20249439775943756 0 0.6184296011924744 0.14961139857769012 0
          0.612163782119751 0.1969825029373169 0 0.6000000238418579 0.4099999964237213 0
          0.6240202784538269 0.10696060210466385 0 0.6123185157775879 0.19138279557228088 0
          0.6186257004737854 0.1395397037267685 0 0.6123483180999756 0.18521739542484283 0
          0.6123213768005371 0.17883719503879547 0 0.6034423112869263 0.26789578795433044 0
          0.6025888919830322 0.2796402871608734 0 0.6042181253433228 0.2572188079357147 0
          0.6016501784324646 0.29255908727645874 0 0.6049233078956604 0.24751220643520355 0
          0.6188747882843018 0.12848269939422607 0 0.6055644750595093 0.23868800699710846 0
          0.6006177067756653 0.3067694902420044 0 0.6061474084854126 0.23066569864749908 0
          0.6066771149635315 0.22337259352207184 0 0.5994818806648254 0.32240059971809387 0
          0.6071550250053406 0.21674099564552307 0 0.612009584903717 0.171744704246521 0
          0.598232626914978 0.33959460258483887 0 0.6071550250053406 0.2108922004699707 0
          0.6191701889038086 0.1163334995508194 0 0.5968583226203918 0.3585076928138733 0
          0.6071550250053406 0.2052491009235382 0 0.6116510033607483 0.1639391928911209 0
          0.6071550250053406 0.19973969459533691 0 0.5953466892242432 0.3793117105960846 0
          0.6071550250053406 0.19422520697116852 0 0.6071550250053406 0.18854039907455444 0
          0.6112555861473083 0.15535299479961395 0 0.6071550250053406 0.18258099257946014 0
          0.6034302115440369 0.2121948003768921 0 0.6034104824066162 0.2081225961446762 0
          0.6108207106590271 0.1459084004163742 0 0.6034302115440369 0.20405040681362152 0
          0.6062446236610413 0.17588789761066437 0 0.6034358143806458 0.19981780648231506 0
          0.6034656167030334 0.1960110068321228 0 0.5991057753562927 0.23455309867858887 0
          0.6034457087516785 0.19189679622650146 0 0.6007007956504822 0.21674099564552307 0
          0.5981417894363403 0.2431706041097641 0 0.5996565818786621 0.2253464013338089 0
          0.6103423237800598 0.13551950454711914 0 0.6034656167030334 0.18778260052204132 0
          0.5969198942184448 0.25254639983177185 0 0.6053048968315125 0.1684979945421219 0
          0.5954951047897339 0.26280778646469116 0 0.6000000238418579 0.20999999344348907 0
          0.6000000238418579 0.20624519884586334 0 0.5938873887062073 0.27406948804855347 0
          0.6000000238418579 0.20228970050811768 0 0.6098160743713379 0.12409190088510513 0
          0.6000000238418579 0.19789430499076843 0 0.5920988917350769 0.28644418716430664 0
          0.6042749285697937 0.1603676974773407 0 0.6000000238418579 0.19379359483718872 0
          0.6000000238418579 0.1899999976158142 0 0.6007080078125 0.18258099257946014 0
          0.5901215076446533 0.3000496029853821 0 0.5996900200843811 0.1856987029314041 0
          0.6031420230865479 0.15142449736595154 0 0.5879414081573486 0.3150120973587036 0
          0.5957608222961426 0.20999999344348907 0 0.5855407118797302 0.33146899938583374 0
          0.5913600921630859 0.23882900178432465 0 0.5933073163032532 0.21674099564552307 0
          0.5920010805130005 0.2300046980381012 0 0.5901383757591248 0.2482047975063324 0
          0.5956950187683105 0.1899999976158142 0 0.5971050262451172 0.1760358065366745 0
          0.6013513207435608 0.14181700348854065 0 0.588455319404602 0.25830090045928955 0
          0.5828987956047058 0.34957051277160645 0 0.5910155773162842 0.20999999344348907 0
          0.6005250811576843 0.1307660937309265 0 0.5935019254684448 0.18258099257946014 0
          0.5799921154975891 0.3694814145565033 0 0.5950081944465637 0.16678430140018463 0
          0.5955162048339844 0.15627479553222656 0 0.5833414196968079 0.2649824917316437 0
          0.5814359784126282 0.27801790833473206 0 0.5942171216011047 0.14710310101509094 0
          0.5758944749832153 0.3888342082500458 0 0.582840085029602 0.24353259801864624 0
          0.5835450887680054 0.23382599651813507 0 0.5790020823478699 0.292057603597641 0
          0.5842500925064087 0.2241193950176239 0 0.5856583118438721 0.20999999344348907 0
          0.5848981142044067 0.21674099564552307 0 0.5814154744148254 0.2537941038608551 0
          0.5889775156974792 0.16087619960308075 0 0.5737056136131287 0.32365480065345764 0
          0.573840320110321 0.3035311996936798 0 0.5890604257583618 0.14018060266971588 0
          0.5874776840209961 0.1510927975177765 0 0.5704385042190552 0.3414725959300995 0
          0.5795513987541199 0.20999999344348907 0 0.574131429195404 0.258882611989975 0
          0.5734682083129883 0.24870629608631134 0 0.5742437243461609 0.23802930116653442 0
          0.5749487280845642 0.22832269966602325 0 0.566676914691925 0.36089590191841125 0
          0.5697928071022034 0.2861599028110504 0 0.5751941800117493 0.21674099564552307 0
          0.568569004535675 0.26900461316108704 0 0.5725125074386597 0.20999999344348907 0
          0.5600494146347046 0.330614298582077 0 0.5594484806060791 0.31276050209999084 0
          0.5631592273712158 0.2543973922729492 0 0.5640122890472412 0.2426528036594391 0
          0.5634573101997375 0.22987620532512665 0 0.5638067722320557 0.21674099564552307 0
          0.5642954111099243 0.20999999344348907 0 0.5541335940361023 0.3753781020641327 0
          0.5568704009056091 0.2950234115123749 0 0.5564984083175659 0.27935779094696045 0
          0.5527667999267578 0.35136690735816956 0 0.550000011920929 0.4099999964237213 0
          0.5518196225166321 0.260657399892807 0 0.5527579188346863 0.24773859977722168 0
          0.5535545945167542 0.23677049577236176 0 0.5545583963394165 0.20999999344348907 0
          0.5438873767852783 0.3238166868686676 0 0.5501776933670044 0.21674099564552307 0
          0.542649507522583 0.304767906665802 0 0.5422394275665283 0.28753361105918884 0
          0.5393462181091309 0.26754340529441833 0 0.5403783917427063 0.2533330023288727 0
          0.5412458777427673 0.24138949811458588 0 0.5415080785751343 0.22887690365314484 0
          0.8999999761581421 0.4099999964237213 0 0.925000011920929 0.3666987121105194 0
          0.8999999761581421 0.3233974874019623 0 0.8999999761581421 0.23679490387439728 0
          0.925000011920929 0.2800962030887604 0 0.8708332777023315 0.19541139900684357 0
          0.8500000238418579 0.15019239485263824 0 0.800000011920929 0.1537500023841858 0
          0.736051619052887 0.13072070479393005 0 0.7542862296104431 0.12420649826526642 0
          0.772718608379364 0.14212970435619354 0 0.5908014178276062 0.1899999976158142 0
          0.5853471159934998 0.18258099257946014 0 0.5892897844314575 0.1759980022907257 0
          0.5846421122550964 0.16877369582653046 0 0.5795289278030396 0.16082799434661865 0
          0.576120913028717 0.14944520592689514 0 0.599017322063446 0.11886320263147354 0
          0.5743886828422546 0.13506489992141724 0 0.6096639037132263 0.1116190031170845 0
          0.588797390460968 0.1262046992778778 0 0.6427744030952454 0.09602393209934235 0
          0.6086004972457886 0.0976947695016861 0 0.6252400279045105 0.0920356810092926 0
          0.6787635087966919 0.10112480074167252 0 0.6914474964141846 0.10714879631996155 0
          0.6649230122566223 0.09536372870206833 0 0.7044627070426941 0.11356350034475327 0
          0.7202107906341553 0.12133219838142395 0 0.5428140759468079 0.20999999344348907 0
          0.5334736108779907 0.21674099564552307 0 0.5277109146118164 0.2464095950126648 0
          0.5290884971618652 0.2327428013086319 0 0.5267611145973206 0.259486585855484 0
          0.5256258249282837 0.27511781454086304 0 0.5257610082626343 0.293197900056839 0
          0.5259097218513489 0.3130857050418854 0 0.5260733962059021 0.33496180176734924 0
          0.5262532830238342 0.3590252101421356 0 0.5264512896537781 0.38549450039863586 0
          0.5 0.4099999964237213 0
          <InformationKey name="L2_NORM_RANGE" location="vtkDataArray" length="2">
            <Value index="0">
              0.57582180637
            </Value>
            <Value index="1">
              0.99503415395
            </Value>
          </InformationKey>
        </DataArray>
      </Points>
      <Cells>
        <DataArray type="Int64" Name="connectivity" format="ascii" RangeMin="0" RangeMax="420">
          380 2 0 0 2 6
          380 0 381 381 0 382
          382 0 3 3 0 6
          383 384 1 1 384 382
          1 382 3 1 7 8
          385 383 4 4 383 1
          4 1 8 386 385 9
          385 4 9 2 5 6
          9 387 386 7 1 3
          6 7 3 8 9 4
          51 52 39 50 51 37
          43 46 33 46 388 33
          57 40 52 49 50 35
          39 52 40 51 39 37
          37 39 27 50 37 35
          35 37 25 45 42 31
          49 35 36 44 43 32
          43 33 32 32 33 19
          48 49 36 48 36 34
          31 42 29 45 31 40
          45 40 57 39 40 28
          27 39 28 27 28 17
          37 27 25 25 27 15
          36 35 24 35 25 24
          24 25 14 44 32 29
          388 389 33 29 42 44
          31 29 18 47 48 34
          47 34 30 28 40 22
          36 24 26 34 36 26
          34 26 30 19 33 390
          32 19 21 18 29 21
          21 29 32 31 18 22
          15 27 17 15 17 8
          25 15 14 14 15 10
          26 24 13 24 14 13
          13 14 7 17 28 22
          22 40 31 18 21 9
          22 18 11 47 30 53
          26 13 16 390 33 389
          19 390 387 21 19 12
          10 15 8 14 10 7
          7 10 8 11 18 9
          22 11 17 26 16 30
          12 19 387 21 12 9
          53 30 38 13 7 6
          16 13 6 11 9 8
          38 30 20 53 38 54
          9 12 387 8 17 11
          20 30 16 38 20 23
          54 38 41 60 41 23
          23 41 38 20 16 6
          23 20 5 5 20 6
          297 298 281 305 306 288
          281 298 283 297 281 280
          288 306 293 305 288 286
          298 300 283 283 300 285
          281 283 272 272 283 274
          280 281 269 280 269 266
          297 280 289 302 305 286
          302 286 285 285 286 274
          302 285 300 285 274 283
          288 293 277 277 293 279
          293 306 309 286 288 276
          286 276 274 306 318 309
          293 309 307 307 309 325
          276 288 277 297 289 315
          312 297 315 269 281 272
          323 312 315 318 391 325
          337 323 338 289 280 266
          309 318 325 293 307 279
          346 337 338 355 346 353
          323 315 338 355 353 361
          325 391 392 353 346 338
          272 274 246 274 276 248
          269 272 245 276 277 251
          246 274 248 246 248 232
          272 246 245 245 246 229
          248 276 251 248 251 233
          266 269 243 269 245 243
          243 245 227 251 277 253
          277 279 253 253 279 254
          266 243 241 232 248 233
          232 233 212 246 232 229
          229 232 211 251 253 237
          245 229 227 227 229 207
          233 251 237 233 237 214
          243 227 224 241 243 224
          241 224 222 266 241 264
          254 279 284 253 254 238
          279 307 284 289 266 264
          237 253 238 237 238 215
          212 233 214 212 214 194
          232 212 211 211 212 192
          229 211 207 207 211 192
          264 241 239 227 207 209
          224 227 209 224 209 202
          254 284 267 238 254 240
          214 237 215 214 215 194
          222 224 202 222 202 208
          241 222 239 239 222 208
          264 239 263 215 238 217
          267 284 295 254 267 240
          240 267 242 238 240 217
          217 240 220 192 212 194
          207 192 191 209 207 191
          209 191 202 307 325 319
          263 239 236 264 263 291
          315 289 291 208 202 186
          215 217 193 295 284 319
          267 295 273 319 325 393
          307 319 284 236 239 208
          263 236 261 291 263 287
          264 291 289 242 267 273
          242 273 244 240 242 220
          220 242 223 217 220 196
          193 217 196 273 295 304
          393 325 392 215 193 194
          319 393 327 191 192 172
          193 196 176 186 202 191
          208 186 185 261 236 235
          263 261 287 287 261 290
          291 287 316 196 220 198
          304 295 327 273 304 278
          327 393 394 319 327 295
          223 242 244 223 244 226
          220 223 198 198 223 201
          172 192 173 191 172 171
          338 315 336 244 273 278
          244 278 247 185 186 167
          208 185 204 235 236 204
          316 287 314 261 235 259
          291 316 315 176 196 179
          193 176 175 196 198 179
          327 394 340 278 304 310
          290 261 259 290 259 294
          287 290 314 314 290 317
          173 192 194 171 172 152
          179 198 182 172 173 153
          191 171 186 167 186 171
          185 167 166 204 185 183
          208 204 236 316 314 334
          259 235 231 176 179 158
          193 175 194 327 328 304
          175 176 157 340 394 395
          310 304 328 278 310 282
          226 244 247 226 247 219
          223 226 201 201 226 219
          198 201 182 182 201 187
          152 172 153 152 153 136
          171 152 151 153 173 154
          247 278 282 247 282 252
          166 167 148 334 314 333
          183 185 166 183 166 163
          231 235 203 316 334 336
          204 183 203 203 183 181
          259 231 257 179 182 161
          294 259 257 294 257 296
          158 179 161 282 310 320
          317 290 294 317 294 321
          157 176 158 157 158 140
          328 327 340 328 340 344
          340 395 344 314 317 333
          333 317 339 175 157 154
          310 328 331 173 194 175
          171 151 167 153 154 137
          151 152 135 154 173 175
          204 203 235 158 161 142
          167 151 148 353 338 336
          336 315 316 257 231 228
          336 334 350 166 148 145
          231 203 199 334 333 349
          219 247 252 219 252 230
          152 136 135 135 136 116
          136 153 137 136 137 118
          161 182 165 328 344 331
          331 344 343 320 310 331
          320 331 343 282 320 292
          187 201 219 182 187 165
          165 187 170 163 166 145
          163 145 144 183 163 181
          181 163 164 203 181 199
          199 181 177 252 282 292
          252 292 260 151 135 134
          137 154 138 228 231 199
          228 199 197 145 148 128
          349 333 348 350 334 349
          350 349 360 257 228 255
          336 350 353 317 321 339
          339 321 329 321 294 296
          321 296 329 140 158 142
          140 142 122 157 140 138
          142 161 143 333 339 348
          348 339 347 296 257 255
          296 255 299 161 165 143
          292 320 324 134 135 115
          138 154 157 151 134 148
          148 134 128 137 138 120
          255 228 225 143 165 147
          145 128 127 349 348 359
          116 136 118 116 118 98
          118 137 120 118 120 99
          343 344 396 181 164 177
          177 164 160 135 116 115
          115 116 97 164 163 144
          164 144 160 230 252 260
          230 260 234 219 230 195
          199 177 197 197 177 160
          142 143 123 144 145 127
          144 127 126 324 320 343
          292 324 301 228 197 225
          225 197 190 360 349 359
          350 360 361 170 187 195
          165 170 147 147 170 149
          260 292 301 260 301 270
          134 112 128 120 138 121
          122 142 123 122 123 103
          140 122 121 121 122 102
          140 121 138 339 329 347
          347 329 354 127 128 111
          359 348 358 255 225 256
          348 347 358 358 347 354
          299 255 256 299 256 303
          296 299 329 361 353 350
          143 147 125 123 143 125
          301 324 397 120 121 100
          98 118 99 98 99 84
          116 98 97 97 98 84
          111 128 112 256 225 221
          127 111 110 195 187 219
          99 120 100 99 100 87
          115 97 112 115 112 134
          396 344 395 343 396 398
          123 125 105 195 230 188
          234 260 270 234 270 250
          230 234 188 188 234 200
          126 127 110 126 110 107
          144 126 160 190 197 160
          125 147 129 301 397 399
          225 190 221 221 190 189
          397 324 400 149 170 188
          147 149 129 129 149 131
          270 301 399 270 399 250
          102 122 103 102 103 85
          121 102 100 100 102 87
          170 195 188 103 123 105
          103 105 86 354 329 330
          110 111 93 111 112 94
          256 221 258 303 256 258
          303 258 308 299 303 330
          105 125 106 343 398 400
          125 129 106 400 324 343
          84 99 87 84 87 68
          93 111 94 93 94 81
          368 358 354 94 112 97
          258 221 218 110 93 92
          234 250 200 200 250 401
          299 330 329 106 129 113
          107 110 92 107 92 91
          126 107 130 189 190 162
          221 189 218 218 189 184
          105 106 88 131 149 159
          129 131 113 113 131 114
          85 103 86 85 86 71
          102 85 87 86 105 88
          86 88 72 188 200 159
          354 330 352 330 303 335
          258 218 262 92 93 80
          308 258 262 308 262 311
          303 308 335 335 308 342
          106 113 90 88 106 90
          399 402 250 68 87 74
          84 68 70 81 94 82
          93 81 80 80 81 66
          130 107 109 162 190 160
          126 130 160 189 162 156
          352 330 335 352 335 342
          354 352 365 262 218 216
          92 80 79 160 130 162
          159 149 188 131 159 139
          88 90 75 91 92 79
          91 79 77 107 91 109
          109 91 89 184 189 156
          184 156 150 218 184 216
          216 184 178 401 250 403
          200 401 168 71 86 72
          71 72 56 85 71 74
          90 113 96 114 131 139
          114 139 404 113 114 96
          96 114 405 72 88 75
          72 75 58 82 94 97
          81 82 67 156 162 132
          130 109 132 132 109 119
          130 132 162 365 352 364
          354 365 368 79 80 65
          262 216 265 311 262 265
          311 265 313 308 311 342
          342 311 341 139 159 168
          168 159 200 139 168 406
          75 90 78 66 81 67
          66 67 52 80 66 65
          65 66 51 90 96 78
          74 87 85 68 74 59
          70 68 55 84 70 97
          67 82 57 79 65 64
          156 132 119 265 216 213
          364 352 342 403 250 402
          168 401 406 77 79 64
          77 64 63 178 184 150
          178 150 146 91 77 89
          89 77 76 216 178 213
          213 178 174 56 72 58
          56 58 43 71 56 59
          78 96 407 75 78 62
          150 156 119 109 89 119
          119 89 95 405 114 404
          96 405 407 58 75 62
          58 62 46 59 74 71
          68 59 55 70 55 57
          404 139 406 64 65 50
          265 213 268 313 265 268
          313 268 322 311 313 341
          341 313 345 342 341 357
          51 66 52 65 51 50
          78 407 408 52 67 57
          57 82 70 62 78 408
          57 55 45 268 213 210
          64 50 49 146 150 117
          76 77 63 76 63 61
          178 146 174 174 146 141
          89 76 95 95 76 69
          43 58 46 56 43 44
          63 64 49 63 49 48
          213 174 210 210 174 169
          119 95 117 62 408 388
          46 62 388 45 55 42
          357 364 342 357 341 356
          55 59 42 268 210 271
          70 82 97 341 345 356
          356 345 366 345 313 322
          345 322 351 322 268 271
          322 271 326 117 150 119
          146 117 104 61 63 48
          61 48 47 141 146 104
          141 104 108 76 61 69
          69 61 47 174 141 169
          169 141 133 271 210 206
          95 69 104 56 44 59
          42 59 44 210 169 206
          206 169 155 351 322 326
          351 326 363 345 351 366
          366 351 363 104 117 95
          271 206 275 326 271 275
          326 275 332 169 133 155
          155 101 124 133 141 108
          133 108 101 275 206 205
          206 155 205 205 155 180
          108 104 83 363 326 332
          363 332 367 275 205 249
          332 275 249 83 104 69
          108 83 73 101 108 73
          101 73 60 133 101 155
          180 155 124 180 124 249
          205 180 249 73 83 53
          83 69 53 47 53 69
          124 101 60 53 54 73
          73 54 60 60 54 41
          332 249 367 362 355 361
          362 361 371 371 361 373
          371 373 409 409 373 410
          360 359 370 359 358 369
          370 359 369 370 369 378
          360 370 373 369 358 368
          369 368 377 378 369 377
          378 377 411 370 378 379
          377 368 376 373 361 360
          379 378 412 370 379 373
          373 379 410 376 368 365
          377 376 413 410 379 412
          411 377 413 378 411 412
          413 376 414 365 364 375
          414 376 375 375 364 374
          365 375 376 374 364 357
          375 374 415 375 415 414
          374 357 372 357 356 372
          372 356 366 374 372 416
          374 416 415 416 372 417
          417 372 366 418 417 366
          419 418 363 418 366 363
          363 367 419 419 367 420
        </DataArray>
        <DataArray type="Int64" Name="offsets" format="ascii" RangeMin="3" RangeMax="2334">
          3 6 9 12 15 18
          21 24 27 30 33 36
          39 42 45 48 51 54
          57 60 63 66 69 72
          75 78 81 84 87 90
          93 96 99 102 105 108
          111 114 117 120 123 126
          129 132 135 138 141 144
          147 150 153 156 159 162
          165 168 171 174 177 180
          183 186 189 192 195 198
          201 204 207 210 213 216
          219 222 225 228 231 234
          237 240 243 246 249 252
          255 258 261 264 267 270
          273 276 279 282 285 288
          291 294 297 300 303 306
          309 312 315 318 321 324
          327 330 333 336 339 342
          345 348 351 354 357 360
          363 366 369 372 375 378
          381 384 387 390 393 396
          399 402 405 408 411 414
          417 420 423 426 429 432
          435 438 441 444 447 450
          453 456 459 462 465 468
          471 474 477 480 483 486
          489 492 495 498 501 504
          507 510 513 516 519 522
          525 528 531 534 537 540
          543 546 549 552 555 558
          561 564 567 570 573 576
          579 582 585 588 591 594
          597 600 603 606 609 612
          615 618 621 624 627 630
          633 636 639 642 645 648
          651 654 657 660 663 666
          669 672 675 678 681 684
          687 690 693 696 699 702
          705 708 711 714 717 720
          723 726 729 732 735 738
          741 744 747 750 753 756
          759 762 765 768 771 774
          777 780 783 786 789 792
          795 798 801 804 807 810
          813 816 819 822 825 828
          831 834 837 840 843 846
          849 852 855 858 861 864
          867 870 873 876 879 882
          885 888 891 894 897 900
          903 906 909 912 915 918
          921 924 927 930 933 936
          939 942 945 948 951 954
          957 960 963 966 969 972
          975 978 981 984 987 990
          993 996 999 1002 1005 1008
          1011 1014 1017 1020 1023 1026
          1029 1032 1035 1038 1041 1044
          1047 1050 1053 1056 1059 1062
          1065 1068 1071 1074 1077 1080
          1083 1086 1089 1092 1095 1098
          1101 1104 1107 1110 1113 1116
          1119 1122 1125 1128 1131 1134
          1137 1140 1143 1146 1149 1152
          1155 1158 1161 1164 1167 1170
          1173 1176 1179 1182 1185 1188
          1191 1194 1197 1200 1203 1206
          1209 1212 1215 1218 1221 1224
          1227 1230 1233 1236 1239 1242
          1245 1248 1251 1254 1257 1260
          1263 1266 1269 1272 1275 1278
          1281 1284 1287 1290 1293 1296
          1299 1302 1305 1308 1311 1314
          1317 1320 1323 1326 1329 1332
          1335 1338 1341 1344 1347 1350
          1353 1356 1359 1362 1365 1368
          1371 1374 1377 1380 1383 1386
          1389 1392 1395 1398 1401 1404
          1407 1410 1413 1416 1419 1422
          1425 1428 1431 1434 1437 1440
          1443 1446 1449 1452 1455 1458
          1461 1464 1467 1470 1473 1476
          1479 1482 1485 1488 1491 1494
          1497 1500 1503 1506 1509 1512
          1515 1518 1521 1524 1527 1530
          1533 1536 1539 1542 1545 1548
          1551 1554 1557 1560 1563 1566
          1569 1572 1575 1578 1581 1584
          1587 1590 1593 1596 1599 1602
          1605 1608 1611 1614 1617 1620
          1623 1626 1629 1632 1635 1638
          1641 1644 1647 1650 1653 1656
          1659 1662 1665 1668 1671 1674
          1677 1680 1683 1686 1689 1692
          1695 1698 1701 1704 1707 1710
          1713 1716 1719 1722 1725 1728
          1731 1734 1737 1740 1743 1746
          1749 1752 1755 1758 1761 1764
          1767 1770 1773 1776 1779 1782
          1785 1788 1791 1794 1797 1800
          1803 1806 1809 1812 1815 1818
          1821 1824 1827 1830 1833 1836
          1839 1842 1845 1848 1851 1854
          1857 1860 1863 1866 1869 1872
          1875 1878 1881 1884 1887 1890
          1893 1896 1899 1902 1905 1908
          1911 1914 1917 1920 1923 1926
          1929 1932 1935 1938 1941 1944
          1947 1950 1953 1956 1959 1962
          1965 1968 1971 1974 1977 1980
          1983 1986 1989 1992 1995 1998
          2001 2004 2007 2010 2013 2016
          2019 2022 2025 2028 2031 2034
          2037 2040 2043 2046 2049 2052
          2055 2058 2061 2064 2067 2070
          2073 2076 2079 2082 2085 2088
          2091 2094 2097 2100 2103 2106
          2109 2112 2115 2118 2121 2124
          2127 2130 2133 2136 2139 2142
          2145 2148 2151 2154 2157 2160
          2163 2166 2169 2172 2175 2178
          2181 2184 2187 2190 2193 2196
          2199 2202 2205 2208 2211 2214
          2217 2220 2223 2226 2229 2232
          2235 2238 2241 2244 2247 2250
          2253 2256 2259 2262 2265 2268
          2271 2274 2277 2280 2283 2286
          2289 2292 2295 2298 2301 2304
          2307 2310 2313 2316 2319 2322
          2325 2328 2331 2334
        </DataArray>
        <DataArray type="UInt8" Name="types" format="ascii" RangeMin="5" RangeMax="5">
          5 5 5 5 5 5
          5 5 5 5 5 5
          5 5 5 5 5 5
          5 5 5 5 5 5
          5 5 5 5 5 5
          5 5 5 5 5 5
          5 5 5 5 5 5
          5 5 5 5 5 5
          5 5 5 5 5 5
          5 5 5 5 5 5
          5 5 5 5 5 5
          5 5 5 5 5 5
          5 5 5 5 5 5
          5 5 5 5 5 5
          5 5 5 5 5 5
          5 5 5 5 5 5
          5 5 5 5 5 5
          5 5 5 5 5 5
          5 5 5 5 5 5
          5 5 5 5 5 5
          5 5 5 5 5 5
          5 5 5 5 5 5
          5 5 5 5 5 5
          5 5 5 5 5 5
          5 5 5 5 5 5
          5 5 5 5 5 5
          5 5 5 5 5 5
          5 5 5 5 5 5
          5 5 5 5 5 5
          5 5 5 5 5 5
          5 5 5 5 5 5
          5 5 5 5 5 5
          5 5 5 5 5 5
          5 5 5 5 5 5
          5 5 5 5 5 5
          5 5 5 5 5 5
          5 5 5 5 5 5
          5 5 5 5 5 5
          5 5 5 5 5 5
          5 5 5 5 5 5
          5 5 5 5 5 5
          5 5 5 5 5 5
          5 5 5 5 5 5
          5 5 5 5 5 5
          5 5 5 5 5 5
          5 5 5 5 5 5
          5 5 5 5 5 5
          5 5 5 5 5 5
          5 5 5 5 5 5
          5 5 5 5 5 5
          5 5 5 5 5 5
          5 5 5 5 5 5
          5 5 5 5 5 5
          5 5 5 5 5 5
          5 5 5 5 5 5
          5 5 5 5 5 5
          5 5 5 5 5 5
          5 5 5 5 5 5
          5 5 5 5 5 5
          5 5 5 5 5 5
          5 5 5 5 5 5
          5 5 5 5 5 5
          5 5 5 5 5 5
          5 5 5 5 5 5
          5 5 5 5 5 5
          5 5 5 5 5 5
          5 5 5 5 5 5
          5 5 5 5 5 5
          5 5 5 5 5 5
          5 5 5 5 5 5
          5 5 5 5 5 5
          5 5 5 5 5 5
          5 5 5 5 5 5
          5 5 5 5 5 5
          5 5 5 5 5 5
          5 5 5 5 5 5
          5 5 5 5 5 5
          5 5 5 5 5 5
          5 5 5 5 5 5
          5 5 5 5 5 5
          5 5 5 5 5 5
          5 5 5 5 5 5
          5 5 5 5 5 5
          5 5 5 5 5 5
          5 5 5 5 5 5
          5 5 5 5 5 5
          5 5 5 5 5 5
          5 5 5 5 5 5
          5 5 5 5 5 5
          5 5 5 5 5 5
          5 5 5 5 5 5
          5 5 5 5 5 5
          5 5 5 5 5 5
          5 5 5 5 5 5
          5 5 5 5 5 5
          5 5 5 5 5 5
          5 5 5 5 5 5
          5 5 5 5 5 5
          5 5 5 5 5 5
          5 5 5 5 5 5
          5 5 5 5 5 5
          5 5 5 5 5 5
          5 5 5 5 5 5
          5 5 5 5 5 5
          5 5 5 5 5 5
          5 5 5 5 5 5
          5 5 5 5 5 5
          5 5 5 5 5 5
          5 5 5 5 5 5
          5 5 5 5 5 5
          5 5 5 5 5 5
          5 5 5 5 5 5
          5 5 5 5 5 5
          5 5 5 5 5 5
          5 5 5 5 5 5
          5 5 5 5 5 5
          5 5 5 5 5 5
          5 5 5 5 5 5
          5 5 5 5 5 5
          5 5 5 5 5 5
          5 5 5 5 5 5
          5 5 5 5 5 5
          5 5 5 5 5 5
          5 5 5 5 5 5
          5 5 5 5 5 5
          5 5 5 5 5 5
          5 5 5 5 5 5
          5 5 5 5 5 5
          5 5 5 5 5 5
          5 5 5 5
        </DataArray>
      </Cells>
    </Piece>
  </UnstructuredGrid>
</VTKFile>
