<?xml version="1.0"?>
<VTKFile type="UnstructuredGrid" version="0.1" byte_order="LittleEndian" header_type="UInt32" compressor="vtkZLibDataCompressor">
  <UnstructuredGrid>
    <Piece NumberOfPoints="33" NumberOfCells="20">
      <PointData>
        <DataArray type="Float64" Name="sld_BC" NumberOfComponents="3" format="ascii" RangeMin="0" RangeMax="0">
          0 0 0 0 0 0
          0 0 0 0 0 0
          0 0 0 0 0 0
          0 0 0 0 0 0
          0 0 0 0 0 0
          0 0 0 0 0 0
          0 0 0 0 0 0
          0 0 0 0 0 0
          0 0 0 0 0 0
          0 0 0 0 0 0
          0 0 0 0 0 0
          0 0 0 0 0 0
          0 0 0 0 0 0
          0 0 0 0 0 0
          0 0 0 0 0 0
          0 0 0 0 0 0
          0 0 0
          <InformationKey name="L2_NORM_RANGE" location="vtkDataArray" length="2">
            <Value index="0">
              0
            </Value>
            <Value index="1">
              0
            </Value>
          </InformationKey>
        </DataArray>
        <DataArray type="Float64" Name="sld_FIXNO" NumberOfComponents="3" format="ascii" RangeMin="1.4142135623730951" RangeMax="1.4142135623730951">
          -1 -1 0 -1 -1 0
          -1 -1 0 -1 -1 0
          -1 -1 0 -1 -1 0
          -1 -1 0 -1 -1 0
          -1 -1 0 -1 -1 0
          -1 -1 0 -1 -1 0
          -1 -1 0 -1 -1 0
          -1 -1 0 -1 -1 0
          -1 -1 0 -1 -1 0
          -1 -1 0 -1 -1 0
          -1 -1 0 -1 -1 0
          -1 -1 0 -1 -1 0
          -1 -1 0 -1 -1 0
          1 1 0 -1 -1 0
          -1 -1 0 -1 -1 0
          1 1 0 -1 -1 0
          1 1 0
          <InformationKey name="L2_NORM_RANGE" location="vtkDataArray" length="2">
            <Value index="0">
              1.4142135624
            </Value>
            <Value index="1">
              1.4142135624
            </Value>
          </InformationKey>
        </DataArray>
        <DataArray type="Float64" Name="Disp" NumberOfComponents="3" format="ascii" RangeMin="0" RangeMax="0.000013779238482777446">
          0.000013656171431081383 0.0000018374969415407344 0 0.000011837372689328489 0.000001827447183001679 0
          0.000010024493996526584 0.0000017993098530717864 0 0.000013650668056993934 2.8013653704170108e-8 0
          0.000008239268687083579 0.0000017445590995290222 0 0.000011827944529931497 2.6625352243633087e-8 0
          0.0000065127622128324465 0.0000016551401637506145 0 0.000010007177303826668 2.4700205162392897e-8 0
          0.000013651421918016467 -0.0000017805362855939456 0 0.0000048835255904135535 0.0000015229691665964908 0
          0.000008211651841085376 2.22178636380016e-8 0 0.000011831778522607865 -0.000001773063593135036 0
          0.000006472119852694593 1.9345700470706417e-8 0 0.000003398119716063015 0.0000013400337882454448 0
          0.000010017678970951171 -0.0000017489893088797912 0 0.000004827221617009964 1.6183582078719907e-8 0
          0.000008231745136065227 -0.0000016994044626038232 0 0.00000211173533951751 0.0000010979838068237186 0
          0.000003323585838672333 1.282323122944619e-8 0 0.000006504686293801183 -0.0000016159033417381606 0
          0.0000010841977990147088 7.904137352204479e-7 0 0.000004875096071374187 -0.0000014902003565235853 0
          0.0000020156759571769612 9.324039407020871e-9 0 4.0877445621867367e-7 3.9648836975739864e-7 0
          0.0000033894723341015645 -0.0000013141034230443562 0 9.681017606724257e-7 5.6795783531949246e-9 0
          0 0 0 0.0000021029608238860777 -0.0000010791170746580703 0
          2.3921968403420447e-7 1.7957333825929173e-9 0 0.0000010752972097917698 -7.786680067737708e-7 0
          0 0 0 4.00019363608501e-7 -3.914753618745676e-7 0
          0 0 0
          <InformationKey name="L2_NORM_RANGE" location="vtkDataArray" length="2">
            <Value index="0">
              0
            </Value>
            <Value index="1">
              1.3779238483e-05
            </Value>
          </InformationKey>
        </DataArray>
        <DataArray type="Float64" Name="Sld_traction" NumberOfComponents="3" format="ascii" RangeMin="0" RangeMax="1755.7144993994577">
          7.833020654397384 6.49248190228503 0 -23.097037259312636 -25.629079052518883 0
          -85.40400348567444 -41.11538197780811 0 17.913221936718422 -1.4846189563329433 0
          -171.73450710826563 -56.04279624117021 0 0 0 0
          -281.37486326450716 -70.20337591579977 0 0 0 0
          -4.828063960715913 -6.943788967839476 0 -414.36141996054596 -84.21084899808454 0
          0 0 0 -51.680010293330376 28.629982769951724 0
          0 0 0 -570.9323864570741 -97.84962375044988 0
          -115.80840352337898 43.823506771563885 0 0 0 0
          -203.47062529846062 57.999680729972155 0 -749.2777164009273 -113.10880391414786 0
          0 0 0 -314.14555969088536 71.67070180424246 0
          -961.5049453377057 -115.82765767100243 0 -447.73812314734687 85.244412253822 0
          0 0 0 -1123.6094058557794 -211.666260245875 0
          -604.6862843734857 98.56907966145033 0 0 0 0
          -1142.2116465195581 -1333.3739002832508 0 -783.6108751042588 113.71732380006497 0
          0 0 0 -997.6516145868546 116.62861714640881 0
          -420.39823637736407 -17.418118598243936 0 -1152.7538174283236 206.7975239448756 0
          -1136.2323742308558 1308.0498595847298 0
          <InformationKey name="L2_NORM_RANGE" location="vtkDataArray" length="2">
            <Value index="0">
              0
            </Value>
            <Value index="1">
              1755.7144994
            </Value>
          </InformationKey>
        </DataArray>
        <DataArray type="Float64" Name="Fld_traction" NumberOfComponents="3" format="ascii" RangeMin="0" RangeMax="38.621373793994735">
          24.54813454533641 -0.39653457003345927 0 38.15947422161386 5.955253215896898 0
          37.487216814309555 3.4587982656721974 0 14.875693391297018 -3.6956944185810925 0
          36.44921631813637 2.1126642117225787 0 0 0 0
          35.96693887296311 1.3071060750169312 0 0 0 0
          12.243506444348712 -1.5527192942666603 0 35.52421878122552 0.7379349628381965 0
          0 0 0 9.730120691277524 -0.849131269375018 0
          0 0 0 35.03357698033338 0.3679014120945169 0
          6.0976579623678075 0.5424402826737278 0 0 0 0
          3.9679295325888715 0.8255224666507379 0 34.62131934395358 0.15815055599142325 0
          0 0 0 2.5343148996732467 0.8854338608946947 0
          34.397739064439094 0.042919027509466766 0 1.6169997587341318 0.8137574543287407 0
          0 0 0 34.221171129964354 0.0006747005356565651 0
          0.9140293216020586 0.6646391520739402 0 0 0 0
          17.350862461104985 -16.808464076185093 0 0.4797957045631298 0.45234969919411855 0
          0 0 0 0.2875318666143779 0.24477934143595328 0
          0 0 0 0.30761655211137884 0.06371661332070024 0
          0.20277188876190488 0.20588124163684993 0
          <InformationKey name="L2_NORM_RANGE" location="vtkDataArray" length="2">
            <Value index="0">
              0
            </Value>
            <Value index="1">
              38.621373794
            </Value>
          </InformationKey>
        </DataArray>
        <DataArray type="Float64" Name="Velocity" NumberOfComponents="3" format="ascii" RangeMin="0" RangeMax="0.00046254607926864274">
          -0.00045817922882778286 -0.00006032470233251512 0 -0.00039672617265866267 -0.00006037555050484807 0
          -0.00033462800949534153 -0.000060028961455671014 0 -0.00045832732320233194 9.646255110901666e-7 0
          -0.0002728204728243838 -0.00005865168835742025 0 -0.00039684387361786747 9.142559755993295e-7 0
          -0.00021276101563841684 -0.00005575599208483515 0 -0.00033451677230519254 8.435302127654285e-7 0
          -0.00045833433258236336 0.00006227772493494839 0 -0.00015633314275072631 -0.00005101520613554777 0
          -0.0002722795028393874 7.53769279642842e-7 0 -0.0003969209716566996 0.00006223705263446813 0
          -0.00021165675450956453 6.517027463263085e-7 0 -0.0001056571795505067 -0.00004425642660326251 0
          -0.00033487112161872804 0.00006174442734211625 0 -0.000154580104869566 5.410905628235209e-7 0
          -0.0002730895628802778 0.000060181899232023274 0 -0.00006294854492147544 -0.000035444048855870746 0
          -0.00010322327439139087 4.252712213646071e-7 0 -0.00021305035711158282 0.000057076760360391234 0
          -0.000030261196149382087 -0.0000247294821988845 0 -0.0001566353807073744 0.0000521104778935418 0
          -0.00005982944879470277 3.0635082883356076e-7 0 -0.000010190128377466968 -0.000011959124355798022 0
          -0.00010596846339746798 0.0000451166109596903 0 -0.000026633150152665726 1.8371016307590125e-7 0
          0 0 0 -0.00006326518985648288 0.00003606480307805001 0
          -0.0000052642924852007785 5.316670657892245e-8 0 -0.00003058531877580598 0.000025111410372753822 0
          0 0 0 -0.000010511158412164606 0.000012118186925978255 0
          0 0 0
          <InformationKey name="L2_NORM_RANGE" location="vtkDataArray" length="2">
            <Value index="0">
              0
            </Value>
            <Value index="1">
              0.00046254607927
            </Value>
          </InformationKey>
        </DataArray>
      </PointData>
      <CellData>
        <DataArray type="UInt8" Name="vtkGhostType" format="ascii" RangeMin="0" RangeMax="0">
          0 0 0 0 0 0
          0 0 0 0 0 0
          0 0 0 0 0 0
          0 0
        </DataArray>
        <DataArray type="Float64" Name="Gauss Stress" NumberOfComponents="6" format="ascii" RangeMin="27.532165417011402" RangeMax="1302.4533578295811">
          411.2955292691539 1222.4911083348104 0 180.9315532655499 0 0
          -424.22468558762466 -1210.6264110980853 0 175.68956570345676 0 0
          -87.56356639064052 888.8031942500273 0 160.63380673366703 0 0
          53.43910351988677 -876.9997942603302 0 161.80926099831427 0 0
          -19.91431969565639 727.7509824419326 0 144.09146098069604 0 0
          -14.387160634393439 -716.2288323490159 0 144.59965490563997 0 0
          -29.31962596497155 565.162955613579 0 127.4530652360241 0 0
          -4.717815619485378 -554.2366073101023 0 127.88861291178375 0 0
          -28.155358669755515 424.8860379111904 0 110.75335816439018 0 0
          -5.681340186152653 -414.97013559184114 0 111.38616273124353 0 0
          -28.448252198038006 303.37343854685207 0 93.97302662361884 0 0
          -5.000061976594637 -294.98015754733746 0 94.89213810652149 0 0
          -28.43249313043944 200.91979810428816 0 77.07730606775266 0 0
          -4.265769542530052 -194.68356326477402 0 78.36780711949073 0 0
          -28.59993093014171 117.34815735955505 0 59.859641892716546 0 0
          -3.008111159242894 -114.00885602669179 0 61.53193936386767 0 0
          -28.26252531406184 52.8878028772926 0 41.58320488578546 0 0
          -1.3792453704600263 -53.50355174752055 0 43.91928979005448 0 0
          -30.841772828182584 6.827458611484824 0 22.298647759788278 0 0
          2.7485179540476983 -12.499313493406971 0 24.376893645407133 0 0
          <InformationKey name="L2_NORM_RANGE" location="vtkDataArray" length="2">
            <Value index="0">
              27.532165417
            </Value>
            <Value index="1">
              1302.4533578
            </Value>
          </InformationKey>
        </DataArray>
        <DataArray type="Float64" Name="Gauss Strain" NumberOfComponents="6" format="ascii" RangeMin="3.496555415974703e-7" RangeMax="0.000005389072385906281">
          -0.0000016955382811933983 0.0000039828135497688155 0 0.0000025330314904574014 0 0
          0.0000016080064529772065 -0.000003896822518528743 0 0.0000024596637653761327 0 0
          -0.0000028564269470565673 0.000003978127735115855 0 0.0000022488721617221183 0 0
          0.000002680033837382245 -0.000003833050958884642 0 0.00000226533086832624 0 0
          -0.00000212134924629237 0.0000031122996166643713 0 0.000002017278860649255 0 0
          0.000001945009203710435 -0.000002967890592758815 0 0.0000020243968357204126 0 0
          -0.0000017056030058304472 0.0000024557700620264633 0 0.0000017843419170586762 0 0
          0.0000015320440775873354 -0.000002314592354973888 0 0.0000017904416416410405 0 0
          -0.0000013079361110002186 0.0000018633508398202547 0 0.000001550546371337277 0 0
          0.0000011380525695020571 -0.0000017269717482448765 0 0.0000015594069811003256 0 0
          -9.68929900230231e-7 0.0000013538204944180121 0 0.0000013156220010543404 0 0
          8.049429251061335e-7 -0.0000012249191421176418 0 0.00000132849035991021 0 0
          -6.819928030088462e-7 9.234726039003549e-7 0 0.000001079082099524321 0 0
          5.271970722892094e-7 -8.057280985185323e-7 0 0.0000010971495334382094 0 0
          -4.4869500184785416e-7 5.729414017247025e-7 0 8.380349182659714e-7 0 0
          3.065904016219534e-7 -4.704150270151696e-7 0 8.614472589258744e-7 0 0
          -2.667886425111732e-7 3.0126361444393623e-7 0 5.821648621157305e-7 0 0
          1.4401697710775263e-7 -2.208532166592114e-7 0 6.148700927478571e-7 0 0
          -1.4865238448513726e-7 1.1503224248143873e-7 0 3.121810813988725e-7 0 0
          4.6541815595935176e-8 -6.0193008299958e-8 0 3.412765138749742e-7 0 0
          <InformationKey name="L2_NORM_RANGE" location="vtkDataArray" length="2">
            <Value index="0">
              3.496555416e-07
            </Value>
            <Value index="1">
              5.3890723859e-06
            </Value>
          </InformationKey>
        </DataArray>
        <DataArray type="Float64" Name="Btraction" NumberOfComponents="3" format="ascii" RangeMin="0.14430422810307172" RangeMax="19.05755465357192">
          12.893008397767332 -4.201947343912359 0 0.12759711021832093 0.06739946373938753 0
          17.15472754860086 0.010898432011280833 0 0.14878710468143916 0.07712398868916337 0
          17.254764602098163 0.0502673958752225 0 0.1918318927943769 0.17428226015751794 0
          17.41372408107174 0.131512992021485 0 0.3484562565412971 0.2792472128170147 0
          17.639448940389723 0.27645909373317834 0 0.6327572700840476 0.3695991516006702 0
          17.87278941354716 0.5112602594637818 0 1.0378286646018444 0.42479782880585876 0
          18.10403879777487 0.8549425716848775 0 1.6255611080655292 0.42773908188635806 0
          18.48410828311148 1.392865619348694 0 2.5163968737391698 0.34199068733111637 0
          18.911672758980856 2.353512870392273 0 3.956944663411333 -0.07667274667532262 0
          15.676902191737568 1.3896796614658595 0 6.779799958911432 -1.3121034282119381 0
          <InformationKey name="L2_NORM_RANGE" location="vtkDataArray" length="2">
            <Value index="0">
              0.1443042281
            </Value>
            <Value index="1">
              19.057554654
            </Value>
          </InformationKey>
        </DataArray>
      </CellData>
      <Points>
        <DataArray type="Float32" Name="Points" NumberOfComponents="3" format="ascii" RangeMin="1.4500000476837158" RangeMax="1.6286497021092299">
          1.4500000476837158 0.5 0 1.4500000476837158 0.44999998807907104 0
          1.4500000476837158 0.4000000059604645 0 1.5 0.5 0
          1.4500000476837158 0.3499999940395355 0 1.5 0.44999998807907104 0
          1.4500000476837158 0.30000001192092896 0 1.5 0.4000000059604645 0
          1.5499999523162842 0.5 0 1.4500000476837158 0.25 0
          1.5 0.3499999940395355 0 1.5499999523162842 0.44999998807907104 0
          1.5 0.30000001192092896 0 1.4500000476837158 0.20000000298023224 0
          1.5499999523162842 0.4000000059604645 0 1.5 0.25 0
          1.5499999523162842 0.3499999940395355 0 1.4500000476837158 0.15000000596046448 0
          1.5 0.20000000298023224 0 1.5499999523162842 0.30000001192092896 0
          1.4500000476837158 0.10000000149011612 0 1.5499999523162842 0.25 0
          1.5 0.15000000596046448 0 1.4500000476837158 0.05000000074505806 0
          1.5499999523162842 0.20000000298023224 0 1.5 0.10000000149011612 0
          1.4500000476837158 0 0 1.5499999523162842 0.15000000596046448 0
          1.5 0.05000000074505806 0 1.5499999523162842 0.10000000149011612 0
          1.5 0 0 1.5499999523162842 0.05000000074505806 0
          1.5499999523162842 0 0
          <InformationKey name="L2_NORM_RANGE" location="vtkDataArray" length="2">
            <Value index="0">
              1.4500000477
            </Value>
            <Value index="1">
              1.6286497021
            </Value>
          </InformationKey>
        </DataArray>
      </Points>
      <Cells>
        <DataArray type="Int64" Name="connectivity" format="ascii" RangeMin="0" RangeMax="32">
          30 28 23 26 32 31
          28 30 28 25 20 23
          31 29 25 28 25 22
          17 20 29 27 22 25
          22 18 13 17 27 24
          18 22 18 15 9 13
          24 21 15 18 15 12
          6 9 21 19 12 15
          12 10 4 6 19 16
          10 12 10 7 2 4
          16 14 7 10 7 5
          1 2 14 11 5 7
          5 3 0 1 11 8
          3 5
        </DataArray>
        <DataArray type="Int64" Name="offsets" format="ascii" RangeMin="4" RangeMax="80">
          4 8 12 16 20 24
          28 32 36 40 44 48
          52 56 60 64 68 72
          76 80
        </DataArray>
        <DataArray type="UInt8" Name="types" format="ascii" RangeMin="9" RangeMax="9">
          9 9 9 9 9 9
          9 9 9 9 9 9
          9 9 9 9 9 9
          9 9
        </DataArray>
      </Cells>
    </Piece>
  </UnstructuredGrid>
</VTKFile>
