<?xml version="1.0"?>
<VTKFile type="UnstructuredGrid" version="0.1" byte_order="LittleEndian" header_type="UInt32" compressor="vtkZLibDataCompressor">
  <UnstructuredGrid>
    <Piece NumberOfPoints="33" NumberOfCells="20">
      <PointData>
        <DataArray type="Float64" Name="sld_BC" NumberOfComponents="3" format="ascii" RangeMin="0" RangeMax="0">
          0 0 0 0 0 0
          0 0 0 0 0 0
          0 0 0 0 0 0
          0 0 0 0 0 0
          0 0 0 0 0 0
          0 0 0 0 0 0
          0 0 0 0 0 0
          0 0 0 0 0 0
          0 0 0 0 0 0
          0 0 0 0 0 0
          0 0 0 0 0 0
          0 0 0 0 0 0
          0 0 0 0 0 0
          0 0 0 0 0 0
          0 0 0 0 0 0
          0 0 0 0 0 0
          0 0 0
          <InformationKey name="L2_NORM_RANGE" location="vtkDataArray" length="2">
            <Value index="0">
              0
            </Value>
            <Value index="1">
              0
            </Value>
          </InformationKey>
        </DataArray>
        <DataArray type="Float64" Name="sld_FIXNO" NumberOfComponents="3" format="ascii" RangeMin="1.4142135623730951" RangeMax="1.4142135623730951">
          -1 -1 0 -1 -1 0
          -1 -1 0 -1 -1 0
          -1 -1 0 -1 -1 0
          -1 -1 0 -1 -1 0
          -1 -1 0 -1 -1 0
          -1 -1 0 -1 -1 0
          -1 -1 0 -1 -1 0
          -1 -1 0 -1 -1 0
          -1 -1 0 -1 -1 0
          -1 -1 0 -1 -1 0
          -1 -1 0 -1 -1 0
          -1 -1 0 -1 -1 0
          -1 -1 0 -1 -1 0
          1 1 0 -1 -1 0
          -1 -1 0 -1 -1 0
          1 1 0 -1 -1 0
          1 1 0
          <InformationKey name="L2_NORM_RANGE" location="vtkDataArray" length="2">
            <Value index="0">
              1.4142135624
            </Value>
            <Value index="1">
              1.4142135624
            </Value>
          </InformationKey>
        </DataArray>
        <DataArray type="Float64" Name="Disp" NumberOfComponents="3" format="ascii" RangeMin="0" RangeMax="0.000018778580263084817">
          0.000018611793713781394 0.0000024972407678808234 0 0.000016130832868837783 0.000002485416685392123 0
          0.000013654029870490142 0.0000024499274662375787 0 0.000018605961463866177 2.8187564015289998e-8 0
          0.000011211985937759542 0.000002377529179171112 0 0.000016120113897330947 2.6825007243974793e-8 0
          0.00000884896248781228 0.000002256233050850178 0 0.000013632727142109216 2.4916047603436272e-8 0
          0.00001860700277543701 -0.0000024399445584666374 0 0.0000066202355757649755 0.0000020747615135332556 0
          0.000011176255479163994 2.2439823548529353e-8 0 0.000016125184024209258 -0.0000024306456902084904 0
          0.000008794894021860487 1.9563561010141153e-8 0 0.000004591855837405623 0.000001822634158825106 0
          0.000013647145984600735 -0.000002399185756382372 0 0.000006544247979766368 1.638695788485559e-8 0
          0.000011204382467006294 -0.0000023319400086099687 0 0.000002840748388632655 0.0000014896051685477912 0
          0.000004490697767170746 1.300160409358493e-8 0 0.000008840799343685218 -0.00000221656909878284 0
          0.0000014486994474401344 0.0000010686565031683329 0 0.0000066117156497494845 -0.0000020415937726711075 0
          0.0000027104255086391136 9.467048292840866e-9 0 5.403518643850556e-7 5.339638819701545e-7 0
          0.000004583118220233536 -0.0000017963538689349518 0 0.000001291831498046512 5.77696162143716e-9 0
          0 0 0 0.0000028318871384659563 -0.000001470457636008454 0
          3.129627411866028e-7 1.8377297726005384e-9 0 0.0000014397152806719734 -0.0000010567174481418227 0
          0 0 0 5.315185985831633e-7 -5.288578856039886e-7 0
          0 0 0
          <InformationKey name="L2_NORM_RANGE" location="vtkDataArray" length="2">
            <Value index="0">
              0
            </Value>
            <Value index="1">
              1.8778580263e-05
            </Value>
          </InformationKey>
        </DataArray>
        <DataArray type="Float64" Name="Sld_traction" NumberOfComponents="3" format="ascii" RangeMin="0" RangeMax="2354.540539125862">
          7.425797580734302 8.508354543206279 0 -36.03459058801342 -34.48621957112798 0
          -121.01352872837607 -57.80156215429778 0 22.52678334571906 -1.4187854981024797 0
          -242.3704294195943 -79.30387281615631 0 0 0 0
          -397.21960677454837 -98.80368256362686 0 0 0 0
          -5.17848163214154 -8.89294200775447 0 -583.5066453437562 -116.98567831553784 0
          0 0 0 -64.52638636255874 37.494045930172945 0
          0 0 0 -799.5800189943974 -133.6193981994593 0
          -151.34865286780865 60.523181766895284 0 0 0 0
          -274.05386061979823 81.28007089864268 0 -1041.232168006989 -151.46911346292663 0
          0 0 0 -429.9517124496987 100.29651322417959 0
          -1323.1573021084482 -151.71190746988978 0 -616.857400393583 118.05100330530202 0
          0 0 0 -1529.8773025516693 -274.8929893868213 0
          -833.3214473136804 134.37551688149648 0 0 0 0
          -1532.5897888580323 -1787.4645981040283 0 -1075.5674885060719 152.1180877693841 0
          0 0 0 -1359.3363719670224 152.55381120715117 0
          -553.2670185228549 -17.787126743264125 0 -1559.0031737260263 270.0076083189421 0
          -1526.423893474163 1761.7370959307957 0
          <InformationKey name="L2_NORM_RANGE" location="vtkDataArray" length="2">
            <Value index="0">
              0
            </Value>
            <Value index="1">
              2354.5405391
            </Value>
          </InformationKey>
        </DataArray>
        <DataArray type="Float64" Name="Fld_traction" NumberOfComponents="3" format="ascii" RangeMin="0" RangeMax="38.574819531585206">
          24.51445213860971 -0.3715649704571477 0 38.109479452163605 5.973631875123143 0
          37.44935438351384 3.480563995198906 0 14.869397736103602 -3.6689441527394124 0
          36.42161780461847 2.134727178207169 0 0 0 0
          35.94774944545544 1.3269937208515312 0 0 0 0
          12.269361048622763 -1.5594624563235766 0 35.51114700662654 0.7539981572330096 0
          0 0 0 9.778086728445949 -0.8818831333399305 0
          0 0 0 35.02332555533118 0.3792305313857904 0
          6.13622990692613 0.5131895940587224 0 0 0 0
          3.999765056094809 0.7988750165337594 0 34.61024859888253 0.16508013303093913 0
          0 0 0 2.5610028953601756 0.8624331870034684 0
          34.385637507406024 0.04627887792602683 0 1.6399502774705756 0.7961236593560342 0
          0 0 0 34.20636734852019 0.0014854253893448505 0
          0.930942207694512 0.6530905764294663 0 0 0 0
          17.34235217506386 -16.80009268685194 0 0.4920050715915084 0.4474836833380132 0
          0 0 0 0.290445647618684 0.24442237555288204 0
          0 0 0 0.3032340944993727 0.06432015019770816 0
          0.19971453241128317 0.2026891533268927 0
          <InformationKey name="L2_NORM_RANGE" location="vtkDataArray" length="2">
            <Value index="0">
              0
            </Value>
            <Value index="1">
              38.574819532
            </Value>
          </InformationKey>
        </DataArray>
        <DataArray type="Float64" Name="Velocity" NumberOfComponents="3" format="ascii" RangeMin="0" RangeMax="0.0002625770240213199">
          0.0002599543375197825 0.00003393494927891156 0 0.00022498776547829076 0.0000340567704092303 0
          0.00018944657453679928 0.00003400425692903935 0 0.00026011558692744214 -9.715819235349626e-7 0
          0.00015391178279734532 0.000033332885171736675 0 0.00022515709892188932 -9.22242175612998e-7 0
          0.00011931300463922341 0.000031712276600852625 0 0.00018949477877389074 -8.521639104071635e-7 0
          0.0002601110982855414 -0.00003590139402004068 0 0.00008686474333666937 0.000028943512258077184 0
          0.0001536953573162428 -7.626476760639517e-7 0 0.0002251847515926437 -0.000035933768751529925 0
          0.00011874578774292885 -6.604171679036977e-7 0 0.000057907734696802385 0.000024952411780076045 0
          0.0001896924410727454 -0.00003573656944201299 0 0.0000858990503593098 -5.492255950689484e-7 0
          0.00015418406964263503 -0.00003488047739177747 0 0.000033788022956869576 0.000019779194386907814 0
          0.000056538797251454355 -4.3240613593015716e-7 0 0.00011960583511622145 -0.00003305013007860406 0
          0.00001568113021236508 0.00001359977148096911 0 0.0000871705975723624 -0.000030054741247640895 0
          0.000032039466736216695 -3.1207118426636033e-7 0 0.000004927032050811696 0.0000064601038672877845 0
          0.00005822262795218918 -0.00002582659312406646 0 0.000013683960657702276 -1.8760549380559073e-7 0
          0 0 0 0.00003410813727328778 -0.00002041118062403468 0
          0.000002314570199104844 -5.4846562179227275e-8 0 0.000016008595940597837 -0.000013989432718031738 0
          0 0 0 0.000005251189013178112 -0.00000662288597680141 0
          0 0 0
          <InformationKey name="L2_NORM_RANGE" location="vtkDataArray" length="2">
            <Value index="0">
              0
            </Value>
            <Value index="1">
              0.00026257702402
            </Value>
          </InformationKey>
        </DataArray>
      </PointData>
      <CellData>
        <DataArray type="UInt8" Name="vtkGhostType" format="ascii" RangeMin="0" RangeMax="0">
          0 0 0 0 0 0
          0 0 0 0 0 0
          0 0 0 0 0 0
          0 0
        </DataArray>
        <DataArray type="Float64" Name="Gauss Stress" NumberOfComponents="6" format="ascii" RangeMin="34.17335810465486" RangeMax="1753.1355723968356">
          556.3441385782758 1646.6117573067327 0 229.42374631238755 0 0
          -569.0967851888221 -1634.2101004681415 0 224.12934416825814 0 0
          -107.76555883322379 1210.6389059079725 0 208.73320645567145 0 0
          73.64282819435772 -1198.3082937627505 0 209.90010835907157 0 0
          -17.309260532505277 999.5792078526754 0 191.17440022724412 0 0
          -16.97907179697205 -987.5550342372783 0 191.66341303465134 0 0
          -30.033613859408263 781.4463246182271 0 172.59162761436204 0 0
          -3.978271855611297 -770.0530019073999 0 173.00359002808128 0 0
          -28.591302319347363 589.4796993252983 0 152.8142531692987 0 0
          -5.210014627206903 -579.1405506466917 0 153.425398556016 0 0
          -29.12505174784964 420.44070395669513 0 131.67333193320542 0 0
          -4.277263291525458 -411.6771781351916 0 132.57420662968138 0 0
          -29.291536680852737 276.3715397149927 0 109.02573111129907 0 0
          -3.3492232087444336 -269.82665305086635 0 110.30243675764183 0 0
          -29.66053300898973 158.77083208744236 0 84.58656714098942 0 0
          -1.876324996465513 -155.19233760814834 0 86.24883192249698 0 0
          -29.515276981702144 69.65030679463925 0 57.56433756292457 0 0
          -0.03857710958991589 -70.1015404985394 0 59.89277351870386 0 0
          -32.38221657045914 10.097674302255447 0 27.9750008768509 0 0
          4.392076960099267 -15.679109835838597 0 30.04485944186217 0 0
          <InformationKey name="L2_NORM_RANGE" location="vtkDataArray" length="2">
            <Value index="0">
              34.173358105
            </Value>
            <Value index="1">
              1753.1355724
            </Value>
          </InformationKey>
        </DataArray>
        <DataArray type="Float64" Name="Gauss Strain" NumberOfComponents="6" format="ascii" RangeMin="4.323455605342452e-7" RangeMax="0.000007233047262626089">
          -0.000002273875042951845 0.00000535796703543534 0 0.0000032119144757713186 0 0
          0.000002185575060986711 -0.000005270248940175693 0 0.0000031378282298660747 0 0
          -0.000003842424005556788 0.000005386383774119707 0 0.0000029222628736654806 0 0
          0.000003664545026024757 -0.0000052391361074488616 0 0.000002938603638430741 0 0
          -0.000002871532194026471 0.000004246671515911737 0 0.0000026764386610324323 0 0
          0.0000026938317194830086 -0.0000041002153574332115 0 0.0000026832908208497286 0 0
          -0.000002314198773140097 0.0000033661512301302876 0 0.0000024162808853819035 0 0
          0.0000021394327534979274 -0.000003223099757365677 0 0.0000024220522472419234 0 0
          -0.000001770631607334039 0.0000025558599655722825 0 0.0000021393982818243573 0 0
          0.0000015997072186635375 -0.000002417811859917185 0 0.0000021479569234208785 0 0
          -0.000001299562165296697 0.0000018473953569825285 0 0.0000018434258977000158 0 0
          0.0000011347291096752699 -0.0000017170729973703391 0 0.0000018560397175658064 0 0
          -8.968664069464172e-7 0.000001242773931445229 0 0.0000015263598523456154 0 0
          7.414465549165915e-7 -0.000001123896622906573 0 0.0000015442345650456113 0 0
          -5.691333753721217e-7 7.49885785855664e-7 0 0.0000011842117931772483 0 0
          4.266573356281888e-7 -6.465551444234662e-7 0 0.0000012074838487191002 0 0
          -3.189853411966759e-7 3.7517367237893673e-7 0 8.059007042919551e-7 0 0
          1.9612203354391067e-7 -2.9431879253194454e-7 0 8.384988908022356e-7 0 0
          -1.6427887500336524e-7 1.3308036754533514e-7 0 3.9165002790293213e-7 0 0
          6.234817281902671e-8 -7.815014022027889e-8 0 4.206280359692518e-7 0 0
          <InformationKey name="L2_NORM_RANGE" location="vtkDataArray" length="2">
            <Value index="0">
              4.3234556053e-07
            </Value>
            <Value index="1">
              7.2330472626e-06
            </Value>
          </InformationKey>
        </DataArray>
        <DataArray type="Float64" Name="Btraction" NumberOfComponents="3" format="ascii" RangeMin="0.142357667838794" RangeMax="19.037002111286338">
          12.88717988089601 -4.199651815365648 0 0.12573715672766395 0.06675232588115022 0
          17.14800121398155 0.01194107582884292 0 0.14841993552951416 0.07718563143764755 0
          17.248971526572138 0.0528397527392415 0 0.1956126798025481 0.17297651472272382 0
          17.408393538553426 0.13607766610418237 0 0.35573681982150507 0.27514356494186987 0
          17.633618140489432 0.28330717215469997 0 0.6427231212912718 0.3623035589463751 0
          17.864724113020493 0.5202479695211351 0 1.0502382932076877 0.4146392115898756 0
          18.092341812518477 0.8654302247646748 0 1.6401919878637459 0.4153270508843069 0
          18.467743047033075 1.4038227933515184 0 2.533998740755234 0.32801615264812045 0
          18.88970845891936 2.3635489675805115 0 3.9785791588430195 -0.09217338482030199 0
          15.655982897693326 1.4005167261664986 0 6.78468969618159 -1.307101652265747 0
          <InformationKey name="L2_NORM_RANGE" location="vtkDataArray" length="2">
            <Value index="0">
              0.14235766784
            </Value>
            <Value index="1">
              19.037002111
            </Value>
          </InformationKey>
        </DataArray>
      </CellData>
      <Points>
        <DataArray type="Float32" Name="Points" NumberOfComponents="3" format="ascii" RangeMin="1.4500000476837158" RangeMax="1.6286497021092299">
          1.4500000476837158 0.5 0 1.4500000476837158 0.44999998807907104 0
          1.4500000476837158 0.4000000059604645 0 1.5 0.5 0
          1.4500000476837158 0.3499999940395355 0 1.5 0.44999998807907104 0
          1.4500000476837158 0.30000001192092896 0 1.5 0.4000000059604645 0
          1.5499999523162842 0.5 0 1.4500000476837158 0.25 0
          1.5 0.3499999940395355 0 1.5499999523162842 0.44999998807907104 0
          1.5 0.30000001192092896 0 1.4500000476837158 0.20000000298023224 0
          1.5499999523162842 0.4000000059604645 0 1.5 0.25 0
          1.5499999523162842 0.3499999940395355 0 1.4500000476837158 0.15000000596046448 0
          1.5 0.20000000298023224 0 1.5499999523162842 0.30000001192092896 0
          1.4500000476837158 0.10000000149011612 0 1.5499999523162842 0.25 0
          1.5 0.15000000596046448 0 1.4500000476837158 0.05000000074505806 0
          1.5499999523162842 0.20000000298023224 0 1.5 0.10000000149011612 0
          1.4500000476837158 0 0 1.5499999523162842 0.15000000596046448 0
          1.5 0.05000000074505806 0 1.5499999523162842 0.10000000149011612 0
          1.5 0 0 1.5499999523162842 0.05000000074505806 0
          1.5499999523162842 0 0
          <InformationKey name="L2_NORM_RANGE" location="vtkDataArray" length="2">
            <Value index="0">
              1.4500000477
            </Value>
            <Value index="1">
              1.6286497021
            </Value>
          </InformationKey>
        </DataArray>
      </Points>
      <Cells>
        <DataArray type="Int64" Name="connectivity" format="ascii" RangeMin="0" RangeMax="32">
          30 28 23 26 32 31
          28 30 28 25 20 23
          31 29 25 28 25 22
          17 20 29 27 22 25
          22 18 13 17 27 24
          18 22 18 15 9 13
          24 21 15 18 15 12
          6 9 21 19 12 15
          12 10 4 6 19 16
          10 12 10 7 2 4
          16 14 7 10 7 5
          1 2 14 11 5 7
          5 3 0 1 11 8
          3 5
        </DataArray>
        <DataArray type="Int64" Name="offsets" format="ascii" RangeMin="4" RangeMax="80">
          4 8 12 16 20 24
          28 32 36 40 44 48
          52 56 60 64 68 72
          76 80
        </DataArray>
        <DataArray type="UInt8" Name="types" format="ascii" RangeMin="9" RangeMax="9">
          9 9 9 9 9 9
          9 9 9 9 9 9
          9 9 9 9 9 9
          9 9
        </DataArray>
      </Cells>
    </Piece>
  </UnstructuredGrid>
</VTKFile>
