<?xml version="1.0"?>
<VTKFile type="UnstructuredGrid" version="0.1" byte_order="LittleEndian" header_type="UInt32" compressor="vtkZLibDataCompressor">
  <UnstructuredGrid>
    <Piece NumberOfPoints="33" NumberOfCells="20">
      <PointData>
        <DataArray type="Float64" Name="sld_BC" NumberOfComponents="3" format="ascii" RangeMin="0" RangeMax="0">
          0 0 0 0 0 0
          0 0 0 0 0 0
          0 0 0 0 0 0
          0 0 0 0 0 0
          0 0 0 0 0 0
          0 0 0 0 0 0
          0 0 0 0 0 0
          0 0 0 0 0 0
          0 0 0 0 0 0
          0 0 0 0 0 0
          0 0 0 0 0 0
          0 0 0 0 0 0
          0 0 0 0 0 0
          0 0 0 0 0 0
          0 0 0 0 0 0
          0 0 0 0 0 0
          0 0 0
          <InformationKey name="L2_NORM_RANGE" location="vtkDataArray" length="2">
            <Value index="0">
              0
            </Value>
            <Value index="1">
              0
            </Value>
          </InformationKey>
        </DataArray>
        <DataArray type="Float64" Name="sld_FIXNO" NumberOfComponents="3" format="ascii" RangeMin="1.4142135623730951" RangeMax="1.4142135623730951">
          -1 -1 0 -1 -1 0
          -1 -1 0 -1 -1 0
          -1 -1 0 -1 -1 0
          -1 -1 0 -1 -1 0
          -1 -1 0 -1 -1 0
          -1 -1 0 -1 -1 0
          -1 -1 0 -1 -1 0
          -1 -1 0 -1 -1 0
          -1 -1 0 -1 -1 0
          -1 -1 0 -1 -1 0
          -1 -1 0 -1 -1 0
          -1 -1 0 -1 -1 0
          -1 -1 0 -1 -1 0
          1 1 0 -1 -1 0
          -1 -1 0 -1 -1 0
          1 1 0 -1 -1 0
          1 1 0
          <InformationKey name="L2_NORM_RANGE" location="vtkDataArray" length="2">
            <Value index="0">
              1.4142135624
            </Value>
            <Value index="1">
              1.4142135624
            </Value>
          </InformationKey>
        </DataArray>
        <DataArray type="Float64" Name="Disp" NumberOfComponents="3" format="ascii" RangeMin="0" RangeMax="0.000017303533466231205">
          0.00001714968965959895 0.000002302263016344597 0 0.000014864572267778748 0.0000022909712970256 0
          0.00001258412139847426 0.0000022576898735722733 0 0.00001714394367364228 2.828984349137981e-8 0
          0.00001033626982867194 0.0000021905803732631512 0 0.000014854232102772955 2.6912896836652867e-8 0
          0.000008161323507182802 0.0000020788147492086716 0 0.00001256400633760626 2.4990067408396557e-8 0
          0.000017144882147029124 -0.000002244750226972034 0 0.000006109568328800132 0.0000019120424462708 0
          0.000010302960337251774 2.2499557823804105e-8 0 0.000014858915729821059 -0.000002236014686253571 0
          0.000008111256484927365 1.9609429823189176e-8 0 0.000004241274494011723 0.0000016804807041610673 0
          0.000012577233091346892 -0.0000022067943034436716 0 0.000006039433524564119 1.642000794195814e-8 0
          0.000010328664194810718 -0.0000021448679274762365 0 0.0000026269669167499527 0.0000013744006412056304 0
          0.000004148009539272949 1.3023468073560233e-8 0 0.00000815315948591637 -0.0000020390562908776038 0
          0.00000134201510854074 9.869196457640907e-7 0 0.000006101047390320927 -0.0000018788065811258547 0
          0.0000025067675031195196 9.479700072635378e-9 0 5.01940808199716e-7 4.936343605476352e-7 0
          0.000004232535268653149 -0.0000016541553577970224 0 0.0000011971553701318782 5.782796886509653e-9 0
          0 0 0 0.0000026181018846107904 -0.0000013552271434517329 0
          2.9152452616028956e-7 1.8392165533785178e-9 0 0.0000013330270054355179 -9.749684414485026e-7 0
          0 0 0 4.93103100970473e-7 -4.885240439663392e-7 0
          0 0 0
          <InformationKey name="L2_NORM_RANGE" location="vtkDataArray" length="2">
            <Value index="0">
              0
            </Value>
            <Value index="1">
              1.7303533466e-05
            </Value>
          </InformationKey>
        </DataArray>
        <DataArray type="Float64" Name="Sld_traction" NumberOfComponents="3" format="ascii" RangeMin="0" RangeMax="2179.0849119799004">
          7.610479587404992 7.86328194827989 0 -32.05796537531528 -31.853055002753475 0
          -110.25157876833458 -52.84012945630121 0 21.164062611489552 -1.4725863277103317 0
          -221.1538542384295 -72.4026864327458 0 0 0 0
          -362.56565497044943 -90.34931676627197 0 0 0 0
          -5.091734876656596 -8.297027601642215 0 -533.0925364609641 -107.34357272060709 0
          0 0 0 -60.7087432073654 34.86447418463328 0
          0 0 0 -731.6784910612744 -123.15437743345616 0
          -140.70691980469405 55.563114789793175 0 0 0 0
          -252.93334987384387 74.37552491164841 0 -954.8442255754469 -140.30994684333822 0
          0 0 0 -395.37208903881015 91.83534994154874 0
          -1216.5326715541712 -141.34052115674942 0 -566.499657547199 108.39889934661515 0
          0 0 0 -1410.4804589419168 -256.5685648184266 0
          -765.460397336418 123.89831457348613 0 0 0 0
          -1418.2149373770628 -1654.4115101808934 0 -989.2109465831768 140.94457664297403 0
          0 0 0 -1252.7309521698944 142.16834755092577 0
          -514.5576333623771 -17.80303034306057 0 -1439.6130441638572 251.67049046543875 0
          -1412.0394278577364 1628.652950980613 0
          <InformationKey name="L2_NORM_RANGE" location="vtkDataArray" length="2">
            <Value index="0">
              0
            </Value>
            <Value index="1">
              2179.084912
            </Value>
          </InformationKey>
        </DataArray>
        <DataArray type="Float64" Name="Fld_traction" NumberOfComponents="3" format="ascii" RangeMin="0" RangeMax="38.65153504737456">
          24.57045152052582 -0.4167776763930707 0 38.19216917212345 5.941327751128276 0
          37.511656419100646 3.443333942470745 0 14.879066139692497 -3.718483187242375 0
          36.46703490986364 2.097436864768847 0 0 0 0
          35.97931961884314 1.2935806740726472 0 0 0 0
          12.223530333728052 -1.5508980084635844 0 35.53270761304069 0.7271088891789945 0
          0 0 0 9.693937469286118 -0.8288776273157846 0
          0 0 0 35.040366609811024 0.360306549978242 0
          6.068618138592957 0.5596558794108112 0 0 0 0
          3.9446388330610263 0.8405780480049634 0 34.62877663498966 0.15352665016638806 0
          0 0 0 2.5159552231893505 0.8979820145115606 0
          34.40597312396507 0.04069427443620363 0 1.6024357912988119 0.8230005886480846 0
          0 0 0 34.23127186517255 0.00014348360289807068 0
          0.9045097322366524 0.6703291828389385 0 0 0 0
          17.356656609165615 -16.814162650345846 0 0.47406686279436155 0.4542926735935413 0
          0 0 0 0.2880046611768159 0.24437354249781676 0
          0 0 0 0.31256741216134254 0.06316727998444599 0
          0.20565928873283473 0.2088425886553501 0
          <InformationKey name="L2_NORM_RANGE" location="vtkDataArray" length="2">
            <Value index="0">
              0
            </Value>
            <Value index="1">
              38.651535047
            </Value>
          </InformationKey>
        </DataArray>
        <DataArray type="Float64" Name="Velocity" NumberOfComponents="3" format="ascii" RangeMin="0" RangeMax="0.0006035123245008897">
          0.0005979199579684855 0.00007891534532466967 0 0.000517814155796673 0.0000789165150658049 0
          0.00043701310557324853 0.00007836416227569048 0 0.0005980583478682657 -9.535779196017776e-7 0
          0.00035670051848791834 0.0000764925393067854 0 0.0005178953765315258 -9.027541918785392e-7 0
          0.0002787034674124311 0.00007270297550315743 0 0.0004367899336563763 -8.319357229252825e-7 0
          0.0005980727417428698 -0.00008084628259007191 0 0.00020537485228618952 0.00006657813732252013 0
          0.00035593184268604337 -7.425015122107421e-7 0 0.0005180064599452275 -0.00008075509635920955 0
          0.0002772222197988755 -6.411535722269979e-7 0 0.00013938337066845503 0.00005787430323988742 0
          0.00043725328643455703 -0.00008005662712467145 0 0.00020306858117173228 -5.316335282939922e-7 0
          0.0003569663252300974 -0.0000780004378269198 0 0.00008355780801077317 0.00004650072223114722 0
          0.0001362002224154155 -4.172617476000458e-7 0 0.0002789892847961903 -0.00007400287832596895 0
          0.000040573888530423357 0.0000325897186206302 0 0.00020567343346524403 -0.00006765472687763259 0
          0.00007947311063240508 -3.001244022089803e-7 0 0.000013916782456708658 0.000015844963987407483 0
          0.00013969098077953136 -0.000058718688349796965 0 0.000035795294531043826 -1.795814217433121e-7 0
          0 0 0 0.00008387083228547143 -0.00004710920582979651 0
          0.000007356486170244181 -5.1427379747498476e-8 0 0.000040894510601555915 -0.000032963427759743096 0
          0 0 0 0.000014234507906643487 -0.000016000134209649117 0
          0 0 0
          <InformationKey name="L2_NORM_RANGE" location="vtkDataArray" length="2">
            <Value index="0">
              0
            </Value>
            <Value index="1">
              0.0006035123245
            </Value>
          </InformationKey>
        </DataArray>
      </PointData>
      <CellData>
        <DataArray type="UInt8" Name="vtkGhostType" format="ascii" RangeMin="0" RangeMax="0">
          0 0 0 0 0 0
          0 0 0 0 0 0
          0 0 0 0 0 0
          0 0
        </DataArray>
        <DataArray type="Float64" Name="Gauss Stress" NumberOfComponents="6" format="ascii" RangeMin="32.18915426070452" RangeMax="1621.0472155224402">
          513.8609963373125 1522.2708740631838 0 215.48164045967306 0 0
          -526.6137011745119 -1509.8512144403592 0 210.18599887805564 0 0
          -101.87015216908259 1115.9868348867528 0 194.84762662376687 0 0
          67.72901779386382 -1103.6367474381163 0 196.01947212975506 0 0
          -18.099435300657746 919.3727041141359 0 177.51586100521808 0 0
          -16.219127078087524 -907.3253768370805 0 178.00977415296208 0 0
          -29.852997338302714 717.405475374215 0 159.41983883194422 0 0
          -4.200193451182571 -705.9885315281055 0 159.83887019892632 0 0
          -28.49329926358888 540.5791267374748 0 140.4661860793908 0 0
          -5.361616893402413 -530.2211140824857 0 141.083796430503 0 0
          -28.959246034150937 385.55027176927246 0 120.54432790055205 0 0
          -4.513431620470044 -376.7764199620682 0 121.45161924619444 0 0
          -29.0768549373645 253.81778215938073 0 99.55180451169704 0 0
          -3.654585652970823 -247.27524666267567 0 100.8343235180851 0 0
          -29.393194016372604 146.34928534259825 0 77.23030010021176 0 0
          -2.259331949976662 -142.78991482942948 0 78.89905015993082 0 0
          -29.202398108700258 64.59206732293055 0 52.801002161665956 0 0
          -0.49783420363555564 -65.08559956097359 0 55.13885981940014 0 0
          -32.00180865840254 9.074106672652364 0 26.284785994984084 0 0
          3.812711449974154 -14.733722424738296 0 28.36410243475777 0 0
          <InformationKey name="L2_NORM_RANGE" location="vtkDataArray" length="2">
            <Value index="0">
              32.189154261
            </Value>
            <Value index="1">
              1621.0472155
            </Value>
          </InformationKey>
        </DataArray>
        <DataArray type="Float64" Name="Gauss Strain" NumberOfComponents="6" format="ascii" RangeMin="4.077137850374089e-7" RangeMax="0.000006692284253444867">
          -0.000002104148777076764 0.000004954693658923425 0 0.0000030167274682442635 0 0
          0.0000020158000660353004 -0.000004866888810434178 0 0.0000029426189636548296 0 0
          -0.0000035526346876257886 0.000004972344279818852 0 0.0000027278650384754872 0 0
          0.000003374629376939886 -0.000004824950743498312 0 0.0000027442744416587422 0 0
          -0.0000026502710406273167 0.000003912020765731161 0 0.0000024852195492313882 0 0
          0.0000024723820256783435 -0.0000037653746818855365 0 0.000002492139432317176 0 0
          -0.000002134124636510304 0.0000030966766107337618 0 0.0000022318761385551787 0 0
          0.000001959121256972507 -0.0000029534050196011745 0 0.000002237745867112918 0 0
          -0.00000163329764424347 0.0000023502047644674558 0 0.0000019665255471076674 0 0
          0.0000014620967560413645 -0.0000022119241951668034 0 0.0000019751742827150778 0 0
          -0.0000012011721232385586 0.0000017003921743002914 0 0.0000016876199669536718 0 0
          0.000001036015488495301 -0.0000015698276983888704 0 0.0000017003233623228223 0 0
          -8.328139775026777e-7 0.0000011474474733708107 0 0.0000013937249462792426 0 0
          6.77020316308674e-7 -0.0000010283252949716548 0 0.0000014116809077883495 0 0
          -5.332301038218912e-7 6.969669168882531e-7 0 0.0000010812240812060102 0 0
          3.9032202828193086e-7 -5.93392384784508e-7 0 0.0000011045868729642053 0 0
          -3.035081366509207e-7 3.530530592460446e-7 0 7.392140140737908e-7 0 0
          1.8014855851511413e-7 -2.719658704075645e-7 0 7.719440906117558e-7 0 0
          -1.5981516524044004e-7 1.2771624875729248e-7 0 3.679870187784041e-7 0 0
          5.726775945125162e-8 -7.255728262656191e-8 0 3.9709743763314977e-7 0 0
          <InformationKey name="L2_NORM_RANGE" location="vtkDataArray" length="2">
            <Value index="0">
              4.0771378504e-07
            </Value>
            <Value index="1">
              6.6922842534e-06
            </Value>
          </InformationKey>
        </DataArray>
        <DataArray type="Float64" Name="Btraction" NumberOfComponents="3" format="ascii" RangeMin="0.14631906107824394" RangeMax="19.070823730652307">
          12.896982118584539 -4.203504791685736 0 0.1295566752235443 0.06800246715994901 0
          17.159311247284403 0.010209439509775422 0 0.15014301833453964 0.07688520562056568 0
          17.25868743973868 0.04855523115064791 0 0.19051788099279435 0.17466655402283948 0
          17.41728581120017 0.12845830003615752 0 0.34464414875775345 0.28115546410811987 0
          17.643268555712922 0.2718538597893091 0 0.626736380883866 0.3733324428717557 0
          17.878006807970955 0.5051723908129104 0 1.0295977536220404 0.4302456507899113 0
          18.111588632176694 0.8477543847103735 0 1.615148514062594 0.4346400156291309 0
          18.49467283224107 1.3851927018098982 0 2.5033142429134956 0.35005848185394356 0
          18.92595639780602 2.3461654233997553 0 3.940638901969769 -0.06730543697624339 0
          15.690655173162318 1.3811375186838013 0 6.775649118355137 -1.3173452989264898 0
          <InformationKey name="L2_NORM_RANGE" location="vtkDataArray" length="2">
            <Value index="0">
              0.14631906108
            </Value>
            <Value index="1">
              19.070823731
            </Value>
          </InformationKey>
        </DataArray>
      </CellData>
      <Points>
        <DataArray type="Float32" Name="Points" NumberOfComponents="3" format="ascii" RangeMin="1.4500000476837158" RangeMax="1.6286497021092299">
          1.4500000476837158 0.5 0 1.4500000476837158 0.44999998807907104 0
          1.4500000476837158 0.4000000059604645 0 1.5 0.5 0
          1.4500000476837158 0.3499999940395355 0 1.5 0.44999998807907104 0
          1.4500000476837158 0.30000001192092896 0 1.5 0.4000000059604645 0
          1.5499999523162842 0.5 0 1.4500000476837158 0.25 0
          1.5 0.3499999940395355 0 1.5499999523162842 0.44999998807907104 0
          1.5 0.30000001192092896 0 1.4500000476837158 0.20000000298023224 0
          1.5499999523162842 0.4000000059604645 0 1.5 0.25 0
          1.5499999523162842 0.3499999940395355 0 1.4500000476837158 0.15000000596046448 0
          1.5 0.20000000298023224 0 1.5499999523162842 0.30000001192092896 0
          1.4500000476837158 0.10000000149011612 0 1.5499999523162842 0.25 0
          1.5 0.15000000596046448 0 1.4500000476837158 0.05000000074505806 0
          1.5499999523162842 0.20000000298023224 0 1.5 0.10000000149011612 0
          1.4500000476837158 0 0 1.5499999523162842 0.15000000596046448 0
          1.5 0.05000000074505806 0 1.5499999523162842 0.10000000149011612 0
          1.5 0 0 1.5499999523162842 0.05000000074505806 0
          1.5499999523162842 0 0
          <InformationKey name="L2_NORM_RANGE" location="vtkDataArray" length="2">
            <Value index="0">
              1.4500000477
            </Value>
            <Value index="1">
              1.6286497021
            </Value>
          </InformationKey>
        </DataArray>
      </Points>
      <Cells>
        <DataArray type="Int64" Name="connectivity" format="ascii" RangeMin="0" RangeMax="32">
          30 28 23 26 32 31
          28 30 28 25 20 23
          31 29 25 28 25 22
          17 20 29 27 22 25
          22 18 13 17 27 24
          18 22 18 15 9 13
          24 21 15 18 15 12
          6 9 21 19 12 15
          12 10 4 6 19 16
          10 12 10 7 2 4
          16 14 7 10 7 5
          1 2 14 11 5 7
          5 3 0 1 11 8
          3 5
        </DataArray>
        <DataArray type="Int64" Name="offsets" format="ascii" RangeMin="4" RangeMax="80">
          4 8 12 16 20 24
          28 32 36 40 44 48
          52 56 60 64 68 72
          76 80
        </DataArray>
        <DataArray type="UInt8" Name="types" format="ascii" RangeMin="9" RangeMax="9">
          9 9 9 9 9 9
          9 9 9 9 9 9
          9 9 9 9 9 9
          9 9
        </DataArray>
      </Cells>
    </Piece>
  </UnstructuredGrid>
</VTKFile>
