<?xml version="1.0"?>
<VTKFile type="UnstructuredGrid" version="0.1" byte_order="LittleEndian" header_type="UInt32" compressor="vtkZLibDataCompressor">
  <UnstructuredGrid>
    <Piece NumberOfPoints="98" NumberOfCells="44">
      <PointData>
        <DataArray type="Float64" Name="plcd_BC" NumberOfComponents="3" format="ascii" RangeMin="0" RangeMax="0">
          0 0 0 0 0 0
          0 0 0 0 0 0
          0 0 0 0 0 0
          0 0 0 0 0 0
          0 0 0 0 0 0
          0 0 0 0 0 0
          0 0 0 0 0 0
          0 0 0 0 0 0
          0 0 0 0 0 0
          0 0 0 0 0 0
          0 0 0 0 0 0
          0 0 0 0 0 0
          0 0 0 0 0 0
          0 0 0 0 0 0
          0 0 0 0 0 0
          0 0 0 0 0 0
          0 0 0 0 0 0
          0 0 0 0 0 0
          0 0 0 0 0 0
          0 0 0 0 0 0
          0 0 0 0 0 0
          0 0 0 0 0 0
          0 0 0 0 0 0
          0 0 0 0 0 0
          0 0 0 0 0 0
          0 0 0 0 0 0
          0 0 0 0 0 0
          0 0 0 0 0 0
          0 0 0 0 0 0
          0 0 0 0 0 0
          0 0 0 0 0 0
          0 0 0 0 0 0
          0 0 0 0 0 0
          0 0 0 0 0 0
          0 0 0 0 0 0
          0 0 0 0 0 0
          0 0 0 0 0 0
          0 0 0 0 0 0
          0 0 0 0 0 0
          0 0 0 0 0 0
          0 0 0 0 0 0
          0 0 0 0 0 0
          0 0 0 0 0 0
          0 0 0 0 0 0
          0 0 0 0 0 0
          0 0 0 0 0 0
          0 0 0 0 0 0
          0 0 0 0 0 0
          0 0 0 0 0 0
          <InformationKey name="L2_NORM_RANGE" location="vtkDataArray" length="2">
            <Value index="0">
              0
            </Value>
            <Value index="1">
              0
            </Value>
          </InformationKey>
        </DataArray>
        <DataArray type="Float64" Name="plcd_FIXNO" NumberOfComponents="3" format="ascii" RangeMin="1.7320508075688772" RangeMax="1.7320508075688772">
          -1 -1 -1 -1 -1 -1
          -1 -1 -1 -1 -1 -1
          -1 -1 -1 -1 -1 -1
          -1 -1 -1 -1 -1 -1
          -1 -1 -1 -1 -1 -1
          -1 -1 -1 -1 -1 -1
          -1 -1 -1 -1 -1 -1
          -1 -1 -1 -1 -1 -1
          -1 -1 -1 -1 -1 -1
          -1 -1 -1 -1 -1 -1
          -1 -1 -1 -1 -1 -1
          -1 -1 -1 -1 -1 -1
          -1 -1 -1 -1 -1 -1
          -1 -1 -1 -1 -1 -1
          -1 -1 -1 -1 -1 -1
          -1 -1 -1 -1 -1 -1
          -1 -1 -1 -1 -1 -1
          -1 -1 -1 -1 -1 -1
          -1 -1 -1 -1 -1 -1
          -1 -1 -1 -1 -1 -1
          -1 -1 -1 -1 -1 -1
          -1 -1 -1 -1 -1 -1
          -1 -1 -1 -1 -1 -1
          -1 -1 -1 -1 -1 -1
          -1 -1 -1 -1 -1 -1
          -1 -1 -1 -1 -1 -1
          -1 -1 -1 -1 -1 -1
          -1 -1 -1 -1 -1 -1
          -1 -1 -1 -1 -1 -1
          -1 -1 -1 -1 -1 -1
          -1 -1 -1 -1 -1 -1
          -1 -1 -1 -1 -1 -1
          -1 -1 -1 -1 -1 -1
          -1 -1 -1 -1 -1 -1
          -1 -1 -1 -1 -1 -1
          -1 -1 -1 -1 -1 -1
          -1 -1 -1 -1 -1 -1
          -1 -1 -1 -1 -1 -1
          -1 -1 -1 -1 -1 -1
          -1 -1 -1 -1 -1 -1
          -1 -1 -1 -1 -1 -1
          -1 -1 -1 -1 -1 -1
          -1 -1 -1 -1 -1 -1
          -1 -1 -1 -1 -1 -1
          -1 -1 -1 -1 -1 -1
          -1 -1 -1 -1 -1 -1
          -1 -1 -1 -1 -1 -1
          -1 -1 -1 -1 -1 -1
          -1 -1 -1 -1 -1 -1
          <InformationKey name="L2_NORM_RANGE" location="vtkDataArray" length="2">
            <Value index="0">
              1.7320508076
            </Value>
            <Value index="1">
              1.7320508076
            </Value>
          </InformationKey>
        </DataArray>
        <DataArray type="Float64" Name="Displacement" NumberOfComponents="3" format="ascii" RangeMin="0.0004750988512964824" RangeMax="0.005767375533122514">
          -0.0005414945986442835 -0.0046108194281512995 -0.00003387594710234016 -0.0005418462539158024 -0.004588510089062549 -0.00003634826028059709
          -0.00017938376400941934 -0.004610074524628638 -0.000011377536919608695 -0.00018008845848667553 -0.004586653004952218 -0.00001217040775939312
          -0.0005007063786346429 -0.003557658637570605 -0.000027375360067743953 -0.0005012238401560609 -0.003538094736232567 -0.00003056108021125694
          -0.00016632794051894432 -0.003555294391538422 -0.000009094362918417997 -0.00016667045798148127 -0.0035360042341366885 -0.00001017493664796185
          -0.0005006236939809525 -0.003516732467251112 -0.00003378908932142807 0.00016623190400872216 -0.003555429513711338 0.000009130506435685921
          -0.0001666718446448815 -0.0035145739737412474 -0.000011279633380134058 0.00016667812597053066 -0.0035360697311122707 0.000010206046277630247
          0.00016667525413645914 -0.0035145885047481156 0.00001125099153833354 -0.0005007819787591611 -0.0034931615075771212 -0.000036980732588210217
          0.0005008333863855528 -0.0035574590412037616 0.000027436777163323197 -0.00016690119923972518 -0.0034910001497058317 -0.000012360452059017678
          0.0005012599731981807 -0.003538282715977112 0.00003061241269441426 0.00016691161323891904 -0.003490990395687805 0.000012326673817391307
          0.0005005875589973116 -0.0035167430212196893 0.00003378151226691848 0.0005007664436635683 -0.0034931719178630297 0.00003695709240182975
          -0.00044884475810414413 -0.002595844941043115 -0.00002096599992753197 -0.00044929437934459224 -0.002580589904908358 -0.000024944362026637567
          -0.00014894032986758685 -0.002593181392604128 -0.000006966481480496708 -0.00014936046265910148 -0.0025778736258306113 -0.000008315242126789795
          -0.0004486553006304914 -0.0025626099342540686 -0.000028922224892587475 0.00014894964881640742 -0.002593139605977917 0.0000069608749978371315
          -0.00014935601832624572 -0.002559911543042901 -0.000009639809409597927 0.00014935124056340016 -0.0025778579026547997 0.000008308664123916021
          0.0001493558583416314 -0.0025599106475926057 0.000009646028139266186 -0.00044883499593117846 -0.002542007303991483 -0.000032903575083373615
          0.0004488261427622871 -0.0025958868328947566 0.000020948267851559438 -0.00014958831531064582 -0.0025392937379019303 -0.000010988383869985912
          0.000449304739242687 -0.0025805446212830985 0.000024934729943170607 0.00014958172340565073 -0.00253929790874422 0.000010993678239440764
          0.00044866985492647023 -0.002562612470533113 0.00002892571776872687 0.0004488338949476921 -0.0025420076304103084 0.00003290738201319612
          -0.0003853375558349683 -0.0017496239385713693 -0.000014503096075938593 -0.00038581937321722966 -0.0017383476818231328 -0.000019268653617622417
          -0.00012779615242401455 -0.0017463791722703678 -0.000004802858657686081 -0.00012820762771997927 -0.0017351261744268948 -0.00000641786416509049
          -0.00038518091624695466 -0.0017239034149683237 -0.000024082097239296165 0.00012779635527018424 -0.001746389643286033 0.000004803060247705291
          -0.00012820945992799267 -0.0017206773828507527 -0.000008032673698218213 0.00012821125953315873 -0.0017351287613937643 0.000006419019176174853
          0.00012820914457157057 -0.00172067662248195 0.00000803166799292173 -0.0003853370277831661 -0.0017062651872785202 -0.00002884823866094646
          0.00038533878276358294 -0.0017496117431782623 0.000014505888848675847 -0.00012843085710828627 -0.0017030351748529553 -0.000009647787641413528
          0.0003858132276084581 -0.0017383566823384968 0.00001926941268495571 0.00012843265264824593 -0.001703033604067508 0.00000964775194606494
          0.0003851772373292112 -0.0017239010036570776 0.00002408129389320554 0.0003853386386377767 -0.0017062640392809679 0.00002884855296811898
          0.00010313007529206101 -0.0010199238444595737 0.000006394675326322509 0.00010341527143995679 -0.0010052555032408366 0.00000829433112444774
          0.00031012040950853265 -0.001023762778422773 0.00001918641271205122 0.0003103788407391998 -0.001009128295500453 0.00002479645897514572
          0.00018013223901009183 -0.00456155684182029 0.000012914573007130514 0.00018036992641176246 -0.004535042736233491 0.000013739334910805631
          0.0005410147745979915 -0.004563181900276193 0.00003862451882436842 0.0005412258056733299 -0.004536602884090318 0.00004105034109004386
          0.00018017994331938597 -0.0045864700358988165 0.000012020684878344895 0.0005414432543658696 -0.004587891220372349 0.00003616735639698406
          0.0001799811112152103 -0.0046098092529230335 0.0000111993201864901 0.0005408852344666279 -0.004612040685283668 0.00003383476504641462
          -0.00018014185955920174 -0.004561624960068115 -0.00001283895672183393 -0.00018033610564040266 -0.004535013968721989 -0.000013629315768306635
          -0.0001901187839483242 -0.005706193110967115 -0.0000135220924383651 -0.00018976933197186366 -0.005677725761718753 -0.000014488861080868839
          0.00018942719675628928 -0.005706363125125824 0.000014286751678223216 0.000189764359921149 -0.0056779394842042 0.000014521128555168415
          -0.00019082795730443038 -0.005733888805370894 -0.0000129608993622326 0.00018817838253675626 -0.005733421820746027 0.000013752163269686541
          -0.0005409838389100802 -0.004563244896504241 -0.000038659238550451396 -0.000541111196874471 -0.00453664861500143 -0.00004100336548532573
          -0.000569529763248013 -0.005706573579315954 -0.00004173803911472036 -0.000569796564381968 -0.005678837197352655 -0.00004326502108969312
          -0.0005689870312169541 -0.005739093600462032 -0.00004097491309157731 0.00010312806584438315 -0.001030867937415459 0.000004551480544615938
          0.0003107581280329699 -0.00103470688223741 0.000013656148640580665 0.00010277145581904734 -0.001038093373014443 0.0000026509391506232204
          0.0003103743545039066 -0.0010419631527680078 0.000008037230256110773 -0.00010312981667068313 -0.0010199234385790928 -0.0000063947088722726505
          -0.00010341547490300588 -0.0010052550457260857 -0.000008294776784401195 -0.0001031290301467395 -0.0010308681078519827 -0.000004551808086386783
          -0.00007456936272659978 -0.0004883115187823845 -0.0000026460697690156463 -0.0000745635339333628 -0.00048085290349693415 -0.000004791389563490354
          0.0000745696320812698 -0.0004883114500412618 0.000002646108786357852 0.00007456346744835318 -0.00048085277940908635 0.000004791383742427265
          -0.00010277156864745354 -0.0010380957321238869 -0.00000265089572958462 -0.0003101198229963527 -0.0010237618056378056 -0.00001918646046769699
          -0.00031037949257136093 -0.0010091278461922626 -0.000024797017407316484 -0.00031075622061320796 -0.0010347083830215434 -0.000013656075451317265
          -0.00031037392801161625 -0.0010419592236689597 -0.000008037457213309245 0.00007452065951442324 -0.00046916793389559946 0.000006858543060073235
          0.00022377415626642424 -0.00048487552450747544 0.000014355159597617776 0.00022351368094043156 -0.0004731888765885605 0.000020493407487475737
          0.00022440056489652664 -0.0004923292322143503 0.000007958312699236393 -0.00007452067523115403 -0.00046916802858448125 -0.0000068584179821605065
          <InformationKey name="L2_NORM_RANGE" location="vtkDataArray" length="2">
            <Value index="0">
              0.0004750988513
            </Value>
            <Value index="1">
              0.0057673755331
            </Value>
          </InformationKey>
        </DataArray>
      </PointData>
      <CellData>
        <DataArray type="UInt8" Name="vtkGhostType" format="ascii" RangeMin="0" RangeMax="1">
          1 1 1 1 1 1
          1 1 1 1 1 1
          0 0 0 0 0 0
          0 0 0 0 0 0
          0 0 0 0 0 0
          0 0 0 0 0 0
          0 0 0 0 0 0
          0 0
        </DataArray>
        <DataArray type="Float64" Name="Stress" NumberOfComponents="6" format="ascii" RangeMin="102552.29159625251" RangeMax="3473114.463567536">
          1617957.2343043187 1857.7631800280487 2578.07010148491 -76763.45725317409 58392.10649735342 -1503.2994350314693
          1614625.9490316228 5407.598863808595 -222.43470016060292 -133305.71959207446 107420.83730313528 2782.5983355567823
          1608894.110583356 -17196.188245906364 1025.816610554788 -216499.04773034775 67855.66297666507 -9861.692461610763
          246.67517046765715 1403.8333928794345 -970.3837177930418 -109564.12591496101 599.4896432768887 790.1085470443813
          -8102.295468442651 -3385.64627056718 20404.911748984363 -204942.44300082262 -5488.6227626935115 -1288.1585405921642
          1268.9108603552304 6753.073658919508 -5766.833618665276 -206806.65692442376 1484.6128696397855 57.05947990474306
          -58037.92678820653 19634.978712392447 -8149.632354768929 -324279.82675932685 -15325.491023996408 -4195.77246915666
          16141.537167222574 15715.863925316116 5634.356356093963 -332198.83393774735 5028.600309145004 -691.4723342427733
          -1615013.6705892067 490.44626938571673 -5737.237057218541 -78880.55128034715 -59462.11640178743 -528.003439033675
          -1145263.2322689153 -16411.96374177976 2345.847541177699 -143779.95246833994 -97141.32156562201 9163.174265201782
          -1618913.0691536963 5653.448157316554 -9733.85107264111 -132169.45625884127 -114269.16378645219 -3578.895090045362
          -1122210.1201668927 132484.5475268373 -1314.8332389200095 -281341.3104930797 -79054.0449474724 -56542.31676292599
          -1625207.462037595 -25359.32454658755 -7702.68954142765 -189759.3851083592 -67050.02506164732 14098.356772304092
          2078321.9354897826 -1123.8725325049163 5085.660639745621 -78563.7978980488 58438.014406442766 -610.1503130847086
          2540876.4321884355 1012.6742373636771 6727.156931373795 -78354.26670726962 59126.51820131532 -1005.017164671588
          3001102.652747523 -6486.994402972188 3682.2904942682035 -76413.18815617877 56725.78886874086 -720.9905531511649
          2079054.3686322419 -950.0299254964775 6993.824618841552 -133159.54998779806 111275.58856274108 -1079.3945546871055
          2540461.5875639 1705.920431830793 4975.201829476245 -132386.83508531997 110447.3717139086 339.41590332825035
          3005592.5637603207 -2642.073954879066 9709.761840907475 -131636.4420373972 110541.94561538688 3.284079758595908
          2080431.4903589364 2737.279846553025 6121.460832498005 -203192.66702488132 68021.85699672833 3083.5510051473484
          2540430.5586559125 54.770887392001896 6384.153553199831 -204715.69050777997 67230.51058792266 495.26211231201705
          3001373.9075806905 -6106.069044362557 3554.144374137736 -202874.9854498581 69498.11572992963 862.823582044939
          320.6004386037821 -233.9333451941493 290.9342777458414 -109237.92333827406 -468.91012358049534 1539.8742776123981
          -152.32875482857344 -85.39454855503573 -51.976131659861494 -108519.14191785085 158.16664639560395 2077.0055008182826
          36.31329754187027 73.23357522422884 -2.1004729700744065 -111285.23782106634 -34.144397822374 2159.7730239297525
          123.8985846550786 -2487.9213838438445 1616.5196260105176 -206621.38939218275 -71.80036325752371 2.9188544049466145
          -158.45505989340018 549.0790500985167 -396.5899525519162 -205601.17666064645 -98.26494499930413 7.367505894240821
          65.28435924448422 -61.26397297621588 84.84675252397392 -210554.53779367337 53.821083720241404 73.7604128573621
          -19.269817254360532 -9.591658017452573 -17.272999667111435 -191599.07738869195 -18.93927915015138 -717.6960747941848
          -3339.897059013514 -7565.446872344877 -2019.8790090894681 -329906.71742674476 -1091.2358875448263 -1534.967183035058
          535.688305033138 2235.1846645255864 582.6977849069199 -329741.2942549983 197.07733600870847 -2035.7472738827819
          -66.67557054234203 -519.1172423368116 -149.22709910626327 -332673.37601306057 -37.75881779785823 -2215.5638303563574
          -2078992.8722473597 418.51149490466196 -4393.2405055893705 -77601.21494068089 -59237.61139417782 -710.956644933296
          -2540751.157188263 -916.7591667899978 -6747.188063826694 -78590.37603424789 -58727.32663978378 -998.5433525290373
          -3001119.087171551 6502.595097653844 -3734.8848455333464 -76396.42203084979 -56834.543605666586 -728.6021931178111
          -2079124.739994855 -2500.6056256864103 -3559.964511004626 -131497.73752858103 -109772.29249778694 1342.2952665734429
          -2540100.654010019 -823.6274100016526 -5713.0601034550145 -133201.2833466014 -110707.278376811 -440.0494756758817
          -3005738.7035902017 2450.0286844108196 -9621.02707392139 -131398.38278066125 -110509.8625347613 217.388516017425
          -2076794.5034747778 5752.011639927325 -3215.3913065859233 -206166.2351006714 -67093.59799787983 -2256.173398574243
          -2541141.328532953 -2086.062463686758 -7232.1547801815705 -204837.1681679243 -67626.76400663906 1625.5083712891592
          -3001245.850130548 6683.181202326901 -3354.259251448133 -202714.66182170197 -69403.3512624778 632.2842385690892
          3471175.2133701383 25658.63675421916 27155.22679254417 -83788.66321890728 70985.53927967834 -3384.71176183999
          3454726.740672986 21046.490273993644 13710.852744770156 -135817.1874626632 110594.50694216778 -527.3407107348976
          -2.573985953058582 -28.250110181281343 6.181615416215209 -102550.92346941488 3.9389660767892565 -528.9128388160643
          <InformationKey name="L2_NORM_RANGE" location="vtkDataArray" length="2">
            <Value index="0">
              102552.2916
            </Value>
            <Value index="1">
              3473114.4636
            </Value>
          </InformationKey>
        </DataArray>
        <DataArray type="Float64" Name="Damage" format="ascii" RangeMin="0" RangeMax="0">
          0 0 0 0 0 0
          0 0 0 0 0 0
          0 0 0 0 0 0
          0 0 0 0 0 0
          0 0 0 0 0 0
          0 0 0 0 0 0
          0 0 0 0 0 0
          0 0
        </DataArray>
        <DataArray type="Float64" Name="Tau" format="ascii" RangeMin="8040844.011283461" RangeMax="8040844.011283461">
          8040844.011283461 8040844.011283461 8040844.011283461 8040844.011283461 8040844.011283461 8040844.011283461
          8040844.011283461 8040844.011283461 8040844.011283461 8040844.011283461 8040844.011283461 8040844.011283461
          8040844.011283461 8040844.011283461 8040844.011283461 8040844.011283461 8040844.011283461 8040844.011283461
          8040844.011283461 8040844.011283461 8040844.011283461 8040844.011283461 8040844.011283461 8040844.011283461
          8040844.011283461 8040844.011283461 8040844.011283461 8040844.011283461 8040844.011283461 8040844.011283461
          8040844.011283461 8040844.011283461 8040844.011283461 8040844.011283461 8040844.011283461 8040844.011283461
          8040844.011283461 8040844.011283461 8040844.011283461 8040844.011283461 8040844.011283461 8040844.011283461
          8040844.011283461 8040844.011283461
        </DataArray>
        <DataArray type="Float64" Name="ComparisonRatio" format="ascii" RangeMin="0.06868671271187607" RangeMax="0.7033866502085873">
          0.32529000203304226 0.3254544655018049 0.3271554532770621 0.09567399703114186 0.06868671271187607 0.09416202245880101
          0.08414408955586133 0.10311130471031271 0.32558914108995873 0.23385863133902812 0.32452026382516225 0.237126191325528
          0.326777349229157 0.4176408465232623 0.5100230586257847 0.6023078420289782 0.4170528259544367 0.5096622034491052
          0.6013811793980988 0.4186091494723402 0.511005542752095 0.6030932863007303 0.122183279990875 0.14892131713321127
          0.1755356322204804 0.12056431144268573 0.14719815813543002 0.17343304186882771 0.20315544069142666 0.1279317447673009
          0.15370699580611177 0.17956865375853004 0.41755435697611903 0.5100425367998448 0.6023040251250067 0.4173149899953336
          0.5096290195268154 0.6013772505357906 0.4188740085514926 0.5109446890990702 0.6031003214845845 0.7033866502085873
          0.7029437967484194 0.20541235492163804
        </DataArray>
      </CellData>
      <Points>
        <DataArray type="Float32" Name="Points" NumberOfComponents="3" format="ascii" RangeMin="0.5995491172905656" RangeMax="7.789572376179863">
          5.401882171630859 -1.3746089935302734 2 5.401882171630859 -1.3746089935302734 1.3333330154418945
          5.401882171630859 -0.707939624786377 2 5.401882171630859 -0.707939624786377 1.3333330154418945
          3.401879072189331 -1.3746089935302734 2 3.401879072189331 -1.3746089935302734 1.3333330154418945
          3.401879072189331 -0.707939624786377 2 3.401879072189331 -0.707939624786377 1.3333330154418945
          3.401879072189331 -1.3746089935302734 0.6666666865348816 3.401879072189331 -0.041270170360803604 2
          3.401879072189331 -0.707939624786377 0.6666666865348816 3.401879072189331 -0.041270170360803604 1.3333330154418945
          3.401879072189331 -0.041270170360803604 0.6666666865348816 3.401879072189331 -1.3746089935302734 0
          3.401879072189331 0.6253991723060608 2 3.401879072189331 -0.707939624786377 0
          3.401879072189331 0.6253991723060608 1.3333330154418945 3.401879072189331 -0.041270170360803604 0
          3.401879072189331 0.6253991723060608 0.6666666865348816 3.401879072189331 0.6253991723060608 0
          1.4018759727478027 -1.3746089935302734 2 1.4018759727478027 -1.3746089935302734 1.3333330154418945
          1.4018759727478027 -0.707939624786377 2 1.4018759727478027 -0.707939624786377 1.3333330154418945
          1.4018759727478027 -1.3746089935302734 0.6666666865348816 1.4018759727478027 -0.041270170360803604 2
          1.4018759727478027 -0.707939624786377 0.6666666865348816 1.4018759727478027 -0.041270170360803604 1.3333330154418945
          1.4018759727478027 -0.041270170360803604 0.6666666865348816 1.4018759727478027 -1.3746089935302734 0
          1.4018759727478027 0.6253991723060608 2 1.4018759727478027 -0.707939624786377 0
          1.4018759727478027 0.6253991723060608 1.3333330154418945 1.4018759727478027 -0.041270170360803604 0
          1.4018759727478027 0.6253991723060608 0.6666666865348816 1.4018759727478027 0.6253991723060608 0
          -0.598127007484436 -1.3746089935302734 2 -0.598127007484436 -1.3746089935302734 1.3333330154418945
          -0.598127007484436 -0.707939624786377 2 -0.598127007484436 -0.707939624786377 1.3333330154418945
          -0.598127007484436 -1.3746089935302734 0.6666666865348816 -0.598127007484436 -0.041270170360803604 2
          -0.598127007484436 -0.707939624786377 0.6666666865348816 -0.598127007484436 -0.041270170360803604 1.3333330154418945
          -0.598127007484436 -0.041270170360803604 0.6666666865348816 -0.598127007484436 -1.3746089935302734 0
          -0.598127007484436 0.6253991723060608 2 -0.598127007484436 -0.707939624786377 0
          -0.598127007484436 0.6253991723060608 1.3333330154418945 -0.598127007484436 -0.041270170360803604 0
          -0.598127007484436 0.6253991723060608 0.6666666865348816 -0.598127007484436 0.6253991723060608 0
          -2.598129987716675 -0.041270170360803604 0.6666666865348816 -2.598129987716675 -0.041270170360803604 0
          -2.598129987716675 0.6253991723060608 0.6666666865348816 -2.598129987716675 0.6253991723060608 0
          5.401882171630859 -0.041270170360803604 0.6666666865348816 5.401882171630859 -0.041270170360803604 0
          5.401882171630859 0.6253991723060608 0.6666666865348816 5.401882171630859 0.6253991723060608 0
          5.401882171630859 -0.041270170360803604 1.3333330154418945 5.401882171630859 0.6253991723060608 1.3333330154418945
          5.401882171630859 -0.041270170360803604 2 5.401882171630859 0.6253991723060608 2
          5.401882171630859 -0.707939624786377 0.6666666865348816 5.401882171630859 -0.707939624786377 0
          7.401884078979492 -0.707939624786377 1.3333330154418945 7.401884078979492 -0.707939624786377 0.6666666865348816
          7.401884078979492 -0.041270170360803604 1.3333330154418945 7.401884078979492 -0.041270170360803604 0.6666666865348816
          7.401884078979492 -0.707939624786377 2 7.401884078979492 -0.041270170360803604 2
          5.401882171630859 -1.3746089935302734 0.6666666865348816 5.401882171630859 -1.3746089935302734 0
          7.401884078979492 -1.3746089935302734 1.3333330154418945 7.401884078979492 -1.3746089935302734 0.6666666865348816
          7.401884078979492 -1.3746089935302734 2 -2.598129987716675 -0.041270170360803604 1.3333330154418945
          -2.598129987716675 0.6253991723060608 1.3333330154418945 -2.598129987716675 -0.041270170360803604 2
          -2.598129987716675 0.6253991723060608 2 -2.598129987716675 -0.707939624786377 0.6666666865348816
          -2.598129987716675 -0.707939624786377 0 -2.598129987716675 -0.707939624786377 1.3333330154418945
          -4.598133087158203 -0.707939624786377 1.3333330154418945 -4.598133087158203 -0.707939624786377 0.6666666865348816
          -4.598133087158203 -0.041270170360803604 1.3333330154418945 -4.598133087158203 -0.041270170360803604 0.6666666865348816
          -2.598129987716675 -0.707939624786377 2 -2.598129987716675 -1.3746089935302734 0.6666666865348816
          -2.598129987716675 -1.3746089935302734 0 -2.598129987716675 -1.3746089935302734 1.3333330154418945
          -2.598129987716675 -1.3746089935302734 2 -4.598133087158203 -0.041270170360803604 0
          -4.598133087158203 0.6253991723060608 0.6666666865348816 -4.598133087158203 0.6253991723060608 0
          -4.598133087158203 0.6253991723060608 1.3333330154418945 -4.598133087158203 -0.707939624786377 0
          <InformationKey name="L2_NORM_RANGE" location="vtkDataArray" length="2">
            <Value index="0">
              0.59954911729
            </Value>
            <Value index="1">
              7.7895723762
            </Value>
          </InformationKey>
        </DataArray>
      </Points>
      <Cells>
        <DataArray type="Int64" Name="connectivity" format="ascii" RangeMin="0" RangeMax="97">
          12 56 57 17 18 58
          59 19 11 60 56 12
          16 61 58 18 9 62
          60 11 14 63 61 16
          10 64 65 15 12 56
          57 17 3 66 67 64
          60 68 69 56 7 3
          64 10 11 60 56 12
          2 70 66 3 62 71
          68 60 6 2 3 7
          9 62 60 11 8 72
          73 13 10 64 65 15
          1 74 75 72 3 66
          67 64 5 1 72 8
          7 3 64 10 0 76
          74 1 2 70 66 3
          4 0 1 5 6 2
          3 7 28 12 17 33
          34 18 19 35 44 28
          33 49 50 34 35 51
          52 44 49 53 54 50
          51 55 27 11 12 28
          32 16 18 34 43 27
          28 44 48 32 34 50
          77 43 44 52 78 48
          50 54 25 9 11 27
          30 14 16 32 41 25
          27 43 46 30 32 48
          79 41 43 77 80 46
          48 78 26 10 15 31
          28 12 17 33 42 26
          31 47 44 28 33 49
          81 42 47 82 52 44
          49 53 23 7 10 26
          27 11 12 28 39 23
          26 42 43 27 28 44
          83 39 42 81 77 43
          44 52 84 83 81 85
          86 77 52 87 22 6
          7 23 25 9 11 27
          38 22 23 39 41 25
          27 43 88 38 39 83
          79 41 43 77 24 8
          13 29 26 10 15 31
          40 24 29 45 42 26
          31 47 89 40 45 90
          81 42 47 82 21 5
          8 24 23 7 10 26
          37 21 24 40 39 23
          26 42 91 37 40 89
          83 39 42 81 20 4
          5 21 22 6 7 23
          36 20 21 37 38 22
          23 39 92 36 37 91
          88 38 39 83 87 52
          53 93 94 54 55 95
          86 77 52 87 96 78
          54 94 85 81 82 97
          87 52 53 93
        </DataArray>
        <DataArray type="Int64" Name="offsets" format="ascii" RangeMin="8" RangeMax="352">
          8 16 24 32 40 48
          56 64 72 80 88 96
          104 112 120 128 136 144
          152 160 168 176 184 192
          200 208 216 224 232 240
          248 256 264 272 280 288
          296 304 312 320 328 336
          344 352
        </DataArray>
        <DataArray type="UInt8" Name="types" format="ascii" RangeMin="12" RangeMax="12">
          12 12 12 12 12 12
          12 12 12 12 12 12
          12 12 12 12 12 12
          12 12 12 12 12 12
          12 12 12 12 12 12
          12 12 12 12 12 12
          12 12 12 12 12 12
          12 12
        </DataArray>
      </Cells>
    </Piece>
  </UnstructuredGrid>
</VTKFile>
