<?xml version="1.0"?>
<VTKFile type="UnstructuredGrid" version="0.1" byte_order="LittleEndian" header_type="UInt32" compressor="vtkZLibDataCompressor">
  <UnstructuredGrid>
    <Piece NumberOfPoints="79" NumberOfCells="35">
      <PointData>
        <DataArray type="Float64" Name="plcd_BC" NumberOfComponents="3" format="ascii" RangeMin="0" RangeMax="0">
          0 0 0 0 0 0
          0 0 0 0 0 0
          0 0 0 0 0 0
          0 0 0 0 0 0
          0 0 0 0 0 0
          0 0 0 0 0 0
          0 0 0 0 0 0
          0 0 0 0 0 0
          0 0 0 0 0 0
          0 0 0 0 0 0
          0 0 0 0 0 0
          0 0 0 0 0 0
          0 0 0 0 0 0
          0 0 0 0 0 0
          0 0 0 0 0 0
          0 0 0 0 0 0
          0 0 0 0 0 0
          0 0 0 0 0 0
          0 0 0 0 0 0
          0 0 0 0 0 0
          0 0 0 0 0 0
          0 0 0 0 0 0
          0 0 0 0 0 0
          0 0 0 0 0 0
          0 0 0 0 0 0
          0 0 0 0 0 0
          0 0 0 0 0 0
          0 0 0 0 0 0
          0 0 0 0 0 0
          0 0 0 0 0 0
          0 0 0 0 0 0
          0 0 0 0 0 0
          0 0 0 0 0 0
          0 0 0 0 0 0
          0 0 0 0 0 0
          0 0 0 0 0 0
          0 0 0 0 0 0
          0 0 0 0 0 0
          0 0 0 0 0 0
          0 0 0
          <InformationKey name="L2_NORM_RANGE" location="vtkDataArray" length="2">
            <Value index="0">
              0
            </Value>
            <Value index="1">
              0
            </Value>
          </InformationKey>
        </DataArray>
        <DataArray type="Float64" Name="plcd_FIXNO" NumberOfComponents="3" format="ascii" RangeMin="1.7320508075688772" RangeMax="1.7320508075688772">
          -1 -1 -1 -1 -1 -1
          -1 -1 -1 -1 -1 -1
          -1 -1 -1 -1 -1 -1
          -1 -1 -1 -1 -1 -1
          -1 -1 -1 -1 -1 -1
          -1 -1 -1 -1 -1 -1
          -1 -1 -1 -1 -1 -1
          -1 -1 -1 -1 -1 -1
          -1 -1 -1 -1 -1 -1
          -1 -1 -1 -1 -1 -1
          -1 -1 -1 -1 -1 -1
          -1 -1 -1 -1 -1 -1
          -1 -1 -1 -1 -1 -1
          -1 -1 -1 -1 -1 -1
          -1 -1 -1 -1 -1 -1
          -1 -1 -1 -1 -1 -1
          -1 -1 -1 -1 -1 -1
          -1 -1 -1 -1 -1 -1
          -1 -1 -1 -1 -1 -1
          -1 -1 -1 -1 -1 -1
          -1 -1 -1 -1 -1 -1
          -1 -1 -1 -1 -1 -1
          -1 -1 -1 -1 -1 -1
          -1 -1 -1 -1 -1 -1
          -1 -1 -1 -1 -1 -1
          -1 -1 -1 -1 -1 -1
          -1 -1 -1 -1 -1 -1
          -1 -1 -1 -1 -1 -1
          -1 -1 -1 -1 -1 -1
          -1 -1 -1 -1 -1 -1
          -1 -1 -1 -1 -1 -1
          -1 -1 -1 -1 -1 -1
          -1 -1 -1 -1 -1 -1
          -1 -1 -1 -1 -1 -1
          -1 -1 -1 -1 -1 -1
          -1 -1 -1 -1 -1 -1
          -1 -1 -1 -1 -1 -1
          -1 -1 -1 -1 -1 -1
          -1 -1 -1 -1 -1 -1
          -1 -1 -1
          <InformationKey name="L2_NORM_RANGE" location="vtkDataArray" length="2">
            <Value index="0">
              1.7320508076
            </Value>
            <Value index="1">
              1.7320508076
            </Value>
          </InformationKey>
        </DataArray>
        <DataArray type="Float64" Name="Displacement" NumberOfComponents="3" format="ascii" RangeMin="0" RangeMax="0.004414460464935156">
          -0.0007123435725905561 -0.0027661477617327993 -0.0000984100484778939 -0.0007135814029050125 -0.0026975340700651188 -0.00010732867068024928
          -0.00023529154267896914 -0.0027602873889867297 -0.00003273000708302703 -0.00023664538332648425 -0.0026917137689291513 -0.000035739164786060446
          -0.0007097147075381155 -0.002623099117926034 -0.00011605416076987431 0.00023529129627901247 -0.002760274123971056 0.000032729589874425006
          -0.00023619786443845222 -0.002617288782579656 -0.00003863856831674258 0.00023664032710771565 -0.0026917125579492035 0.000035738440561752867
          -0.000710495033357845 -0.002542791157892223 -0.00012499807096423614 0.0007123451190960139 -0.00276617353215156 0.00009840990054922803
          -0.0002373054427018075 -0.002536962359907075 -0.00004167198857670736 0.0007135926422443026 -0.002697526311998048 0.00010732759491458827
          -0.0005650801853960426 -0.0014516807785559351 -0.0000681536795200336 -0.0005672191691670225 -0.001402792399059606 -0.0000787235795000861
          -0.00018671016810193779 -0.0014450058310046803 -0.000022568571234426295 -0.00018860455828883632 -0.0013963072357138333 -0.000026171418009443053
          -0.0005622086328054265 -0.0013463770005455325 -0.00009026668526838105 0.0001867099866727259 -0.0014450089168616391 0.00002256863503532858
          -0.0001877001319447693 -0.0013397463240284338 -0.000030039916678503586 0.0001886057096392606 -0.001396307001140692 0.00002617157281075896
          0.00018769973413526004 -0.0013397455661109815 0.000030039888370503233 -0.0005612453096916791 -0.00128228488594482 -0.00010125800892543904
          0.0005650792232101603 -0.0014516722874355391 0.00006815292973389448 -0.00018787985992053905 -0.001275621662015172 -0.0000338041722825845
          0.0005672164322438656 -0.0014027937007064632 0.00007872345133157205 0.0001878796646116145 -0.0012756214016135259 0.00003380468722119217
          0.0005622087249205997 -0.001346375300351693 0.00009026671504774232 0.0005612465723027546 -0.0012822843764085355 0.00010125886199320289
          -0.00035848815652404894 -0.00048435569347673167 -0.000015880141242078045 -0.0003583572783959944 -0.0004654748918759417 -0.000039805682559479913
          -0.00011717030227928558 -0.00046976373872476267 -0.000005352625762972748 -0.00011761433342264227 -0.00045052472190723896 -0.000013274914854452731
          -0.00034835823652834547 -0.0004317448719182117 -0.00006221097781811985 0.00011717048958903054 -0.0004697629939592647 0.0000053524834794152815
          -0.00011483117278882212 -0.0004167362139398574 -0.000020768051870847334 0.00011761417003092477 -0.0004505248684728843 0.000013274785929197555
          0.0001148313547299789 -0.0004167363837980259 0.000020768004369941168 -0.00035010433753688907 -0.00038308262689582586 -0.00008575955292915461
          0.00035848847607654186 -0.0004843583540390512 0.000015880437543425282 -0.00011618802503227257 -0.00036800488985293744 -0.00002865171418535851
          0.00035835781232093985 -0.00046547465668640773 0.00003980569454944311 0.00011618817012926405 -0.00036800489602611876 0.000028651519470442377
          0.0003483579905824086 -0.00043174528764902383 0.0000622108743523764 0.00035010403923900225 -0.0003830826318170878 0.00008575926425237733
          0 0 0 0 0 0
          0 0 0 0 0 0
          0 0 0 0 0 0
          0 0 0 0 0 0
          0 0 0 0 0 0
          0 0 0 0 0 0
          0 0 0 0 0 0
          0 0 0 0 0 0
          0.000273963470101932 -0.004244578117983353 0.000044122566894379714 0.00027376964648811135 -0.004154027127560126 0.000046364600789985515
          0.0002361986504707231 -0.0026172913093889727 0.00003863882519652681 0.0008247492767521328 -0.004248999262272137 0.00013249565883371065
          0.0008217245685944556 -0.004158449534094761 0.0001391692634848073 0.0007097180280930981 -0.0026231046318950565 0.00011605445166269817
          0.000272498209222498 -0.004330698338356588 0.00004190290982794463 0.0008232131896365491 -0.004335119147714268 0.0001259620980226291
          -0.0002737692993646108 -0.004154032712672678 -0.000046367906796341824 -0.0002747946342232497 -0.004059056458173443 -0.000048622739379371425
          0.00027480085610781426 -0.004059051967560448 0.000048623136957124656 0.000237304976585708 -0.0025369637817571292 0.00004167058718704801
          -0.00027394486118378534 -0.004244563958453979 -0.000044118334463257044 -0.00027250132072055317 -0.004330641330823783 -0.00004189738153366105
          -0.0008217456881712109 -0.004158462328986827 -0.00013917224495371157 -0.0008225691069634358 -0.0040634625691486626 -0.00014578463919785175
          -0.0008247860300664061 -0.0042489556392010085 -0.00013248339011071418 -0.00082320691962843 -0.004335196458455192 -0.0001259493173818275
          0.0007104911456293531 -0.0025427936899425196 0.0001249957989245742
          <InformationKey name="L2_NORM_RANGE" location="vtkDataArray" length="2">
            <Value index="0">
              0
            </Value>
            <Value index="1">
              0.0044144604649
            </Value>
          </InformationKey>
        </DataArray>
      </PointData>
      <CellData>
        <DataArray type="UInt8" Name="vtkGhostType" format="ascii" RangeMin="0" RangeMax="1">
          1 1 0 1 1 1
          1 0 1 0 1 0
          1 0 1 0 0 1
          0 0 0 0 1 0
          0 0 0 0 0 0
          0 0 0 0 0
        </DataArray>
        <DataArray type="Float64" Name="Stress" NumberOfComponents="6" format="ascii" RangeMin="91400.66914275307" RangeMax="5062188.960687432">
          4035160.1847452074 2794.417642593573 17681.442720479077 -111834.79863675355 483557.32192985935 3927.429515230946
          4022213.9903471926 -8008.542629656826 4902.3713658743 -389757.9920108861 297317.0444188389 4485.66034007027
          4475055.987761474 40619.255672324485 55178.65081067885 -378877.6932791993 271396.00808596343 9673.352489202427
          160.47868424613262 310.87587208074547 6.945301461724739 91399.81298103638 -96.89103390477248 -157.07784371036178
          347.2994958293275 -308.446068916528 303.2393843677364 -346010.96862719674 239.581106472564 -3748.9739606698386
          -99.9254404134117 -49.67286720502307 -67.32542925012422 -316342.6434150764 -83.51105795220064 -14727.524779625692
          -390.56863836426055 -2756.7566838933344 -588.8088047484453 -844094.8227371508 -246.87783992683217 -6610.7201985584
          53.52654307422927 563.607386741176 139.31880853760595 -854598.2095742568 56.22569766855668 -2215.6379313094003
          -4025181.941199989 -2140.6941007284913 -8088.419555860557 124282.48652508075 -261187.8700857999 1437.3258148788555
          -4470774.053188772 -43840.79854126839 -44505.98472664268 102380.60790431214 -287181.27462232485 -6662.465654893793
          -4035981.443537712 -3634.6301357464545 -17143.529153923588 -110529.58758934215 -483423.19669478113 4824.110661060513
          -4445219.520043665 -35332.10891689376 -22848.27683067489 -108006.95026012074 -479377.77524475195 -1190.7474456366108
          -4021500.5566538917 11495.98889790097 -3903.4685290721136 -389000.3000200245 -296835.36209529295 3258.1973469363948
          -4475152.795379204 -41545.13578511625 -55382.506363033 -379091.95695328456 -271451.18325911503 9872.637702553686
          4470776.403598835 43747.75650247696 44590.28789345542 102327.41025350842 287261.1301810624 -6705.739946190144
          4504667.046767957 -198976.05794307397 -181764.09069759614 212794.18133736477 169008.05640124978 4376.6925844061025
          4968431.080761654 619527.1934175971 635795.8994704733 -6872.54353729717 390186.7263201854 9387.92765705086
          4445418.915127496 35471.75909207865 22824.355486810677 -107754.85527774683 479375.74064234586 -1000.7445908559039
          4537209.078620842 -195634.37744367347 -168067.92494281585 72114.78419427417 479234.7843010067 1551.5820672877217
          4850903.697240755 617555.0427664368 651334.7400853399 -286955.08445285633 361894.924389406 3833.7196052028103
          4481402.158025043 -216543.8298585187 -205493.29823795025 -181971.79621873607 359515.2322464406 -4819.430078063258
          4780351.234949066 615940.9085529932 615959.3733268346 -430786.5705689793 143430.17083017153 -7595.452228953778
          -9.027061385742854 -129.3248004051129 21.12213411447192 103600.37973146013 9.407883244773984 -11070.066468527977
          -9.528014786541462 33.203489013627404 -12.849616434359632 -134304.69705992774 1.4372485706562657 15162.181194990058
          3.369976991903968 -5.064562558327452 5.447107592699467 670726.6913663029 -0.4756559852794453 22959.606625852077
          22.883106267661788 38.91453055241436 17.553329774898884 -527417.2136230508 24.262823470235162 -3563.443138831528
          -4.444849132472882 -14.781786856066901 -7.210058957338333 142023.02541195916 -6.310499902958327 8472.818912434745
          -15.770338647766039 -111.2896648159367 -31.378740595559066 -1124770.150617869 -15.225760859408183 -21256.6748280966
          6.575326596212108 24.941552915952343 6.149001625730307 -168136.486425914 4.388994344097227 -15967.009352530034
          -4504664.619853786 198999.61344982038 181740.76592446232 212767.70915676007 -169014.55054102888 4360.381397584046
          -4968433.041835461 -619530.879987655 -635790.8094932834 -6864.702141362766 -390187.59836215316 9393.176130369355
          -4537237.476804592 195614.17959517566 168061.84463885767 72145.81428593001 -479238.40366006177 1584.381554446154
          -4850898.861341453 -617551.7131963935 -651333.3109866779 -286956.6081739853 -361893.3430385878 3828.7755901485116
          -4481381.266382211 216773.73460431412 205535.65303588886 -181936.9069924283 -359516.3514498867 -4849.542176548333
          -4780354.154051499 -615997.179181967 -615968.9114261644 -430790.796807564 -143428.46362303832 -7589.047638880114
          <InformationKey name="L2_NORM_RANGE" location="vtkDataArray" length="2">
            <Value index="0">
              91400.669143
            </Value>
            <Value index="1">
              5062188.9607
            </Value>
          </InformationKey>
        </DataArray>
        <DataArray type="Float64" Name="Damage" format="ascii" RangeMin="0" RangeMax="0.6612642389706754">
          0.07645300441490424 0.07430577550656584 0.18503943616825813 0 0 0
          0 0 0.08037816103522424 0.19277449333036883 0.07642884557778702 0.18811193012374702
          0.07431314702952252 0.1850463304224575 0.19277318253850023 0.41685691468417624 0.6373075740208863 0.1881036279891368
          0.4088448287983776 0.6511824818358708 0.40262040300691937 0.6612637723657996 0 0
          0.2959564124455085 0 0.3166811558494553 0 0.3394985777590478 0.4168566231786912
          0.6373074560994989 0.4088442789928656 0.6511826411748718 0.4026194795699869 0.6612642389706754
        </DataArray>
        <DataArray type="Float64" Name="Tau" format="ascii" RangeMin="8040844.011283461" RangeMax="26466941.759690214">
          8796648.355464961 8772697.194954759 10455842.894943248 8040844.011283461 8040844.011283461 8040844.011283461
          8040844.011283461 8040844.011283461 8841869.916258035 10600460.59386446 8796434.641947675 10522579.089956332
          8772802.738408908 10455954.157334475 10600430.805149201 15195607.85407016 24649897.55255073 10522435.87016584
          15062207.107747115 25688553.149987977 14941311.45951259 26466913.54263848 8040844.011283461 8040844.011283461
          13881464.092912687 8040844.011283461 14983859.100809982 8040844.011283461 15811504.010525325 15195602.175743356
          24649888.909118075 15062172.244797062 25688562.416518744 14941269.443417279 26466941.759690214
        </DataArray>
        <DataArray type="Float64" Name="ComparisonRatio" format="ascii" RangeMin="0.26750408088419814" RangeMax="3.2915626422487496">
          0.9207398533217881 0.918571030123565 1.2416203231762437 0.3069536089072419 0.26750408088419814 0.3732104471083139
          0.2820291427680565 0.36660790899046974 0.9357502437957426 1.2751055789209933 0.9207297701045234 1.255341551541664
          0.9185892680435691 1.241631169831459 1.2751037977188298 1.8898025919600792 3.0655858412326253 1.2553276267068023
          1.873212200934479 3.1947583007380866 1.858177007108448 3.291559133033584 0.4180852461689155 0.618442848479743
          1.622660274020992 0.5592255873043471 1.8149525361485739 0.5429809157981001 1.9581802028555024 1.8898018857746588
          3.065584766291658 1.8732078652018114 3.1947594531706875 1.8581717817744843 3.2915626422487496
        </DataArray>
      </CellData>
      <Points>
        <DataArray type="Float32" Name="Points" NumberOfComponents="3" format="ascii" RangeMin="0.5995491172905656" RangeMax="8.934065394197013">
          -2.598129987716675 -1.3746089935302734 2 -2.598129987716675 -1.3746089935302734 1.3333330154418945
          -2.598129987716675 -0.707939624786377 2 -2.598129987716675 -0.707939624786377 1.3333330154418945
          -2.598129987716675 -1.3746089935302734 0.6666666865348816 -2.598129987716675 -0.041270170360803604 2
          -2.598129987716675 -0.707939624786377 0.6666666865348816 -2.598129987716675 -0.041270170360803604 1.3333330154418945
          -2.598129987716675 -1.3746089935302734 0 -2.598129987716675 0.6253991723060608 2
          -2.598129987716675 -0.707939624786377 0 -2.598129987716675 0.6253991723060608 1.3333330154418945
          -4.598133087158203 -1.3746089935302734 2 -4.598133087158203 -1.3746089935302734 1.3333330154418945
          -4.598133087158203 -0.707939624786377 2 -4.598133087158203 -0.707939624786377 1.3333330154418945
          -4.598133087158203 -1.3746089935302734 0.6666666865348816 -4.598133087158203 -0.041270170360803604 2
          -4.598133087158203 -0.707939624786377 0.6666666865348816 -4.598133087158203 -0.041270170360803604 1.3333330154418945
          -4.598133087158203 -0.041270170360803604 0.6666666865348816 -4.598133087158203 -1.3746089935302734 0
          -4.598133087158203 0.6253991723060608 2 -4.598133087158203 -0.707939624786377 0
          -4.598133087158203 0.6253991723060608 1.3333330154418945 -4.598133087158203 -0.041270170360803604 0
          -4.598133087158203 0.6253991723060608 0.6666666865348816 -4.598133087158203 0.6253991723060608 0
          -6.598135948181152 -1.3746089935302734 2 -6.598135948181152 -1.3746089935302734 1.3333330154418945
          -6.598135948181152 -0.707939624786377 2 -6.598135948181152 -0.707939624786377 1.3333330154418945
          -6.598135948181152 -1.3746089935302734 0.6666666865348816 -6.598135948181152 -0.041270170360803604 2
          -6.598135948181152 -0.707939624786377 0.6666666865348816 -6.598135948181152 -0.041270170360803604 1.3333330154418945
          -6.598135948181152 -0.041270170360803604 0.6666666865348816 -6.598135948181152 -1.3746089935302734 0
          -6.598135948181152 0.6253991723060608 2 -6.598135948181152 -0.707939624786377 0
          -6.598135948181152 0.6253991723060608 1.3333330154418945 -6.598135948181152 -0.041270170360803604 0
          -6.598135948181152 0.6253991723060608 0.6666666865348816 -6.598135948181152 0.6253991723060608 0
          -8.598137855529785 -1.3746089935302734 2 -8.598137855529785 -1.3746089935302734 1.3333330154418945
          -8.598137855529785 -0.707939624786377 2 -8.598137855529785 -0.707939624786377 1.3333330154418945
          -8.598137855529785 -1.3746089935302734 0.6666666865348816 -8.598137855529785 -0.041270170360803604 2
          -8.598137855529785 -0.707939624786377 0.6666666865348816 -8.598137855529785 -0.041270170360803604 1.3333330154418945
          -8.598137855529785 -0.041270170360803604 0.6666666865348816 -8.598137855529785 -1.3746089935302734 0
          -8.598137855529785 0.6253991723060608 2 -8.598137855529785 -0.707939624786377 0
          -8.598137855529785 0.6253991723060608 1.3333330154418945 -8.598137855529785 -0.041270170360803604 0
          -8.598137855529785 0.6253991723060608 0.6666666865348816 -8.598137855529785 0.6253991723060608 0
          -0.598127007484436 -0.041270170360803604 1.3333330154418945 -0.598127007484436 -0.041270170360803604 0.6666666865348816
          -2.598129987716675 -0.041270170360803604 0.6666666865348816 -0.598127007484436 0.6253991723060608 1.3333330154418945
          -0.598127007484436 0.6253991723060608 0.6666666865348816 -2.598129987716675 0.6253991723060608 0.6666666865348816
          -0.598127007484436 -0.041270170360803604 2 -0.598127007484436 0.6253991723060608 2
          -0.598127007484436 -0.707939624786377 0.6666666865348816 -0.598127007484436 -0.707939624786377 0
          -0.598127007484436 -0.041270170360803604 0 -2.598129987716675 -0.041270170360803604 0
          -0.598127007484436 -0.707939624786377 1.3333330154418945 -0.598127007484436 -0.707939624786377 2
          -0.598127007484436 -1.3746089935302734 0.6666666865348816 -0.598127007484436 -1.3746089935302734 0
          -0.598127007484436 -1.3746089935302734 1.3333330154418945 -0.598127007484436 -1.3746089935302734 2
          -2.598129987716675 0.6253991723060608 0
          <InformationKey name="L2_NORM_RANGE" location="vtkDataArray" length="2">
            <Value index="0">
              0.59954911729
            </Value>
            <Value index="1">
              8.9340653942
            </Value>
          </InformationKey>
        </DataArray>
      </Points>
      <Cells>
        <DataArray type="Int64" Name="connectivity" format="ascii" RangeMin="0" RangeMax="78">
          7 60 61 62 11 63
          64 65 5 66 60 7
          9 67 63 11 17 5
          7 19 22 9 11 24
          6 68 69 10 62 61
          70 71 3 72 68 6
          7 60 61 62 15 3
          6 18 19 7 62 20
          2 73 72 3 5 66
          60 7 14 2 3 15
          17 5 7 19 4 74
          75 8 6 68 69 10
          16 4 8 21 18 6
          10 23 1 76 74 4
          3 72 68 6 13 1
          4 16 15 3 6 18
          0 77 76 1 2 73
          72 3 12 0 1 13
          14 2 3 15 20 62
          71 25 26 65 78 27
          36 20 25 41 42 26
          27 43 52 36 41 57
          58 42 43 59 19 7
          62 20 24 11 65 26
          35 19 20 36 40 24
          26 42 51 35 36 52
          56 40 42 58 33 17
          19 35 38 22 24 40
          49 33 35 51 54 38
          40 56 18 6 10 23
          20 62 71 25 34 18
          23 39 36 20 25 41
          50 34 39 55 52 36
          41 57 31 15 18 34
          35 19 20 36 47 31
          34 50 51 35 36 52
          30 14 15 31 33 17
          19 35 46 30 31 47
          49 33 35 51 32 16
          21 37 34 18 23 39
          48 32 37 53 50 34
          39 55 29 13 16 32
          31 15 18 34 45 29
          32 48 47 31 34 50
          28 12 13 29 30 14
          15 31 44 28 29 45
          46 30 31 47
        </DataArray>
        <DataArray type="Int64" Name="offsets" format="ascii" RangeMin="8" RangeMax="280">
          8 16 24 32 40 48
          56 64 72 80 88 96
          104 112 120 128 136 144
          152 160 168 176 184 192
          200 208 216 224 232 240
          248 256 264 272 280
        </DataArray>
        <DataArray type="UInt8" Name="types" format="ascii" RangeMin="12" RangeMax="12">
          12 12 12 12 12 12
          12 12 12 12 12 12
          12 12 12 12 12 12
          12 12 12 12 12 12
          12 12 12 12 12 12
          12 12 12 12 12
        </DataArray>
      </Cells>
    </Piece>
  </UnstructuredGrid>
</VTKFile>
