<?xml version="1.0"?>
<VTKFile type="UnstructuredGrid" version="0.1" byte_order="LittleEndian" header_type="UInt32" compressor="vtkZLibDataCompressor">
  <UnstructuredGrid>
    <Piece NumberOfPoints="32" NumberOfCells="44">
      <PointData>
        <DataArray type="Float64" Name="proc" format="ascii" RangeMin="0" RangeMax="1">
          0 0 0 0 0 0
          0 0 0 0 0 0
          0 0 0 0 0 0
          0 0 0 0 0 0
          0 0 0 1 1 1
          1 1
        </DataArray>
        <DataArray type="Float64" Name="Displacement" NumberOfComponents="3" format="ascii" RangeMin="3.707550802956968e-10" RangeMax="1.4449315173681936e-8">
          9.113336664124575e-9 0 0 6.762103147675165e-9 -3.4198970615161267e-11 0
          9.07680165374874e-9 -2.9932370873220867e-9 0 6.187507208184272e-9 -3.526993356188607e-9 0
          4.674582139330072e-9 -2.2363618474736532e-10 0 7.552447402560563e-9 -5.044957809960146e-9 0
          4.07104921096188e-9 -2.4601475080464144e-9 0 9.045222596520581e-9 -5.830745436443243e-9 0
          5.9248361131307246e-9 -5.830180837209851e-9 0 7.49419877204984e-9 -6.6747647625680404e-9 0
          2.461671140932066e-9 -2.6135762494039583e-10 0 4.071007496243806e-9 -4.659046630423967e-9 0
          2.2162093761860438e-9 -3.3763638362672154e-9 0 9.011925034270424e-9 -8.588096957999653e-9 0
          4.041783393487366e-9 -6.934099882394392e-9 0 5.940437718126171e-9 -8.037807604042224e-9 0
          2.6294467602089097e-10 -2.6137985178153506e-10 0 2.167236523915008e-9 -5.758408352088225e-9 0
          2.629669028620528e-10 -2.460188873531195e-9 0 2.6308265860820404e-10 -4.6589558344143495e-9 0
          4.055408851202795e-9 -9.130301320649404e-9 0 6.411542542880347e-9 -1.0149299837739186e-8 0
          2.2839843737025332e-9 -8.03686253880268e-9 0 2.6412795327561265e-10 -6.857393978254048e-9 0
          2.4522795700626383e-9 -1.0240467154367911e-8 0 5.100132797304281e-10 -9.096783297823387e-9 0
          8.091774930697016e-10 -1.1269962933044291e-8 0 2.7173216174293274e-9 -1.2432696543462723e-8 0
          4.0760062314679646e-9 -1.130829557625244e-8 0 6.405517319131283e-9 -1.2468610819994339e-8 0
          8.988278191725678e-9 -1.13134240677411e-8 0 1.237500818284809e-9 -1.3459794260983987e-8 0
          <InformationKey name="L2_NORM_RANGE" location="vtkDataArray" length="2">
            <Value index="0">
              3.707550803e-10
            </Value>
            <Value index="1">
              1.4449315174e-08
            </Value>
          </InformationKey>
        </DataArray>
        <DataArray type="Float64" Name="TopologicalDerivative1" format="ascii" RangeMin="-0.0011051579021763111" RangeMax="0.0009046320140753735">
          0.0009046320140753735 0.00009439690311487787 0.0004965981819522749 -0.00022267616071225394 -0.0010089249057984029 -0.00010619916641342229
          -0.0010492767255815844 0.000105828050230897 -0.00038539017961168164 -0.0005865164892987672 -0.001100006971319322 -0.0010839663263529427
          -0.001105084950223383 -0.0005618495080440364 -0.0008448680549970344 -0.0007993481896239191 -0.0011051579021763111 -0.0010676265918507673
          -0.0011051480129816594 -0.0011048325415513387 -0.0007720643589342662 -0.0007986876300964038 -0.0009435181495496015 -0.0009867086579996552
          -0.0007142573469606961 -0.000807882442195584 -0.00047922827554052274 0.00004445658898992932 -0.0005118947192129474 -0.0007686083626720966
          -0.0005536630616057942 0.0007671448291796212
        </DataArray>
      </PointData>
      <CellData>
        <DataArray type="UInt8" Name="vtkGhostType" format="ascii" RangeMin="0" RangeMax="0">
          0 0 0 0 0 0
          0 0 0 0 0 0
          0 0 0 0 0 0
          0 0 0 0 0 0
          0 0 0 0 0 0
          0 0 0 0 0 0
          0 0 0 0 0 0
          0 0
        </DataArray>
        <DataArray type="Float64" Name="Stress" NumberOfComponents="6" format="ascii" RangeMin="5.502964382714696e-7" RangeMax="3.5579280746816497">
          0.2501316542784787 -0.33534815109839156 0 0.20010532342274004 0 0
          -0.003684214392770219 -0.0003141461089964544 0 0.00047615190511038623 0 0
          -0.019046292241219575 -0.0002036926281098871 0 0.003909843810453812 0 0
          -0.0020279604700141848 -0.000028060378976411226 0 0.00026784906635135574 0 0
          -0.002257482286500856 -0.0007931331005986591 0 0.0011783312185568004 0 0
          -0.00036831342976639185 -0.00040381622194787526 0 0.0014536989745533183 0 0
          -0.020576684541232272 -0.00839826575252458 0 0.012324470081340851 0 0
          -3.810315626849474e-7 -3.810315624761638e-7 0 3.810315622398123e-7 0 0
          -0.002969393932297927 -0.00006256671613380697 0 0.0002262553197529506 0 0
          -0.0013557072086738326 0.00015088996258822882 0 0.00006244290590726984 0 0
          -0.0013729608568650237 0.00009337780195092476 0 0.0008368537506821987 0 0
          -0.000012717714542836941 -5.805951131112048e-7 0 0.0000014499445657759284 0 0
          -0.00020097230979646788 -0.0001248893907043823 0 0.0007320152535097035 0 0
          0.0005597118251586368 0.0006967419736045058 0 0.0004321866088923639 0 0
          -0.0000012627815856820826 2.69871530068949e-7 0 6.856764350841303e-7 0 0
          -0.00015406331944968054 0.0000314739104515755 0 0.00005395809014882607 0 0
          -0.0000011898458001025369 2.5197329529255823e-7 0 0.0000021465570385323 0 0
          -0.0000014280374810317087 -1.2989509072323272e-7 0 4.6911303734954885e-7 0 0
          -0.0000707304258412126 0.000010011945838462954 0 0.000042940911536414064 0 0
          5.107101461388829e-7 3.377843086038483e-8 0 0.0000020821070591085204 0 0
          -0.0002417542917198167 0.00001804757154070872 0 0.000018541669452606117 0 0
          -0.00004365076030710186 0.000011603015654899332 0 -0.0000027358757200180117 0 0
          0.000016545448393067124 0.00005348290592062118 0 0.0003835354704052188 0 0
          -0.000051135359390377786 0.00000598107434952841 0 0.0000019808502042142034 0 0
          -0.0001358568178648409 0.000453870286976346 0 0.0006615953734270605 0 0
          -0.0048771801597764465 -0.021550461874777965 0 0.02648235085473078 0 0
          0.0005388937622052213 0.0006273484304264544 0 0.000542602139847608 0 0
          -0.00044216400571879576 0.0000013125926677213541 0 0.00014671296912126985 0 0
          -0.00020621811831887448 -0.0000633295279117249 0 0.00011195620282462699 0 0
          -0.000026710825405393523 -0.00007137668351046435 0 0.00006775337130302632 0 0
          -0.0001739459886625448 0.000044244237609415317 0 -0.000009105099912019728 0 0
          0.00006435310445222702 0.000024108862744715113 0 0.00003302410304898225 0 0
          0.008022638828313423 -0.00011274547156158972 0 -0.0015457877036028859 0 0
          0.0009026619281347257 0.006224798325547696 0 -0.000524989039004628 0 0
          0.25670941008449555 -0.06574898989128222 0 0.09218987887158836 0 0
          0.01462616824787578 -0.007024720807861271 0 -0.0010257672250429907 0 0
          -1.5222217090110854e-7 -8.876967324086538e-8 0 5.213199840531044e-7 0 0
          -0.000009642372561142554 -0.00045554999408470894 0 0.0000622749025647102 0 0
          -0.00004748719267869884 0.00001814601752250176 0 0.000001891357289143591 0 0
          -0.0013433913227673816 -0.018713267170173395 0 0.003651767816747438 0 0
          -6.315656474586727e-8 -5.821514979250897e-7 0 0.0000016625950445550723 0 0
          0.0002353697651850597 0.000027866922518297634 0 0.000017442499579127883 0 0
          -0.21526592084174856 0.055545802497975014 0 0.2643370547588933 0 0
          -3.46193810131787 -0.42918280638466044 0 0.6997420138560196 0 0
          <InformationKey name="L2_NORM_RANGE" location="vtkDataArray" length="2">
            <Value index="0">
              5.5029643827e-07
            </Value>
            <Value index="1">
              3.5579280747
            </Value>
          </InformationKey>
        </DataArray>
        <DataArray type="Float64" Name="Strain" NumberOfComponents="6" format="ascii" RangeMin="4.4169266791935494e-15" RangeMax="2.704291257200831e-11">
          1.461400415033317e-12 -1.7099485307580636e-12 0 2.167807670413018e-12 0 0
          -1.495821066696368e-11 3.2963258701442135e-12 0 5.158312305362518e-12 0 0
          -1.3252102368334445e-11 3.846244895727178e-12 0 7.095822083155574e-12 0 0
          -8.414759818005254e-12 2.418032341782684e-12 0 2.901698218806354e-12 0 0
          -8.414759818005241e-12 -4.828683943683436e-13 0 1.276525486769867e-11 0 0
          -1.0298690132584553e-12 -1.2221758042414905e-12 0 1.574840555766095e-11 0 0
          -1.3252102368334468e-11 -1.6331087113361223e-12 0 2.3516671939996678e-11 0 0
          -1.111342058092076e-15 -1.111342056961165e-15 0 4.1278419242646334e-15 0 0
          -1.2294266322740768e-11 3.451047764814879e-12 0 2.4510992973236312e-12 0 0
          -5.837392489376253e-12 2.323342188293244e-12 0 6.764648139954235e-13 0 0
          -5.837392489376253e-12 2.1052752458767997e-12 0 9.065915632390488e-12 0 0
          -5.2264733370431584e-14 1.3477996873916157e-14 0 1.5707732795905895e-14 0 0
          -6.812728857714716e-13 -2.6915707402267476e-13 0 7.93016524635512e-12 0 0
          1.4612051378220207e-12 2.203451775237145e-12 0 4.682021596333943e-12 0 0
          -5.5989293529281954e-15 2.702941690723223e-15 0 7.428161380078078e-15 0 0
          -6.812728857714716e-13 3.237204428603319e-13 0 5.845459766122825e-13 0 0
          -5.272657452876268e-15 2.5371959805138303e-15 0 2.3254367917433247e-14 0 0
          -5.7877873075614115e-15 1.2438173066094997e-15 0 5.082057904620113e-15 0 0
          -3.072250399697978e-13 1.3012947329511136e-13 0 4.651932083111521e-13 0 0
          2.0857359036698643e-15 -4.976442207553335e-16 0 2.2556159807008967e-14 0 0
          -1.0298690132584553e-12 3.773910794027237e-13 0 2.0086808573656628e-13 0 0
          -1.963819375148819e-13 1.0290934894595785e-13 0 -2.963865363352845e-14 0 0
          2.0857359036698643e-15 2.021636308445877e-13 0 4.1549675960565374e-12 0 0
          -2.2054034039681794e-13 8.884034236100728e-14 0 2.1459210545653865e-14 0 0
          -1.1334079331572696e-12 2.060947218065826e-12 0 7.167283212126487e-12 0 0
          2.5898087592110587e-13 -3.2760483947116856e-12 0 1.1229449250223035e-11 0 0
          1.4612051378220207e-12 1.940334590687033e-12 0 5.878189848349086e-12 0 0
          -1.843990764662967e-12 5.581741432640003e-13 0 1.5893904988137562e-12 0 0
          -7.800802497723205e-13 -6.1003850669273574e-15 0 1.212858863933459e-12 0 0
          -2.207425146772593e-14 -2.6401431620352617e-13 0 7.339948557827849e-13 0 0
          -7.800802497723724e-13 4.017834758674115e-13 0 -9.86385823802137e-14 0 0
          2.380018567867187e-13 2.0012214204362534e-14 0 3.5776111636397437e-13 0 0
          1.3319024900062945e-12 -4.165324143756868e-13 0 -6.644330682166488e-13 0 0
          -5.205970526871309e-14 3.2127972477172386e-13 0 -7.365429743391676e-14 0 0
          1.263162289126411e-12 -6.523483673082494e-13 0 1.0952773778398272e-12 0 0
          1.224910212507534e-13 -8.354082846221528e-14 0 -1.9522590338575064e-14 0 0
          -5.232969538702039e-16 -1.7959592487722003e-16 0 5.647633160575297e-15 0 0
          5.292609402677922e-13 -1.886072009651525e-12 0 6.746447777843606e-13 0 0
          -2.2054582473103894e-13 1.3496739719213086e-13 0 2.048970396572224e-14 0 0
          2.2091682537071208e-12 -9.471860706610203e-12 0 4.911538343568739e-12 0 0
          4.64537019298582e-16 -2.3466855354222065e-15 0 1.8011446316013282e-14 0 0
          9.458737017898767e-13 -1.781000293217511e-13 0 1.8896041210721873e-13 0 0
          -1.234508297606191e-12 6.394008541419873e-13 0 3.658214053292358e-12 0 0
          -2.1416166260755375e-11 3.915470958301981e-12 0 1.1689443504754418e-11 0 0
          <InformationKey name="L2_NORM_RANGE" location="vtkDataArray" length="2">
            <Value index="0">
              4.4169266792e-15
            </Value>
            <Value index="1">
              2.7042912572e-11
            </Value>
          </InformationKey>
        </DataArray>
      </CellData>
      <Points>
        <DataArray type="Float32" Name="Points" NumberOfComponents="3" format="ascii" RangeMin="92.44066980668491" RangeMax="215.40659228538016">
          200 0 0 200 20 0
          175 0 0 170.3333282470703 25.352571487426758 0
          200 40 0 157 13.358983993530273 0
          180 45.35898208618164 0 150 0 0
          150 28.038475036621094 0 142.39999389648438 13.887187004089355 0
          200 60 0 160 45.35898208618164 0
          171.6666717529297 62.23291015625 0 125 0 0
          140 45.35898208618164 0 130 28.038475036621094 0
          200 80 0 150 62.67949295043945 0
          180 80 0 160 80 0
          120 45.35898208618164 0 110.71759033203125 23.771137237548828 0
          130 62.67949295043945 0 140 80 0
          110 62.67949295043945 0 120 80 0
          100 80 0 90 62.67949295043945 0
          100 45.35898208618164 0 89.30555725097656 23.870376586914062 0
          100 0 0 80 80 0
          <InformationKey name="L2_NORM_RANGE" location="vtkDataArray" length="2">
            <Value index="0">
              92.440669807
            </Value>
            <Value index="1">
              215.40659229
            </Value>
          </InformationKey>
        </DataArray>
      </Points>
      <Cells>
        <DataArray type="Int64" Name="connectivity" format="ascii" RangeMin="0" RangeMax="31">
          0 1 2 25 26 24
          24 26 27 25 24 22
          22 24 20 20 24 28
          28 24 27 16 18 10
          25 22 23 23 22 17
          17 22 14 23 17 19
          14 22 20 17 14 11
          19 17 12 14 20 15
          17 11 12 19 12 18
          15 20 21 12 11 6
          21 20 28 15 21 13
          6 11 3 21 28 29
          3 11 8 6 3 1
          8 11 14 3 8 5
          8 14 15 5 8 9
          8 15 9 9 15 13
          9 13 7 9 7 5
          5 7 2 5 2 3
          18 12 10 4 10 6
          21 29 30 1 4 6
          12 6 10 30 13 21
          3 2 1 27 26 31
        </DataArray>
        <DataArray type="Int64" Name="offsets" format="ascii" RangeMin="3" RangeMax="132">
          3 6 9 12 15 18
          21 24 27 30 33 36
          39 42 45 48 51 54
          57 60 63 66 69 72
          75 78 81 84 87 90
          93 96 99 102 105 108
          111 114 117 120 123 126
          129 132
        </DataArray>
        <DataArray type="UInt8" Name="types" format="ascii" RangeMin="5" RangeMax="5">
          5 5 5 5 5 5
          5 5 5 5 5 5
          5 5 5 5 5 5
          5 5 5 5 5 5
          5 5 5 5 5 5
          5 5 5 5 5 5
          5 5 5 5 5 5
          5 5
        </DataArray>
      </Cells>
    </Piece>
  </UnstructuredGrid>
</VTKFile>
