<?xml version="1.0"?>
<VTKFile type="UnstructuredGrid" version="0.1" byte_order="LittleEndian" header_type="UInt32" compressor="vtkZLibDataCompressor">
  <UnstructuredGrid>
    <Piece NumberOfPoints="11" NumberOfCells="12">
      <PointData>
        <DataArray type="Float64" Name="Disp" NumberOfComponents="3" format="ascii" RangeMin="0.6205948972425198" RangeMax="2.5208417342122575">
          2.4656684650620493 -0.4972399888761774 0 1.964813402964217 -0.4185565972226259 0
          1.3671682194729895 -0.32169002396510465 0 2.2373692019346376 -0.30485114513073885 0
          1.6790059290252468 -0.2180827438861741 0 2.513577706614467 -0.19123326529926252 0
          2.00575083316592 -0.11246943805967585 0 0.9918242069148212 -0.11508270108755886 0
          0.6165312757627999 0.07090283837582362 0 0.6094956037013514 -0.19416268062954808 0
          1.3804671728471596 -0.020947574913013994 0
          <InformationKey name="L2_NORM_RANGE" location="vtkDataArray" length="2">
            <Value index="0">
              0.62059489724
            </Value>
            <Value index="1">
              2.5208417342
            </Value>
          </InformationKey>
        </DataArray>
        <DataArray type="Float64" Name="Sld_traction" NumberOfComponents="3" format="ascii" RangeMin="0" RangeMax="78.17491331135841">
          2.321428237887043 1.7176407507325566 0 7.506780144728271 6.36138336756299 0
          22.5713237492662 17.76661680175335 0 0 0 0
          0 0 0 0.16203713084756355 -0.5049350512217726 0
          4.329446196921274 -9.9238098545643 0 0 0 0
          54.311084557787744 -56.22831284500035 0 68.34638471592505 25.646569102541505 0
          19.821121681202538 -31.504204481046514 0
          <InformationKey name="L2_NORM_RANGE" location="vtkDataArray" length="2">
            <Value index="0">
              0
            </Value>
            <Value index="1">
              78.174913311
            </Value>
          </InformationKey>
        </DataArray>
        <DataArray type="Float64" Name="Fld_traction" NumberOfComponents="3" format="ascii" RangeMin="0" RangeMax="4.43078770364504">
          2.1171527619026502 0.3937461761473446 0 2.99575071306236 -0.917177186911739 0
          3.0047577271846997 -0.8865018201464024 0 0 0 0
          0 0 0 0.7521345833590796 0.6828265344691736 0
          2.6340436263380056 -0.5572705208982317 0 0 0 0
          0 0 0 3.0208003741943505 -0.7767634444903966 0
          4.2831847078071394 -1.1341112968219438 0
          <InformationKey name="L2_NORM_RANGE" location="vtkDataArray" length="2">
            <Value index="0">
              0
            </Value>
            <Value index="1">
              4.4307877036
            </Value>
          </InformationKey>
        </DataArray>
        <DataArray type="Float64" Name="Velocity" NumberOfComponents="3" format="ascii" RangeMin="0.00223365928167753" RangeMax="0.01841822483991974">
          -0.015907578954044377 0.009283315036918705 0 -0.008663412055503805 0.0078920151769869 0
          -0.003180549411527789 0.00644185485198227 0 -0.012375263491481547 0.006422482466666171 0
          -0.005943157054880244 0.005573793286058393 0 -0.01667221414240405 0.004534894143536375 0
          -0.009324213385115243 0.004064720362487784 0 -0.0006202677874692641 0.004056085863802905 0
          0.001041950865423913 0.001975745980804855 0 0.0025230415070384704 0.003719897275912168 0
          -0.004165581701925936 0.003989015815382184 0
          <InformationKey name="L2_NORM_RANGE" location="vtkDataArray" length="2">
            <Value index="0">
              0.0022336592817
            </Value>
            <Value index="1">
              0.01841822484
            </Value>
          </InformationKey>
        </DataArray>
      </PointData>
      <CellData>
        <DataArray type="UInt8" Name="vtkGhostType" format="ascii" RangeMin="0" RangeMax="0">
          0 0 0 0 0 0
          0 0 0 0 0 0
        </DataArray>
        <DataArray type="Float64" Name="Gauss Stress" NumberOfComponents="6" format="ascii" RangeMin="2.663569719077776" RangeMax="125.64277903474607">
          1.3571317295175942 2.2151167412114194 0 0.5882643452815641 0 0
          1.4854362049664105 3.8973062017791795 0 3.5506860437669943 0 0
          3.567503781769461 -1.9028793410400482 0 0.8261643521072971 0 0
          3.733245961796345 -0.16677599205735855 0 3.7947771857607524 0 0
          -2.517465569426721 6.72700944895609 0 -5.905919335844289 0 0
          35.50879823139228 -55.73179772058815 0 106.86065643897076 0 0
          -1.3272145060972282 17.451328251395957 0 22.48339219008387 0 0
          12.376688289467268 -27.780699496390817 0 2.1879538099410927 0 0
          14.365511777539343 -15.508268624016647 0 30.6705202204282 0 0
          -15.219707623723945 28.138724107824764 0 -45.85370645954916 0 0
          32.546896148316364 -79.70854841137405 0 0.40615409948291414 0 0
          -12.395156704995296 48.96062136854745 0 59.679049808868044 0 0
          <InformationKey name="L2_NORM_RANGE" location="vtkDataArray" length="2">
            <Value index="0">
              2.6635697191
            </Value>
            <Value index="1">
              125.64277903
            </Value>
          </InformationKey>
        </DataArray>
        <DataArray type="Float64" Name="Gauss Strain" NumberOfComponents="6" format="ascii" RangeMin="0.00022376365122725886" RangeMax="0.022403001584161954">
          0.00008469183863701879 0.00017047272448206252 0 0.0001176287136990723 0 0
          0.00007146682449316044 0.0003125731560931211 0 0.0007098996942680542 0 0
          0.0003328152192496048 -0.00021418539031203832 0 0.00016522148231865367 0 0
          0.00032203411630415957 -0.00006788826706216611 0 0.0007588001206781593 0 0
          -0.0003127174645272124 0.000611498885167816 0 -0.001180888519751146 0 0
          0.0036159824810986785 -0.005523469451913177 0 0.021408186188702032 0 0
          -0.00037208789442222384 0.001503712637743737 0 0.004491760577984788 0 0
          0.0014531083073764939 -0.0025672723765072236 0 0.00043809658544646877 0 0
          0.001433142568429191 -0.0015546780149575667 0 0.006135012735984414 0 0
          -0.0017487170142501673 0.0025834998384964836 0 -0.00916307126211932 0 0
          0.0038944868403559263 -0.00736992331437647 0 0.00008151206171864184 0 0
          -0.0018307626651495874 0.004289483558176265 0 0.011905984755554875 0 0
          <InformationKey name="L2_NORM_RANGE" location="vtkDataArray" length="2">
            <Value index="0">
              0.00022376365123
            </Value>
            <Value index="1">
              0.022403001584
            </Value>
          </InformationKey>
        </DataArray>
        <DataArray type="Float64" Name="Btraction" NumberOfComponents="3" format="ascii" RangeMin="0" RangeMax="2.3736708627031864">
          0.956429115087243 0.358857570205506 0 1.1287260698990282 0.04185200452364732 0
          1.7043011583216698 -0.17447700358813145 0 0 0 0
          0 0 0 0 0 0
          2.3057427780483812 -0.5637939392400584 0 2.000169480082353 -0.601226335686047 0
          0 0 0 0 0 0
          2.0085193671263504 -0.554421754878933 0 0 0 0
          <InformationKey name="L2_NORM_RANGE" location="vtkDataArray" length="2">
            <Value index="0">
              0
            </Value>
            <Value index="1">
              2.3736708627
            </Value>
          </InformationKey>
        </DataArray>
      </CellData>
      <Points>
        <DataArray type="Float32" Name="Points" NumberOfComponents="3" format="ascii" RangeMin="10.632507764558053" RangeMax="14.866068747318506">
          11 10 0 11 8.362662315368652 0
          11 6.387491226196289 0 10.5 9.17588996887207 0
          10.5 7.3431549072265625 0 10 10 0
          10 8.340899467468262 0 10.5 5 0
          10 3.61250901222229 0 11 3.7184319496154785 0
          10 6.2815680503845215 0
          <InformationKey name="L2_NORM_RANGE" location="vtkDataArray" length="2">
            <Value index="0">
              10.632507765
            </Value>
            <Value index="1">
              14.866068747
            </Value>
          </InformationKey>
        </DataArray>
      </Points>
      <Cells>
        <DataArray type="Int64" Name="connectivity" format="ascii" RangeMin="0" RangeMax="10">
          0 5 3 3 5 6
          0 3 1 3 6 1
          1 6 4 8 9 7
          4 6 10 1 4 2
          2 4 10 2 10 7
          7 9 2 8 7 10
        </DataArray>
        <DataArray type="Int64" Name="offsets" format="ascii" RangeMin="3" RangeMax="36">
          3 6 9 12 15 18
          21 24 27 30 33 36
        </DataArray>
        <DataArray type="UInt8" Name="types" format="ascii" RangeMin="5" RangeMax="5">
          5 5 5 5 5 5
          5 5 5 5 5 5
        </DataArray>
      </Cells>
    </Piece>
  </UnstructuredGrid>
</VTKFile>
