<?xml version="1.0"?>
<VTKFile type="UnstructuredGrid" version="0.1" byte_order="LittleEndian" header_type="UInt32" compressor="vtkZLibDataCompressor">
  <UnstructuredGrid>
    <Piece NumberOfPoints="11" NumberOfCells="12">
      <PointData>
        <DataArray type="Float64" Name="Disp" NumberOfComponents="3" format="ascii" RangeMin="0.6081047032182054" RangeMax="2.473358897732135">
          2.4205809780556367 -0.47642175026168526 0 1.9266836557497609 -0.39984161447029454 0
          1.339143202107662 -0.30627052533530663 0 2.1950867246418593 -0.28726603038896037 0
          1.6452592531411494 -0.20363288869380908 0 2.4671884250126066 -0.17460100937433415 0
          1.9662962725978683 -0.0984645742606274 0 0.9712790472005239 -0.10590108031784656 0
          0.6036137815261924 0.07376810169546032 0 0.5973715358963153 -0.18515922499114773 0
          1.3513811445625599 -0.011620994406953994 0
          <InformationKey name="L2_NORM_RANGE" location="vtkDataArray" length="2">
            <Value index="0">
              0.60810470322
            </Value>
            <Value index="1">
              2.4733588977
            </Value>
          </InformationKey>
        </DataArray>
        <DataArray type="Float64" Name="Sld_traction" NumberOfComponents="3" format="ascii" RangeMin="0" RangeMax="76.64542285642406">
          2.4130970229178583 2.2903745394323294 0 7.98060641835398 6.526587883864082 0
          22.503819333568416 16.545836482330362 0 0 0 0
          0 0 0 0.41452764867475383 -1.203745715644162 0
          5.723206974552912 -11.246741853259111 0 0 0 0
          54.14717761141859 -54.2457740433072 0 66.31328757872201 24.219356886663306 0
          21.317466371105308 -31.157007118436667 0
          <InformationKey name="L2_NORM_RANGE" location="vtkDataArray" length="2">
            <Value index="0">
              0
            </Value>
            <Value index="1">
              76.645422856
            </Value>
          </InformationKey>
        </DataArray>
        <DataArray type="Float64" Name="Fld_traction" NumberOfComponents="3" format="ascii" RangeMin="0" RangeMax="4.887608455558988">
          1.7501200451486918 0.29851433503774283 0 2.5452037030187973 -0.7608513467085661 0
          2.599174615320592 -0.7481836253669385 0 0 0 0
          0 0 0 0.9293652664161013 0.41502239482975134 0
          3.039719862485912 -0.6749895883352199 0 0 0 0
          0 0 0 2.6340586983931007 -0.660998257295818 0
          4.727333950066272 -1.2413823502058259 0
          <InformationKey name="L2_NORM_RANGE" location="vtkDataArray" length="2">
            <Value index="0">
              0
            </Value>
            <Value index="1">
              4.8876084556
            </Value>
          </InformationKey>
        </DataArray>
        <DataArray type="Float64" Name="Velocity" NumberOfComponents="3" format="ascii" RangeMin="0.006068770486616705" RangeMax="0.01815697931603268">
          -0.012934938761869796 0.0016639033519151303 0 0.0024279503059148055 -0.005561927051952242 0
          0.0039005014719384334 -0.01215036580453661 0 -0.00570118210425985 -0.006169320434829359 0
          0.00384674242484917 -0.010114734920006974 0 -0.015708247077252047 -0.009106419254725814 0
          0.0012884465362357211 -0.011936851692294886 0 -0.0027879152380848593 -0.008443313171786593 0
          -0.010496076539522226 -0.004253698463708849 0 -0.00935954908903397 -0.007499651721011455 0
          0.003986444567224856 -0.00898477080128985 0
          <InformationKey name="L2_NORM_RANGE" location="vtkDataArray" length="2">
            <Value index="0">
              0.0060687704866
            </Value>
            <Value index="1">
              0.018156979316
            </Value>
          </InformationKey>
        </DataArray>
      </PointData>
      <CellData>
        <DataArray type="UInt8" Name="vtkGhostType" format="ascii" RangeMin="0" RangeMax="0">
          0 0 0 0 0 0
          0 0 0 0 0 0
        </DataArray>
        <DataArray type="Float64" Name="Gauss Stress" NumberOfComponents="6" format="ascii" RangeMin="2.9685404731322813" RangeMax="122.05323858745025">
          1.0350580884981935 2.699430669742449 0 0.673766542144034 0 0
          1.6585966595087445 5.561629789507792 0 5.537163705619877 0 0
          3.828854173118189 -2.9774390428167417 0 1.1483824380374388 0 0
          4.501288130465754 -0.029940984393763838 0 6.018081621315785 0 0
          -3.4114054639036633 11.157529422846277 0 -6.830256400357833 0 0
          33.42019528150948 -46.433912976766436 0 107.81454133231244 0 0
          -2.7512193538583958 23.740963247468507 0 25.617190770417178 0 0
          13.166326569482877 -26.970255286023225 0 2.359944030325024 0 0
          14.72933498486853 -12.593608028173326 0 34.8975360749858 0 0
          -14.969031408666957 34.92096495594074 0 -45.766874494436216 0 0
          32.010792970678416 -71.78262862260765 0 1.173624849284123 0 0
          -13.684614856401563 57.11120221487322 0 59.97361823688438 0 0
          <InformationKey name="L2_NORM_RANGE" location="vtkDataArray" length="2">
            <Value index="0">
              2.9685404731
            </Value>
            <Value index="1">
              122.05323859
            </Value>
          </InformationKey>
        </DataArray>
        <DataArray type="Float64" Name="Gauss Strain" NumberOfComponents="6" format="ascii" RangeMin="0.0002599396520238772" RangeMax="0.02233741439476588">
          0.000050166154780983956 0.0002165673139613022 0 0.00013472408148646435 0 0
          0.00006224557062656233 0.000452367216917826 0 0.0011069172864650566 0 0
          0.0003704993132717104 -0.0003101226846325966 0 0.0002296740162487681 0 0
          0.00038549797814585446 -0.00006750306133396222 0 0.0012032925994363473 0 0
          -0.0004531070738260644 0.0010030549213082547 0 -0.0013653653976132335 0 0
          0.003305922617032164 -0.004688816584403455 0 0.021588097566286664 0 0
          -0.0005871214283134085 0.0020582873265100323 0 0.005116070786455434 0 0
          0.00150896327857658 -0.002508875792138321 0 0.0004724804600389523 0 0
          0.0014182384228750289 -0.0013138301210315895 0 0.006978930529175181 0 0
          -0.0018249631770341774 0.0031573668596953644 0 -0.009141138107703797 0 0
          0.0037386903283165287 -0.006671045914693029 0 0.00023541232077620963 0 0
          -0.0020605384603946666 0.004997915238920958 0 0.011958927095347753 0 0
          <InformationKey name="L2_NORM_RANGE" location="vtkDataArray" length="2">
            <Value index="0">
              0.00025993965202
            </Value>
            <Value index="1">
              0.022337414395
            </Value>
          </InformationKey>
        </DataArray>
        <DataArray type="Float64" Name="Btraction" NumberOfComponents="3" format="ascii" RangeMin="0" RangeMax="2.666658465277158">
          0.8931617705215976 0.237845576622498 0 1.323028376300671 -0.08665573116848951 0
          1.431774582722496 -0.15411233722360776 0 0 0 0
          0 0 0 0 0 0
          2.589017937517394 -0.6387906461803484 0 1.7147927727797962 -0.5030116573585014 0
          0 0 0 0 0 0
          1.7444111045712305 -0.4697272942209187 0 0 0 0
          <InformationKey name="L2_NORM_RANGE" location="vtkDataArray" length="2">
            <Value index="0">
              0
            </Value>
            <Value index="1">
              2.6666584653
            </Value>
          </InformationKey>
        </DataArray>
      </CellData>
      <Points>
        <DataArray type="Float32" Name="Points" NumberOfComponents="3" format="ascii" RangeMin="10.632507764558053" RangeMax="14.866068747318506">
          11 10 0 11 8.362662315368652 0
          11 6.387491226196289 0 10.5 9.17588996887207 0
          10.5 7.3431549072265625 0 10 10 0
          10 8.340899467468262 0 10.5 5 0
          10 3.61250901222229 0 11 3.7184319496154785 0
          10 6.2815680503845215 0
          <InformationKey name="L2_NORM_RANGE" location="vtkDataArray" length="2">
            <Value index="0">
              10.632507765
            </Value>
            <Value index="1">
              14.866068747
            </Value>
          </InformationKey>
        </DataArray>
      </Points>
      <Cells>
        <DataArray type="Int64" Name="connectivity" format="ascii" RangeMin="0" RangeMax="10">
          0 5 3 3 5 6
          0 3 1 3 6 1
          1 6 4 8 9 7
          4 6 10 1 4 2
          2 4 10 2 10 7
          7 9 2 8 7 10
        </DataArray>
        <DataArray type="Int64" Name="offsets" format="ascii" RangeMin="3" RangeMax="36">
          3 6 9 12 15 18
          21 24 27 30 33 36
        </DataArray>
        <DataArray type="UInt8" Name="types" format="ascii" RangeMin="5" RangeMax="5">
          5 5 5 5 5 5
          5 5 5 5 5 5
        </DataArray>
      </Cells>
    </Piece>
  </UnstructuredGrid>
</VTKFile>
