<?xml version="1.0"?>
<VTKFile type="UnstructuredGrid" version="0.1" byte_order="LittleEndian" header_type="UInt32" compressor="vtkZLibDataCompressor">
  <UnstructuredGrid>
    <Piece NumberOfPoints="33" NumberOfCells="46">
      <PointData>
        <DataArray type="Float64" Name="proc" format="ascii" RangeMin="0" RangeMax="1">
          1 1 1 1 1 1
          1 1 1 1 1 1
          1 1 1 1 1 1
          1 1 1 1 1 1
          1 1 1 1 0 0
          0 0 0
        </DataArray>
        <DataArray type="Float64" Name="Displacement" NumberOfComponents="3" format="ascii" RangeMin="0" RangeMax="7.313435999276056e-11">
          2.925109400458562e-11 -6.70299046029874e-11 0 2.920507375530044e-11 -6.378425542718042e-11 0
          2.8399575782230646e-11 -6.429215836041522e-11 0 2.1173353994631883e-11 -5.969571383138354e-11 0
          3.113232526021177e-11 -6.212716045264424e-11 0 3.0299529224622996e-11 -6.147011670865455e-11 0
          2.6816434659991766e-11 -5.915789302824541e-11 0 2.0599578585426022e-11 -5.521101852656879e-11 0
          3.635931149559555e-11 -5.879709192499035e-11 0 3.4884706149478725e-11 -5.7342385976673675e-11 0
          3.1559070775896324e-11 -5.436023558492564e-11 0 1.2964021983402761e-11 -5.333288843417861e-11 0
          2.6568218835060442e-11 -4.992015072752563e-11 0 1.9111356459432843e-11 -4.60728341252051e-11 0
          4.2702337308015975e-11 -5.198764625940071e-11 0 3.8144544736365315e-11 -4.8272659484403244e-11 0
          3.337438358396836e-11 -4.2386882618926983e-11 0 6.4061073293252286e-12 -3.169350122321608e-11 0
          2.6274740171748686e-11 -3.2828929294179134e-11 0 4.73218233140021e-11 -4.1811695622569195e-11 0
          4.047206329213036e-11 -3.652605148342309e-11 0 3.4948604487624595e-11 -2.840332741216063e-11 0
          4.9717920717998477e-11 -3.0274710717926165e-11 0 0 0 0
          2.0142223508263006e-11 -9.481277400686833e-12 0 3.136176175256629e-11 -1.5341816466962833e-11 0
          4.028292306794157e-11 -1.823461152079056e-11 0 5.017381348873726e-11 -1.8690504291529327e-11 0
          2.72609458088337e-11 -6.211744747559323e-11 0 2.919149950102977e-11 -6.115824726422906e-11 0
          2.811317093905602e-11 -6.144143965355167e-11 0 3.00846253785312e-11 -6.427048566081704e-11 0
          3.734342849737666e-11 -5.9633445359091e-11 0
          <InformationKey name="L2_NORM_RANGE" location="vtkDataArray" length="2">
            <Value index="0">
              0
            </Value>
            <Value index="1">
              7.3134359993e-11
            </Value>
          </InformationKey>
        </DataArray>
        <DataArray type="Float64" Name="TopologicalDerivative1" format="ascii" RangeMin="-0.066620893134996" RangeMax="0.5057958565670165">
          0.055122921578820275 -0.06007846800647101 -0.021999868957013655 0.06122998503236095 0.00018682195660572887 -0.054517176652080904
          -0.036788195328613715 0.056021539239763815 0.07776590860051617 -0.000029489381564995476 -0.03875963228255996 0.17395357854546978
          -0.01996547062851231 0.04670622171515061 0.04486595561624465 -0.009759593886456877 -0.01383729103820456 0.14676674726363226
          0.019949819847927264 -0.00984723221373314 -0.03499797002638902 -0.009813831686012409 -0.057013738975895026 0.5057958565670165
          0.1939232426516851 0.08253437596376985 -0.03914679451722501 -0.066620893134996 -0.005128109317244875 0.07828781331444189
          -0.05377200098490313 -0.02264972524075594 0.03185835702416849
        </DataArray>
      </PointData>
      <CellData>
        <DataArray type="UInt8" Name="vtkGhostType" format="ascii" RangeMin="0" RangeMax="1">
          1 1 1 0 0 1
          1 1 1 0 0 0
          1 0 0 0 0 0
          0 0 0 0 0 0
          0 0 0 0 0 0
          0 0 0 0 0 0
          0 0 0 0 0 0
          0 0 0 0
        </DataArray>
        <DataArray type="Float64" Name="Stress" NumberOfComponents="6" format="ascii" RangeMin="0.000012998775161156604" RangeMax="0.11160849933524378">
          -0.043883162666199446 -0.0005981523965233743 0 0.000016422766950370284 0 0
          -0.00001213570813230871 0.0000032237522087479384 0 0.0000033615718814731485 0 0
          -0.000048190134917045625 0.000011078467273118864 0 -1.5681461157374514e-10 0 0
          -0.000012276723557770159 0.000003318819807115644 0 -0.000003361135814757796 0 0
          -0.00000800610948464601 0.000017091187157415396 0 -0.000004706550775800555 0 0
          -0.000008015282452845466 0.000016958504473625413 0 0.000004550155398994952 0 0
          0.000022579062990178037 0.000012312665529694523 0 -5.147958737174491e-8 0 0
          0.015153600042912049 0.018588413378150932 0 0.00005294762784977035 0 0
          0.07384504189131477 0.01850142184053049 0 0.015010884473261876 0 0
          0.0775718532951786 0.019555957787352845 0 -0.01572914713218931 0 0
          -0.0019097715099631422 -0.07089940024830094 0 -0.027579740902589876 0 0
          0.003980166322341796 -0.01171232668484641 0 -0.018985279001739193 0 0
          -0.08470162444360603 0.004373731637277861 0 -0.0021410294139983413 0 0
          -0.04519624105790866 -0.0005666500191140646 0 -0.00422566850368693 0 0
          -0.07473651085370338 0.004599266541295881 0 -0.006667246460611492 0 0
          -0.0001640007415371479 0.000045698530588927377 0 -0.000030177125624547527 0 0
          -0.000013992807246702881 0.0000037389712285902697 0 -0.000011734945477512783 0 0
          -0.000035894018597390486 0.000010746814817495364 0 -0.000015450207038398886 0 0
          -0.03221645885383976 -0.0003382036587085968 0 -0.0072931946943408064 0 0
          -0.00001817742771346165 0.0000018542600507174063 0 -0.000020388381345359162 0 0
          0.00003082241706912017 0.000013525087125536027 0 -0.000011574327490610412 0 0
          -0.036821572681358064 0.0017731144250561683 0 -0.006985135438259212 0 0
          -0.00002659746156942897 0.000004442536999171864 0 -0.00002087118396904348 0 0
          -0.000010932551126654563 0.00001393982496208466 0 -0.000010895784370555472 0 0
          -0.000028008095058032314 -2.595746295059779e-7 0 -0.000011507967527212077 0 0
          0.000008122642634037398 0.000008599170183906764 0 -0.000013674670762406483 0 0
          -0.000029391215499921778 -0.0000021268221732176006 0 -0.000010357734699049177 0 0
          -0.000012055895256547681 0.00002195248009865883 0 -0.000018380863807069815 0 0
          0.00723785343251291 0.014312925905017097 0 -0.0013444094896910234 0 0
          -0.000009706727407554457 -8.802155976661732e-7 0 -0.000009173214792803786 0 0
          -0.0006470506614555445 0.0007298410577524179 0 -0.008514192167109509 0 0
          0.028299309063056936 0.01608322359634899 0 -0.01204908513321304 0 0
          0.0024524462117549825 0.020948739180812685 0 -0.01649445985863058 0 0
          0.04137383809046612 0.0514766248236887 0 -0.00590620541087553 0 0
          0.06776409736171617 0.016027055608572822 0 -0.023388192532385825 0 0
          0.08603217337708191 0.024075286897607785 0 0.013383618522099808 0 0
          0.03938216827181562 -0.0007898919279082737 0 -0.010045019038856039 0 0
          0.044944410816686264 0.007537353072532962 0 -0.0025331870879283114 0 0
          0.0010052960769280517 -0.009020433718814742 0 -0.02633848365504407 0 0
          -0.004575872502633443 -0.003051565151390006 0 -0.009195183597718615 0 0
          -0.0051705317504674615 -0.022608273050656345 0 -0.013373514333473774 0 0
          -0.000010247913730491935 -0.000011320904840104255 0 -0.00001997761342791312 0 0
          -0.00000945880531563935 3.5553497152662594e-7 0 -0.000024399400237174337 0 0
          -0.000007815304641236217 -0.00000781530464123607 0 -0.000007815304641236054 0 0
          0.03007256232862593 -0.10475356010965421 0 -0.024058049862968573 0 0
          0.014763880374848423 0.0011854647663044307 0 -0.0020283831660825825 0 0
          <InformationKey name="L2_NORM_RANGE" location="vtkDataArray" length="2">
            <Value index="0">
              1.2998775161e-05
            </Value>
            <Value index="1">
              0.11160849934
            </Value>
          </InformationKey>
        </DataArray>
        <DataArray type="Float64" Name="Strain" NumberOfComponents="6" format="ascii" RangeMin="7.158840776106945e-14" RangeMax="5.986026230861565e-13">
          -1.9356897256890337e-13 5.5659839441411963e-14 0 1.8911982099403516e-16 0 0
          -5.4595140812221203e-14 2.8601936035168963e-14 0 3.6417028715959116e-14 0 0
          -1.9356897256890337e-13 9.595281232319599e-14 0 -1.5320505145142842e-18 0 0
          -5.472277346612763e-14 2.8868992317451095e-14 0 -3.6031226513932876e-14 0 0
          -5.472277346612763e-14 8.122091667837165e-14 0 -5.098763340450601e-14 0 0
          -5.4595140812221203e-14 8.067953837282938e-14 0 4.9293350155778635e-14 0 0
          7.868859721362367e-14 2.3078944302671287e-14 0 -5.5769552986057e-16 0 0
          7.869444193408855e-14 1.153852787878992e-13 0 1.1311780790539506e-15 0 0
          3.236933797116415e-13 -1.7309674921243225e-14 0 1.8498094101638373e-13 0 0
          3.2310960039814953e-13 -1.6742826102648925e-14 0 -1.8428014504892191e-13 0 0
          8.066686901886309e-14 -2.930269533138e-13 0 -2.987805264447236e-13 0 0
          3.122443469914883e-14 -5.377656908978728e-14 0 -2.0567385585217452e-13 0 0
          -3.583905997282891e-13 1.2410091237649863e-13 0 -2.3194485318315366e-14 0 0
          -1.8761904446334777e-13 5.4137054424437154e-14 0 -4.5780438891152674e-14 0 0
          -3.1715129062102117e-13 1.1258427715975278e-13 0 -7.222852128920673e-14 0 0
          -1.8761904446334777e-13 1.001901031988543e-13 0 -8.283531665932039e-14 0 0
          -6.29770775636665e-14 3.307005584417139e-14 0 -1.2712857600638847e-13 0 0
          -1.6299192934432955e-13 8.964591831963545e-14 0 -1.6737724291598794e-13 0 0
          -1.6299192934432975e-13 4.7335590064921424e-14 0 -9.623861401697411e-14 0 0
          -7.80571072028203e-14 3.044786818648292e-14 0 -2.2087413124139095e-13 0 0
          1.1152037888108067e-13 1.782650835333323e-14 0 -1.2538854781494617e-13 0 0
          -2.3097430029930623e-13 7.926953040241882e-14 0 -1.1230018112911464e-13 0 0
          -1.163759277882522e-13 5.175739779166898e-14 0 -2.2610449299797098e-13 0 0
          -6.29770775636665e-14 7.174829291700428e-14 0 -1.1803766401435094e-13 0 0
          -1.163759277882522e-13 3.392855786626549e-14 0 -1.2466964821146418e-13 0 0
          2.3095381578605703e-14 2.5676572473731423e-14 0 -1.481422665927369e-13 0 0
          -1.198048701998187e-13 2.7877260319828885e-14 0 -1.1220879257303275e-13 0 0
          -7.767349702560555e-14 1.065385361484297e-13 0 -1.9912602457658966e-13 0 0
          2.7529892310316383e-14 1.1353901989453118e-13 0 -3.268701141186675e-14 0 0
          -3.934442803439418e-14 8.465844269167347e-15 0 -9.937649358870768e-14 0 0
          -1.2197882534354084e-14 1.3014169877032924e-14 0 -3.1180412542718467e-13 0 0
          1.061538591269563e-13 3.4338427556238845e-14 0 -1.4166735346313828e-13 0 0
          -1.8777191996661084e-14 9.904125671281701e-14 0 -2.1013417943753714e-13 0 0
          1.0804521101399797e-13 1.6276863915228696e-13 0 -6.398389195115159e-14 0 0
          2.6231658616310133e-13 -1.7925723333091783e-14 0 -2.5337208576751307e-13 0 0
          3.283732804491649e-13 -7.226521314653264e-15 0 1.4498920065608127e-13 0 0
          1.650797327091171e-13 -5.251892670605399e-14 0 -1.088210395876071e-13 0 0
          2.0889267635301496e-13 -2.9099727302593136e-14 0 -3.2233451135816146e-14 0 0
          1.602523653975515e-14 -4.025073071956293e-14 0 -2.956839400281341e-13 0 0
          -3.8478171125030224e-14 -1.7647588336200992e-14 0 -2.5131550147614905e-13 0 0
          1.1072366252610188e-14 -1.4463975269138635e-13 0 -2.3884036570384886e-13 0 0
          -2.8548509493586064e-14 -3.436054467065281e-14 0 -2.164241454690588e-13 0 0
          -3.985610752957224e-14 1.3304902359243459e-14 0 -2.6432683590272205e-13 0 0
          -2.279463853693915e-14 -2.279463853693834e-14 0 -8.466580028005726e-14 0 0
          2.5624429317300914e-13 -4.740638700343417e-13 0 -2.6062887351549295e-13 0 0
          1.3048084354055985e-13 -2.9374899302038786e-14 0 -4.775943042714427e-14 0 0
          <InformationKey name="L2_NORM_RANGE" location="vtkDataArray" length="2">
            <Value index="0">
              7.1588407761e-14
            </Value>
            <Value index="1">
              5.9860262309e-13
            </Value>
          </InformationKey>
        </DataArray>
      </CellData>
      <Points>
        <DataArray type="Float32" Name="Points" NumberOfComponents="3" format="ascii" RangeMin="0" RangeMax="128.28654354956544">
          100 0 0 100 45.35898208618164 0
          89.30555725097656 23.870376586914062 0 75 0 0
          90 62.67949295043945 0 80 45.35898208618164 0
          70 28.038475036621094 0 57 13.358983993530273 0
          80 80 0 70 62.67949295043945 0
          60 45.35898208618164 0 50 0 0
          48.827545166015625 28.876956939697266 0 41.327545166015625 13.757295608520508 0
          60 80 0 50 62.67949295043945 0
          38.48822784423828 45.76527404785156 0 25 0 0
          24.63772964477539 27.38901710510254 0 40 80 0
          30 62.67949295043945 0 17.464101791381836 47.607696533203125 0
          20 80 0 0 0 0
          0 20 0 0 40 0
          0 60 0 0 80 0
          110 62.67949295043945 0 100 80 0
          120 45.35898208618164 0 110.71759033203125 23.771137237548828 0
          125 0 0
          <InformationKey name="L2_NORM_RANGE" location="vtkDataArray" length="2">
            <Value index="0">
              0
            </Value>
            <Value index="1">
              128.28654355
            </Value>
          </InformationKey>
        </DataArray>
      </Points>
      <Cells>
        <DataArray type="Int64" Name="connectivity" format="ascii" RangeMin="0" RangeMax="32">
          28 29 4 30 28 1
          1 28 4 4 5 1
          1 5 2 31 30 1
          31 1 2 31 2 0
          0 32 31 3 0 2
          25 24 18 18 24 17
          4 29 8 4 8 9
          9 8 14 4 9 5
          5 9 10 10 9 15
          15 9 14 10 15 16
          2 5 6 15 14 19
          16 15 20 6 5 10
          15 19 20 6 10 12
          20 19 22 12 10 16
          6 12 7 20 22 26
          12 16 18 7 12 13
          13 12 18 7 13 11
          11 13 17 7 11 3
          17 13 18 7 3 6
          25 18 21 21 18 16
          25 21 26 26 21 20
          20 21 16 27 26 22
          24 23 17 2 6 3
        </DataArray>
        <DataArray type="Int64" Name="offsets" format="ascii" RangeMin="3" RangeMax="138">
          3 6 9 12 15 18
          21 24 27 30 33 36
          39 42 45 48 51 54
          57 60 63 66 69 72
          75 78 81 84 87 90
          93 96 99 102 105 108
          111 114 117 120 123 126
          129 132 135 138
        </DataArray>
        <DataArray type="UInt8" Name="types" format="ascii" RangeMin="5" RangeMax="5">
          5 5 5 5 5 5
          5 5 5 5 5 5
          5 5 5 5 5 5
          5 5 5 5 5 5
          5 5 5 5 5 5
          5 5 5 5 5 5
          5 5 5 5 5 5
          5 5 5 5
        </DataArray>
      </Cells>
    </Piece>
  </UnstructuredGrid>
</VTKFile>
