<?xml version="1.0"?>
<VTKFile type="UnstructuredGrid" version="0.1" byte_order="LittleEndian" header_type="UInt32" compressor="vtkZLibDataCompressor">
  <UnstructuredGrid>
    <Piece NumberOfPoints="13" NumberOfCells="14">
      <PointData>
        <DataArray type="Float64" Name="Disp" NumberOfComponents="3" format="ascii" RangeMin="0" RangeMax="2.040861537575085">
          0.6171831778122138 -0.19672496065533143 0 1.3993423387767638 -0.022411183704460186 0
          0.1568504069799957 -0.09315084109588312 0 0.3856079289231577 -0.032502192248159034 0
          0 0 0 0.6247908688703603 0.07173623489216595 0
          0.06820914676428867 -0.0023416228746296584 0 0.1675605753312396 0.0760858302508088 0
          0 0 0 1.004927614740847 -0.11741275358881975 0
          1.7034027132411835 -0.22408482259678592 0 2.037497176488242 -0.11713697689364856 0
          1.3850405118063784 -0.32822620892481197 0
          <InformationKey name="L2_NORM_RANGE" location="vtkDataArray" length="2">
            <Value index="0">
              0
            </Value>
            <Value index="1">
              2.0408615376
            </Value>
          </InformationKey>
        </DataArray>
        <DataArray type="Float64" Name="Sld_traction" NumberOfComponents="3" format="ascii" RangeMin="0" RangeMax="173.86802631583578">
          69.66445735106221 24.339781215464665 0 22.042789604002326 -32.383862968547696 0
          148.0407425576542 40.81465907098165 0 0 0 0
          -47.41770268643176 47.843744032117975 0 55.68654367709519 -56.53535725116691 0
          0 0 0 154.49981708014028 -79.74896298490256 0
          -5.7552280245657395 -41.951641214929516 0 0 0 0
          0 0 0 6.115830584776647 -11.847154560595513 0
          24.38982690702861 16.73451563144941 0
          <InformationKey name="L2_NORM_RANGE" location="vtkDataArray" length="2">
            <Value index="0">
              0
            </Value>
            <Value index="1">
              173.86802632
            </Value>
          </InformationKey>
        </DataArray>
        <DataArray type="Float64" Name="Fld_traction" NumberOfComponents="3" format="ascii" RangeMin="0" RangeMax="6.262974078489041">
          3.103214811912303 -0.8073496000312074 0 4.686878692729962 -1.2828617921196068 0
          3.1803106258323295 -0.5426535312557891 0 0 0 0
          1.550685938513936 1.5147642818362788 0 5.785716629090708 -1.443765908337688 0
          0 0 0 6.180106368343051 -1.0154455100059905 0
          3.1438784755607116 -3.4557413273414856 0 0 0 0
          0 0 0 2.952170649454665 -0.6834341609033563 0
          3.0161929114340484 -0.9025305423439018 0
          <InformationKey name="L2_NORM_RANGE" location="vtkDataArray" length="2">
            <Value index="0">
              0
            </Value>
            <Value index="1">
              6.2629740785
            </Value>
          </InformationKey>
        </DataArray>
        <DataArray type="Float64" Name="Velocity" NumberOfComponents="3" format="ascii" RangeMin="0" RangeMax="0.027228753897198824">
          -0.002389977640581964 -0.013454279427220231 0 0.020126433297084523 -0.015274162906543085 0
          -0.007401317728198575 -0.002884414864773123 0 -0.005158655486012326 -0.006362817810437987 0
          0 0 0 -0.00013772174650650282 -0.006250146570709464 0
          -0.0038380885615884285 -0.0017726360173723654 0 -0.007117125913903163 -0.0035760851080001467 0
          0 0 0 0.00890438360707424 -0.014051534427670154 0
          0.019001925249883422 -0.016852599936626522 0 0.017175335770566846 -0.017333740436117268 0
          0.0185986797035973 -0.01988703477336976 0
          <InformationKey name="L2_NORM_RANGE" location="vtkDataArray" length="2">
            <Value index="0">
              0
            </Value>
            <Value index="1">
              0.027228753897
            </Value>
          </InformationKey>
        </DataArray>
      </PointData>
      <CellData>
        <DataArray type="UInt8" Name="vtkGhostType" format="ascii" RangeMin="0" RangeMax="1">
          0 0 1 1 1 1
          1 1 0 0 0 0
          0 0
        </DataArray>
        <DataArray type="Float64" Name="Gauss Stress" NumberOfComponents="6" format="ascii" RangeMin="32.948883408876405" RangeMax="613.201436634114">
          113.89646765598192 -271.1572407379739 0 -34.546149863695724 0 0
          -44.07652495779748 60.58969971333208 0 -151.4092780490803 0 0
          36.97346064807722 -57.767986446705166 0 109.24456102256485 0 0
          -3.2222318331534945 20.189528688593693 0 25.838519137860736 0 0
          16.64750189243704 -20.28945452190001 0 35.337939999307686 0 0
          -17.321955064236 31.010085341228468 0 -50.231195025772614 0 0
          33.079218974868425 -82.05156760424109 0 -2.6914453127093902 0 0
          -13.586335340714522 51.84333052264731 0 60.68057599913125 0 0
          28.641006646809565 -34.159832269194304 0 413.8146188552556 0 0
          186.1521519672126 -584.2606343884848 0 -1.699797659222094 0 0
          -218.75289027871264 538.7854520802744 0 139.2618148542252 0 0
          -68.73959762520064 65.52765674911643 0 -268.54879700555017 0 0
          88.21266630088797 -95.75080645476572 0 251.02354786986785 0 0
          -61.796129134928876 223.92987507616692 0 128.2171639013065 0 0
          <InformationKey name="L2_NORM_RANGE" location="vtkDataArray" length="2">
            <Value index="0">
              32.948883409
            </Value>
            <Value index="1">
              613.20143663
            </Value>
          </InformationKey>
        </DataArray>
        <DataArray type="Float64" Name="Gauss Strain" NumberOfComponents="6" format="ascii" RangeMin="0.005484493453495834" RangeMax="0.08324151142464918">
          0.013212975291217564 -0.025747170093373677 0 -0.006990832664779442 0 0
          -0.005079152282415733 0.005379481379294615 0 -0.030258742532750488 0 0
          0.0037595206296415773 -0.005731085336012631 0 0.021886874527444707 0 0
          -0.0005769181360782971 0.0017615634495699024 0 0.0051617563017680316 0 0
          0.001690130352188457 -0.0020047943548336944 0 0.00706993971750349 0 0
          -0.001978758312465634 0.0028501747458090088 0 -0.010037361393464821 0 0
          0.003971970186889551 -0.007582485431595898 0 -0.0005402236246151754 0 0
          -0.0019773736877284342 0.004548475472901714 0 0.01210436522104355 0 0
          0 -0.006298293073494053 0 0.08300289590502477 0 0
          0.022955792514928963 -0.056433328680882244 0 -0.0003503198409119734 0 0
          -0.028391863103882087 0.045805246721920156 0 0.02728000311932172 0 0
          -0.008150890623446979 0.005294270374750942 0 -0.053783505567872245 0 0
          0.0077182890871024794 -0.010707648655801205 0 0.05028546369307246 0 0
          -0.008956698941365748 0.019300930292977858 0 0.025360751388420456 0 0
          <InformationKey name="L2_NORM_RANGE" location="vtkDataArray" length="2">
            <Value index="0">
              0.0054844934535
            </Value>
            <Value index="1">
              0.083241511425
            </Value>
          </InformationKey>
        </DataArray>
        <DataArray type="Float64" Name="Btraction" NumberOfComponents="3" format="ascii" RangeMin="0" RangeMax="4.071972505992458">
          2.0945084792482103 -0.4500010437623321 0 0 0 0
          0 0 0 2.5463497807282085 -0.6554319843409876 0
          0 0 0 0 0 0
          2.039802574448783 -0.5699600474583696 0 3.4908651072735566 -0.9088759001524315 0
          0 0 0 1.576998854782088 0.3240369168601632 0
          3.1079949479679208 -1.4903956124491582 0 0 0 0
          0 0 0 3.988607665811252 -0.8197371394478925 0
          <InformationKey name="L2_NORM_RANGE" location="vtkDataArray" length="2">
            <Value index="0">
              0
            </Value>
            <Value index="1">
              4.071972506
            </Value>
          </InformationKey>
        </DataArray>
      </CellData>
      <Points>
        <DataArray type="Float32" Name="Points" NumberOfComponents="3" format="ascii" RangeMin="10" RangeMax="13.021927811442218">
          11 3.7184319496154785 0 10 6.2815680503845215 0
          11 1.6591010093688965 0 10.5 2.6568450927734375 0
          11 0 0 10 3.61250901222229 0
          10.5 0.8241099119186401 0 10 1.6373380422592163 0
          10 0 0 10.5 5 0
          10.5 7.3431549072265625 0 10 8.340899467468262 0
          11 6.387491226196289 0
          <InformationKey name="L2_NORM_RANGE" location="vtkDataArray" length="2">
            <Value index="0">
              10
            </Value>
            <Value index="1">
              13.021927811
            </Value>
          </InformationKey>
        </DataArray>
      </Points>
      <Cells>
        <DataArray type="Int64" Name="connectivity" format="ascii" RangeMin="0" RangeMax="12">
          3 2 0 5 3 0
          5 0 9 10 11 1
          12 10 1 12 1 9
          9 0 12 5 9 1
          8 4 6 6 4 2
          8 6 7 6 2 7
          7 2 3 7 3 5
        </DataArray>
        <DataArray type="Int64" Name="offsets" format="ascii" RangeMin="3" RangeMax="42">
          3 6 9 12 15 18
          21 24 27 30 33 36
          39 42
        </DataArray>
        <DataArray type="UInt8" Name="types" format="ascii" RangeMin="5" RangeMax="5">
          5 5 5 5 5 5
          5 5 5 5 5 5
          5 5
        </DataArray>
      </Cells>
    </Piece>
  </UnstructuredGrid>
</VTKFile>
