<?xml version="1.0"?>
<VTKFile type="UnstructuredGrid" version="0.1" byte_order="LittleEndian" header_type="UInt32" compressor="vtkZLibDataCompressor">
  <UnstructuredGrid>
    <Piece NumberOfPoints="24" NumberOfCells="15">
      <PointData>
        <DataArray type="Float64" Name="Disp" NumberOfComponents="3" format="ascii" RangeMin="0" RangeMax="2.1032619130155528">
          0 0 0 0 0 0
          -0.006364575941541113 -0.3750676537266305 0 0 0 0
          -0.014760591071112019 -0.357818551716727 0 -0.03932727052223019 -0.7084362364090826 0
          -0.002924547228287505 -0.3128614186755253 0 -0.06715467271877955 -0.712653367933163 0
          0.006954223228417655 -0.6818471044846534 0 -0.04693788872488447 -1.1088747713968445 0
          0.011889641028465552 -1.1142545958217696 0 0.14811889649888182 -1.1349109699594193 0
          0.10888306831820223 -1.5675474184442606 0 0.20669654021915243 -1.5861313909676715 0
          0.3733412717882679 -1.5824265287022208 0 0.37261195427617083 -1.9695332206927556 0
          0.48050224791095014 -1.9728675996297216 0 0.601621196207363 -1.9754032437180606 0
          0.0015258601163542001 -0.3249965458878265 0 0 0 0
          0.05187672498241222 -0.7298420914246827 0 0.27929038818564283 -1.1780994882426792 0
          0.49066530885474824 -1.6166817846948578 0 0.6919383048210281 -1.9861853028011374 0
          <InformationKey name="L2_NORM_RANGE" location="vtkDataArray" length="2">
            <Value index="0">
              0
            </Value>
            <Value index="1">
              2.103261913
            </Value>
          </InformationKey>
        </DataArray>
        <DataArray type="Float64" Name="Nodal Stress" NumberOfComponents="6" format="ascii" RangeMin="6285171583.142489" RangeMax="7527515170.250148">
          -5227210611.40461 -5226930368.701988 0 -2624865.202425891 0 0
          5256305653.5646925 5256728360.559504 0 -2511443.1018231614 0 0
          5093596534.405027 5094052971.074293 0 -2633179.980771266 0 0
          -5322883680.374474 -5322629886.0684395 0 -2249328.8536455967 0 0
          -5064242936.431836 -5063346725.388381 0 -2557843.2304314785 0 0
          -5080838075.605535 -5080781195.456613 0 -2655457.770483017 0 0
          5024621972.10293 5025060967.335651 0 -2331080.2687935764 0 0
          5063690036.127271 5064304646.266692 0 -2398806.008651941 0 0
          -5050150242.907641 -5050329988.150378 0 -2127870.0743164523 0 0
          5012968048.101412 5012773744.390616 0 -2269909.374434174 0 0
          -5039231859.507474 -5039403427.334273 0 -1836535.7670725514 0 0
          5054735200.457405 5053733359.238754 0 -1438000.1409604677 0 0
          -4958896707.151691 -4959583145.02593 0 -1318078.6257597243 0 0
          5031210084.922815 5030967410.1234665 0 -971620.543505331 0 0
          -5111200400.956892 -5111974024.574704 0 -771553.1012136366 0 0
          4622128556.022446 4621683369.679354 0 -623073.242001438 0 0
          -4550117489.434219 -4550244836.934773 0 -381224.1385911036 0 0
          4444539340.457361 4444035519.217211 0 -429656.29722495674 0 0
          -5016687371.612071 -5016999380.348418 0 -2135296.963971533 0 0
          5321933063.082339 5321920550.445714 0 -2178355.370248759 0 0
          5036599944.027297 5035391338.764928 0 -1574157.0974633088 0 0
          -5055749220.362229 -5057352050.9622135 0 -891823.518403436 0 0
          5114717150.79249 5113904578.341137 0 -412296.1938383374 0 0
          -4444311441.803008 -4444794320.85863 0 -146080.02048321944 0 0
          <InformationKey name="L2_NORM_RANGE" location="vtkDataArray" length="2">
            <Value index="0">
              6285171583.1
            </Value>
            <Value index="1">
              7527515170.3
            </Value>
          </InformationKey>
        </DataArray>
        <DataArray type="Float64" Name="Nodal Strain" NumberOfComponents="6" format="ascii" RangeMin="0" RangeMax="0">
          0 0 0 0 0 0
          0 0 0 0 0 0
          0 0 0 0 0 0
          0 0 0 0 0 0
          0 0 0 0 0 0
          0 0 0 0 0 0
          0 0 0 0 0 0
          0 0 0 0 0 0
          0 0 0 0 0 0
          0 0 0 0 0 0
          0 0 0 0 0 0
          0 0 0 0 0 0
          0 0 0 0 0 0
          0 0 0 0 0 0
          0 0 0 0 0 0
          0 0 0 0 0 0
          0 0 0 0 0 0
          0 0 0 0 0 0
          0 0 0 0 0 0
          0 0 0 0 0 0
          0 0 0 0 0 0
          0 0 0 0 0 0
          0 0 0 0 0 0
          0 0 0 0 0 0
          <InformationKey name="L2_NORM_RANGE" location="vtkDataArray" length="2">
            <Value index="0">
              0
            </Value>
            <Value index="1">
              0
            </Value>
          </InformationKey>
        </DataArray>
        <DataArray type="Float64" Name="Sigma" NumberOfComponents="6" format="ascii" RangeMin="371383.1761993957" RangeMax="2655762.3475170685">
          -140121.35131187495 140121.35131187527 0 -2624865.202425891 0 0
          -211353.497406733 211353.49740673142 0 -2511443.1018231614 0 0
          -228218.3346333399 228218.3346333409 0 -2633179.980771266 0 0
          -126897.15301680967 126897.15301681015 0 -2249328.8536455967 0 0
          -448105.5217270719 448105.52172707097 0 -2557843.2304314785 0 0
          -28440.074461361568 28440.07446136878 0 -2655457.770483017 0 0
          -219497.6163602749 219497.6163602761 0 -2331080.2687935764 0 0
          -307305.0697108456 307305.06971085 0 -2398806.008651941 0 0
          89872.6213696547 -89872.6213696508 0 -2127870.0743164523 0 0
          97151.8553964803 -97151.85539648173 0 -2269909.374434174 0 0
          85783.91340002716 -85783.91340002754 0 -1836535.7670725514 0 0
          500920.60932511854 -500920.6093251148 0 -1438000.1409604677 0 0
          343218.9371196084 -343218.93711961026 0 -1318078.6257597243 0 0
          121337.3996755635 -121337.39967556213 0 -971620.543505331 0 0
          386811.80890610605 -386811.80890610086 0 -771553.1012136366 0 0
          222593.1715455678 -222593.1715455688 0 -623073.242001438 0 0
          63673.750276937426 -63673.75027693674 0 -381224.1385911036 0 0
          251910.62007518244 -251910.6200751744 0 -429656.29722495674 0 0
          156004.36817383516 -156004.3681738335 0 -2135296.963971533 0 0
          6256.318313184863 -6256.318313176259 0 -2178355.370248759 0 0
          604302.6311843722 -604302.63118437 0 -1574157.0974633088 0 0
          801415.2999923348 -801415.2999923322 0 -891823.518403436 0 0
          406286.22567633266 -406286.2256763313 0 -412296.1938383374 0 0
          241439.52781139314 -241439.52781138604 0 -146080.02048321944 0 0
          <InformationKey name="L2_NORM_RANGE" location="vtkDataArray" length="2">
            <Value index="0">
              371383.1762
            </Value>
            <Value index="1">
              2655762.3475
            </Value>
          </InformationKey>
        </DataArray>
        <DataArray type="Float64" Name="Press" format="ascii" RangeMin="-45497381318.76677" RangeMax="45496418526.784805">
          -45494580635.407776 45488139927.917175 45466529619.6377 -45496327022.42608 -45470689082.45835 -45497023530.16405
          45468057972.03576 45492765001.72089 -45497381318.76677 45469335605.5811 -45473209227.03405 45471438256.43828
          -45492981062.59711 45491673500.847565 -45494196705.89803 45484568057.64457 -45484949193.82661 45484854812.62722
          -45468179914.59647 45492753581.23703 45496418526.784805 -45471946649.41902 45493897517.7577 -45484409611.609726
        </DataArray>
      </PointData>
      <CellData>
        <DataArray type="UInt8" Name="vtkGhostType" format="ascii" RangeMin="0" RangeMax="0">
          0 0 0 0 0 0
          0 0 0 0 0 0
          0 0 0
        </DataArray>
        <DataArray type="Float64" Name="Gauss Stress" NumberOfComponents="6" format="ascii" RangeMin="981031.38586459" RangeMax="4588438.596753231">
          -924824.973526001 -922866.9013519287 0 -2165452.175822484 0 0
          -3037653.658985138 -2371448.806760788 0 -2415385.998508848 0 0
          -2814540.380619049 -2485544.7750053406 0 -2637081.411993796 0 0
          34169.19511795044 -576536.466463089 0 -2271255.440570989 0 0
          -2679408.432785034 -944305.301448822 0 -2340823.159823054 0 0
          -2359149.102174759 -1849846.5297336578 0 -2604423.5436984766 0 0
          745559.3798294067 -1481151.8611774445 0 -1850583.4033835987 0 0
          -1789707.4434890747 -1403936.3773403168 0 -1815826.8055557292 0 0
          -1949037.6977653503 -2117037.250284195 0 -2549050.960320287 0 0
          762933.1770439148 -1166723.7375831604 0 -1156093.0680793808 0 0
          -1043163.1618690491 -1103924.6612415314 0 -1071436.3966497052 0 0
          -929167.2782440186 -1661424.3230018616 0 -1958404.8153810138 0 0
          770293.3517818451 -697286.9132003784 0 -649526.3813688679 0 0
          -837523.8662319183 -471269.2586956024 0 -197184.27764868925 0 0
          -39091.139793395996 -805257.8259944916 0 -678525.4741066409 0 0
          <InformationKey name="L2_NORM_RANGE" location="vtkDataArray" length="2">
            <Value index="0">
              981031.38586
            </Value>
            <Value index="1">
              4588438.5968
            </Value>
          </InformationKey>
        </DataArray>
        <DataArray type="Float64" Name="Gauss Strain" NumberOfComponents="6" format="ascii" RangeMin="0" RangeMax="0">
          0 0 0 0 0 0
          0 0 0 0 0 0
          0 0 0 0 0 0
          0 0 0 0 0 0
          0 0 0 0 0 0
          0 0 0 0 0 0
          0 0 0 0 0 0
          0 0 0 0 0 0
          0 0 0 0 0 0
          0 0 0 0 0 0
          0 0 0 0 0 0
          0 0 0 0 0 0
          0 0 0 0 0 0
          0 0 0 0 0 0
          0 0 0 0 0 0
          <InformationKey name="L2_NORM_RANGE" location="vtkDataArray" length="2">
            <Value index="0">
              0
            </Value>
            <Value index="1">
              0
            </Value>
          </InformationKey>
        </DataArray>
        <DataArray type="Float64" Name="Gauss Sigma" NumberOfComponents="6" format="ascii" RangeMin="325504.0063071751" RangeMax="2647322.690519712">
          -979.0360866448973 979.0360866448918 0 -2165452.175822484 0 0
          -333102.42611216137 333102.4261121613 0 -2415385.998508848 0 0
          -164497.80280802338 164497.8028080252 0 -2637081.411993796 0 0
          305352.8307919091 -305352.83079190535 0 -2271255.440570989 0 0
          -867551.5656677384 867551.5656677383 0 -2340823.159823054 0 0
          -254651.28622059454 254651.2862205945 0 -2604423.5436984766 0 0
          1113355.6205043376 -1113355.6205043339 0 -1850583.4033835987 0 0
          -192885.53307395958 192885.53307396878 0 -1815826.8055557292 0 0
          83999.77626046169 -83999.77626045616 0 -2549050.960320287 0 0
          964828.4573149667 -964828.4573149648 0 -1156093.0680793808 0 0
          30380.749685744668 -30380.74968574656 0 -1071436.3966497052 0 0
          366128.52237994026 -366128.52237994206 0 -1958404.8153810138 0 0
          733790.1324907492 -733790.1324907364 0 -649526.3813688679 0 0
          -183127.3037673321 183127.30376733394 0 -197184.27764868925 0 0
          383083.3430996487 -383083.3430996487 0 -678525.4741066409 0 0
          <InformationKey name="L2_NORM_RANGE" location="vtkDataArray" length="2">
            <Value index="0">
              325504.00631
            </Value>
            <Value index="1">
              2647322.6905
            </Value>
          </InformationKey>
        </DataArray>
      </CellData>
      <Points>
        <DataArray type="Float32" Name="Points" NumberOfComponents="3" format="ascii" RangeMin="15.594233770003514" RangeMax="48.950587405303104">
          0 -44 0 0 -35.20000076293945 0
          9.600000381469727 -35.20000076293945 0 0 -26.399999618530273 0
          9.600000381469727 -27.261951446533203 0 19.200000762939453 -26.399999618530273 0
          9.600000381469727 -19.710975646972656 0 19.200000762939453 -19.710975646972656 0
          19.200000762939453 -13.21548843383789 0 28.799999237060547 -17.600000381469727 0
          28.799999237060547 -12.289024353027344 0 28.799999237060547 -6.784512042999268 0
          38.400001525878906 -8.800000190734863 0 38.400001525878906 -4.738048076629639 0
          38.400001525878906 -0.2890239953994751 0 48 0 0
          48 3.200000047683716 0 48 6.400000095367432 0
          9.600000381469727 -12.289024353027344 0 0 -17.600000381469727 0
          19.200000762939453 -6.784512042999268 0 28.799999237060547 -1.2154879570007324 0
          38.400001525878906 4.2890238761901855 0 48 9.600000381469727 0
          <InformationKey name="L2_NORM_RANGE" location="vtkDataArray" length="2">
            <Value index="0">
              15.59423377
            </Value>
            <Value index="1">
              48.950587405
            </Value>
          </InformationKey>
        </DataArray>
      </Points>
      <Cells>
        <DataArray type="Int64" Name="connectivity" format="ascii" RangeMin="0" RangeMax="23">
          3 6 18 19 1 4
          6 3 0 2 4 1
          6 8 20 18 4 7
          8 6 2 5 7 4
          8 11 21 20 7 10
          11 8 5 9 10 7
          11 14 22 21 10 13
          14 11 9 12 13 10
          14 17 23 22 13 16
          17 14 12 15 16 13
        </DataArray>
        <DataArray type="Int64" Name="offsets" format="ascii" RangeMin="4" RangeMax="60">
          4 8 12 16 20 24
          28 32 36 40 44 48
          52 56 60
        </DataArray>
        <DataArray type="UInt8" Name="types" format="ascii" RangeMin="9" RangeMax="9">
          9 9 9 9 9 9
          9 9 9 9 9 9
          9 9 9
        </DataArray>
      </Cells>
    </Piece>
  </UnstructuredGrid>
</VTKFile>
