<?xml version="1.0"?>
<VTKFile type="UnstructuredGrid" version="0.1" byte_order="LittleEndian" header_type="UInt32" compressor="vtkZLibDataCompressor">
  <UnstructuredGrid>
    <Piece NumberOfPoints="27" NumberOfCells="16">
      <PointData>
        <DataArray type="Float64" Name="Displacement" NumberOfComponents="3" format="ascii" RangeMin="0" RangeMax="0.00036730547005204975">
          0 0 0 0.0000012553612393484617 2.708943891468325e-7 0
          0 0 0 0.00005358193266909403 0.000033831286949629777 0
          0.00004913217031919343 0.00003576359577361957 0 0.000048850146844292736 0.000038475869471237765 0
          -0.00015304565919505492 -0.000226544395237656 0 -0.00014419156438711615 -0.000225998461288874 0
          -0.00014248576024226584 -0.00022665698162522717 0 0.00022798392047872418 0.0002879872225174374 0
          0.00021791469851863347 0.00028823191041951616 0 0.00021578049572385134 0.00028973243309709346 0
          -0.00009646502459050821 -0.00025507213816216515 0 -0.00009254815373664347 -0.00025532044315600155 0
          -0.00009384511292115177 -0.00025630834687449084 0 -0.00002969911619448451 0.00009454446630097489 0
          -0.00002085658558355298 0.00009388419885422494 0 -0.00001054059280539271 0.00009332467776146315 0
          0.00002170432593147582 0.00013271021020608767 0 0.000007745363132625248 0.0001322362523921284 0
          -0.000005551826004535903 0.00013189501064124167 0 -0.0000216954838790308 -0.00018448459614061192 0
          -0.000017453705677290295 -0.00018198082208322673 0 -0.000015022900894862785 -0.00017948366506376667 0
          0.00009312118186049877 0.00009835351722118426 0 0.00010742050624508302 0.00009858217226750584 0
          0.00012413674839369208 0.00009912655329512144 0
          <InformationKey name="L2_NORM_RANGE" location="vtkDataArray" length="2">
            <Value index="0">
              0
            </Value>
            <Value index="1">
              0.00036730547005
            </Value>
          </InformationKey>
        </DataArray>
      </PointData>
      <CellData>
        <DataArray type="UInt8" Name="vtkGhostType" format="ascii" RangeMin="0" RangeMax="0">
          0 0 0 0 0 0
          0 0 0 0 0 0
          0 0 0 0
        </DataArray>
        <DataArray type="Float64" Name="Stress" NumberOfComponents="6" format="ascii" RangeMin="42.200109768026564" RangeMax="487.63694317698116">
          43.98603355516133 -16.591461185788926 0 21.579223666120175 0 0
          -231.61177635228586 -103.51885018092398 0 -108.10726829505182 0 0
          410.2717444023334 125.921067069998 0 199.59981373958993 0 0
          -360.0987356908311 -126.67278653711759 0 -193.02812472561536 0 0
          96.6814518646685 52.005839511925316 0 90.84214364910926 0 0
          23.643669790306987 19.401723825244765 0 29.07575030655865 0 0
          -30.311568522136508 -37.71824612197614 0 -67.97261152372783 0 0
          137.4576903381827 6.920182232311089 0 15.438177173265178 0 0
          47.8506385691889 -12.25397292777481 0 28.64138428631832 0 0
          -242.4966822992285 -112.59201149462129 0 -121.5182598063181 0 0
          423.57524079985745 131.01158542222163 0 203.00189215248466 0 0
          -366.1505562420318 -122.05475240883345 0 -179.37811821399495 0 0
          84.11915517327017 39.660229816956125 0 72.8983585292637 0 0
          51.49116929390509 31.671651808947573 0 39.24145117924875 0 0
          -49.26210356457463 -42.42683481936705 0 -74.61399645109297 0 0
          124.93392516143192 6.698778001626084 0 19.15854911533493 0 0
          <InformationKey name="L2_NORM_RANGE" location="vtkDataArray" length="2">
            <Value index="0">
              42.200109768
            </Value>
            <Value index="1">
              487.63694318
            </Value>
          </InformationKey>
        </DataArray>
        <DataArray type="Float64" Name="Strain" NumberOfComponents="6" format="ascii" RangeMin="0.00006270560361535658" RangeMax="0.0005176716565350418">
          0.0000386919688285113 -0.00002441321277917532 0 0.00004496114796959629 0 0
          -0.00015382980980604017 -0.0000205369661314193 0 -0.00022498925083047484 0 0
          0.00028827549716308013 -0.000008419655335573527 0 0.0004165296643609684 0 0
          -0.000247909646344611 -0.000005125472920963806 0 -0.00040153190993734813 0 0
          0.00006203943073845371 0.00001548068572311894 0 0.00018934346465722214 0 0
          0.000013436864708123604 0.000009017407215190723 0 0.00006058159587446693 0 0
          -0.000013836644903808328 -0.000021548759266748606 0 -0.0001415705685555182 0 0
          0.0001056441411129603 -0.000030393122668516002 0 0.00003217179091214923 0 0
          0.000040584705616472685 -0.000022030690737338692 0 0.00005967429189949626 0 0
          -0.00015994591874653608 -0.00002477816882529271 0 -0.0002528861982695417 0 0
          0.0002973831947522685 -0.000007900143716650799 0 0.0004236564258782403 0 0
          -0.00025383800666639974 4.132772000715605e-8 0 -0.0003731368151624798 0 0
          0.000055423592999748116 0.000009094312994629795 0 0.00015192995712216936 0 0
          0.000032003150668868256 0.000011352291537905947 0 0.00008177342537869965 0 0
          -0.000027407271436381296 -0.000020287566345067642 0 -0.0001553904461092201 0 0
          0.00009590634370223899 -0.000027304956931009362 0 0.00003992548287482191 0 0
          <InformationKey name="L2_NORM_RANGE" location="vtkDataArray" length="2">
            <Value index="0">
              6.2705603615e-05
            </Value>
            <Value index="1">
              0.00051767165654
            </Value>
          </InformationKey>
        </DataArray>
      </CellData>
      <Points>
        <DataArray type="Float32" Name="Points" NumberOfComponents="3" format="ascii" RangeMin="0" RangeMax="10.000499987515525">
          0 0.10000000149011612 0 0 0.05000000074505806 0
          0 0 0 1.25 0.10000000149011612 0
          1.25 0.05000000074505806 0 1.25 0 0
          2.5 0.10000000149011612 0 2.5 0.05000000074505806 0
          2.5 0 0 3.75 0.10000000149011612 0
          3.75 0.05000000074505806 0 3.75 0 0
          5 0.10000000149011612 0 5 0.05000000074505806 0
          5 0 0 6.25 0.10000000149011612 0
          6.25 0.05000000074505806 0 6.25 0 0
          7.5 0.10000000149011612 0 7.5 0.05000000074505806 0
          7.5 0 0 8.75 0.10000000149011612 0
          8.75 0.05000000074505806 0 8.75 0 0
          10 0.10000000149011612 0 10 0.05000000074505806 0
          10 0 0
          <InformationKey name="L2_NORM_RANGE" location="vtkDataArray" length="2">
            <Value index="0">
              0
            </Value>
            <Value index="1">
              10.000499988
            </Value>
          </InformationKey>
        </DataArray>
      </Points>
      <Cells>
        <DataArray type="Int64" Name="connectivity" format="ascii" RangeMin="0" RangeMax="26">
          5 4 1 2 8 7
          4 5 11 10 7 8
          14 13 10 11 17 16
          13 14 20 19 16 17
          23 22 19 20 26 25
          22 23 4 3 0 1
          7 6 3 4 10 9
          6 7 13 12 9 10
          16 15 12 13 19 18
          15 16 22 21 18 19
          25 24 21 22
        </DataArray>
        <DataArray type="Int64" Name="offsets" format="ascii" RangeMin="4" RangeMax="64">
          4 8 12 16 20 24
          28 32 36 40 44 48
          52 56 60 64
        </DataArray>
        <DataArray type="UInt8" Name="types" format="ascii" RangeMin="9" RangeMax="9">
          9 9 9 9 9 9
          9 9 9 9 9 9
          9 9 9 9
        </DataArray>
      </Cells>
    </Piece>
  </UnstructuredGrid>
</VTKFile>
