<?xml version="1.0"?>
<VTKFile type="UnstructuredGrid" version="0.1" byte_order="LittleEndian" header_type="UInt32" compressor="vtkZLibDataCompressor">
  <UnstructuredGrid>
    <Piece NumberOfPoints="90" NumberOfCells="70">
      <PointData>
        <DataArray type="Float64" Name="sld_BC" NumberOfComponents="3" format="ascii" RangeMin="0" RangeMax="0">
          0 0 0 0 0 0
          0 0 0 0 0 0
          0 0 0 0 0 0
          0 0 0 0 0 0
          0 0 0 0 0 0
          0 0 0 0 0 0
          0 0 0 0 0 0
          0 0 0 0 0 0
          0 0 0 0 0 0
          0 0 0 0 0 0
          0 0 0 0 0 0
          0 0 0 0 0 0
          0 0 0 0 0 0
          0 0 0 0 0 0
          0 0 0 0 0 0
          0 0 0 0 0 0
          0 0 0 0 0 0
          0 0 0 0 0 0
          0 0 0 0 0 0
          0 0 0 0 0 0
          0 0 0 0 0 0
          0 0 0 0 0 0
          0 0 0 0 0 0
          0 0 0 0 0 0
          0 0 0 0 0 0
          0 0 0 0 0 0
          0 0 0 0 0 0
          0 0 0 0 0 0
          0 0 0 0 0 0
          0 0 0 0 0 0
          0 0 0 0 0 0
          0 0 0 0 0 0
          0 0 0 0 0 0
          0 0 0 0 0 0
          0 0 0 0 0 0
          0 0 0 0 0 0
          0 0 0 0 0 0
          0 0 0 0 0 0
          0 0 0 0 0 0
          0 0 0 0 0 0
          0 0 0 0 0 0
          0 0 0 0 0 0
          0 0 0 0 0 0
          0 0 0 0 0 0
          0 0 0 0 0 0
          <InformationKey name="L2_NORM_RANGE" location="vtkDataArray" length="2">
            <Value index="0">
              0
            </Value>
            <Value index="1">
              0
            </Value>
          </InformationKey>
        </DataArray>
        <DataArray type="Float64" Name="sld_FIXNO" NumberOfComponents="3" format="ascii" RangeMin="1.4142135623730951" RangeMax="1.4142135623730951">
          -1 -1 0 -1 -1 0
          -1 -1 0 -1 -1 0
          -1 -1 0 -1 -1 0
          -1 -1 0 -1 -1 0
          -1 -1 0 -1 -1 0
          -1 -1 0 -1 -1 0
          -1 -1 0 -1 -1 0
          -1 -1 0 -1 -1 0
          -1 -1 0 -1 -1 0
          -1 -1 0 -1 -1 0
          -1 -1 0 -1 -1 0
          -1 -1 0 -1 -1 0
          -1 -1 0 -1 -1 0
          -1 -1 0 -1 -1 0
          -1 -1 0 -1 -1 0
          -1 -1 0 -1 -1 0
          -1 -1 0 -1 -1 0
          -1 -1 0 -1 -1 0
          -1 -1 0 -1 -1 0
          -1 -1 0 -1 -1 0
          -1 -1 0 -1 -1 0
          -1 -1 0 -1 -1 0
          -1 -1 0 -1 -1 0
          -1 -1 0 -1 -1 0
          -1 -1 0 -1 -1 0
          -1 -1 0 -1 -1 0
          -1 -1 0 -1 -1 0
          -1 -1 0 -1 -1 0
          -1 -1 0 -1 -1 0
          -1 -1 0 -1 -1 0
          -1 -1 0 -1 -1 0
          -1 -1 0 -1 -1 0
          -1 -1 0 -1 -1 0
          -1 -1 0 -1 -1 0
          -1 -1 0 -1 -1 0
          -1 -1 0 -1 -1 0
          -1 -1 0 -1 -1 0
          -1 -1 0 -1 -1 0
          -1 -1 0 -1 -1 0
          -1 -1 0 -1 -1 0
          -1 -1 0 -1 -1 0
          -1 -1 0 -1 -1 0
          -1 -1 0 -1 -1 0
          -1 -1 0 -1 -1 0
          -1 -1 0 -1 -1 0
          <InformationKey name="L2_NORM_RANGE" location="vtkDataArray" length="2">
            <Value index="0">
              1.4142135624
            </Value>
            <Value index="1">
              1.4142135624
            </Value>
          </InformationKey>
        </DataArray>
        <DataArray type="Float64" Name="Disp" NumberOfComponents="3" format="ascii" RangeMin="0.00002519026986785609" RangeMax="0.00006152981266745238">
          0.000056849980920524736 -0.000009966891197984073 0 0.000057114164237735576 -0.000009336681653613295 0
          0.00005747608670476054 -0.00000868254500147254 0 0.00005794063398391744 -0.000008003224756590026 0
          0.00005851237679281262 -0.000007297279679506884 0 0.00005919626921553371 -0.0000065633199308630906 0
          0.000055033478719464684 -0.000010843013833325606 0 0.00005522922465094975 -0.000010171358004562074 0
          0.000055521270857323724 -0.000009473617574212603 0 0.000055913549281942486 -0.000008748808136920155 0
          0.00005641020312747816 -0.000007995688244428132 0 0.00005701570094032133 -0.0000072123316480503375 0
          0.000053125070617646 -0.000011588234913921857 0 0.00005324757514426057 -0.000010875681173882945 0
          0.00005346460071490966 -0.000010134827302980918 0 0.00005378088863832112 -0.000009365635407692224 0
          0.00005419874470910991 -0.000008567372066171365 0 0.000054719913344355065 -0.000007737785713037208 0
          0.000051126955548752426 -0.000012194920915935085 0 0.000051169392009577344 -0.000011440979315439493 0
          0.00005130840438958817 -0.000010658746630897587 0 0.00005154560756883219 -0.000009847266715062175 0
          0.00005188304472748725 -0.000009005301798495997 0 0.000052319120577986985 -0.000008132577975699101 0
          0.000049042917630619015 -0.000012632795761776095 0 0.00004900507699011262 -0.00001185173985208784 0
          0.00004906215454480044 -0.000011040214172896245 0 0.00004921475781083448 -0.000010195437351786492 0
          0.000049466317849345473 -0.00000931527074228708 0 0.00004982177918621625 -0.000008399517836262369 0
          0.000046887679145999 -0.000012922486681474193 0 0.000046771695699067795 -0.000012122244308805137 0
          0.000046742436233089007 -0.000011291060472637339 0 0.00004680444547963238 -0.000010425477129540676 0
          0.00004696340352817704 -0.000009523485302533142 0 0.00004722909411773541 -0.000008583869980970563 0
          0.00004467845227530036 -0.000013064176687166253 0 0.00004448026009304423 -0.00001224903418014257 0
          0.00004436151313961442 -0.000011401673309396998 0 0.00004432931296204833 -0.000010519658180448217 0
          0.00004439006040143444 -0.00000960066046267659 0 0.00004455098832274286 -0.000008640875171479395 0
          0.000042426658272187915 -0.00001303940969627803 0 0.00004213683610956176 -0.000012211570221325296 0
          0.00004192424116173952 -0.000011348913037441936 0 0.00004179561994858903 -0.000010451871601161908 0
          0.00004175343396410884 -0.000009518168849568392 0 0.000041799889623149796 -0.000008542602244274287 0
          0.000040135541672951726 -0.000012823921443822691 0 0.00003974338659406898 -0.000011983162854328981 0
          0.00003943576372954939 -0.000011109337620800747 0 0.0000392099859700388 -0.000010201857483826975 0
          0.000039064541382774484 -0.000009257921406039332 0 0.00003899457455214529 -0.000008273517701652177 0
          0.000037805376005355284 -0.000012371122574111228 0 0.00003731602996536104 -0.000011539875107115127 0
          0.00003691166554380081 -0.000010673261033839395 0 0.00003658582145741913 -0.000009768493579717995 0
          0.000036335980823558125 -0.000008822978250146871 0 0.00003615797016904473 -0.000007835212821765616 0
          0.00003545021602137699 -0.00001174304034752235 0 0.000034874096505342866 -0.000010924805081903966 0
          0.00003437209606923485 -0.000010073225404450254 0 0.00003394346491118142 -0.0000091835931020159 0
          0.00003358791177356141 -0.000008253403440220037 0 0.00003330876862186019 -0.000007282284249401131 0
          0.0000330889503851697 -0.000010946977461449519 0 0.00003242749816076062 -0.000010147868425672891 0
          0.00003183038653863557 -0.000009316016363290416 0 0.00003130016664626233 -0.000008447941674040035 0
          0.00003083936347337946 -0.000007540778947898656 0 0.000030452696355379913 -0.000006591695394283506 0
          0.000030736155883801844 -0.000009973702727202782 0 0.000029985787158061425 -0.00000919683934610293 0
          0.00002929441971319351 -0.000008387218447913898 0 0.0000286643835254373 -0.000007542884649142251 0
          0.000028097153739495847 -0.000006660766063640515 0 0.00002759489800154408 -0.000005735977999406396 0
          0.00005890011207584597 -0.000008377469336604364 0 0.00005857398566700665 -0.00000896453096721703 0
          0.00005932685865333934 -0.00000776860701352831 0 0.00005985868713139738 -0.0000071365472194488255 0
          0.00006050025674830551 -0.000006480083772258076 0 0.00006125603012688377 -0.000005797984131238218 0
          0.0000275532192610663 -0.000008054647527616602 0 0.000028396835582430403 -0.000008808927543098268 0
          0.000026768299390064137 -0.00000726756935442298 0 0.00002604158542596901 -0.000006448229177387013 0
          0.00002536950121767668 -0.0000055941901850388644 0 0.000024748088367835474 -0.000004699129510156649 0
          <InformationKey name="L2_NORM_RANGE" location="vtkDataArray" length="2">
            <Value index="0">
              2.5190269868e-05
            </Value>
            <Value index="1">
              6.1529812667e-05
            </Value>
          </InformationKey>
        </DataArray>
        <DataArray type="Float64" Name="Sld_traction" NumberOfComponents="3" format="ascii" RangeMin="0" RangeMax="135.93969620413867">
          33.96736349615362 31.826473317550416 0 0 0 0
          0 0 0 0 0 0
          0 0 0 35.00336848944913 -53.78083838007291 0
          33.3334761414488 26.85265781762616 0 0 0 0
          0 0 0 0 0 0
          0 0 0 33.75395991080881 -50.42252524051817 0
          32.9394510021305 21.904355500109347 0 0 0 0
          0 0 0 0 0 0
          0 0 0 32.368726060226955 -47.08838879866705 0
          31.86990823871326 17.71287893192833 0 0 0 0
          0 0 0 0 0 0
          0 0 0 31.041980012073306 -43.05260852217795 0
          30.572335981438304 18.95417121004742 0 0 0 0
          0 0 0 0 0 0
          0 0 0 28.1712409838457 -40.479840758040844 0
          29.92700992220903 21.93395376081708 0 0 0 0
          0 0 0 0 0 0
          0 0 0 24.30071465760671 -46.381652948899806 0
          29.122533477732315 24.248243386780615 0 0 0 0
          0 0 0 0 0 0
          0 0 0 21.3738713016996 -53.892400181992905 0
          27.89090991769357 26.086767573917218 0 0 0 0
          0 0 0 0 0 0
          0 0 0 18.831006534281208 -60.48662227409797 0
          25.119638873382293 30.396595523192897 0 0 0 0
          0 0 0 0 0 0
          0 0 0 16.593568741715092 -65.85157000084878 0
          22.476231534577074 44.29358666305228 0 0 0 0
          0 0 0 0 0 0
          0 0 0 13.15861189257393 -71.40018440005706 0
          21.295206642268802 58.819488675599246 0 0 0 0
          0 0 0 0 0 0
          0 0 0 9.217459323520817 -84.83558642888879 0
          19.78363809372013 72.46745949203408 0 0 0 0
          0 0 0 0 0 0
          0 0 0 6.515486000770864 -102.20429920760985 0
          17.794467373025405 85.69731386398749 0 0 0 0
          0 0 0 0 0 0
          0 0 0 4.479922932367493 -119.51708220786442 0
          0 0 0 34.89602905999345 37.18238149368834 0
          0 0 0 0 0 0
          0 0 0 35.86559104347678 -57.824132003914364 0
          0 0 0 15.417708001889594 98.85620274463948 0
          0 0 0 0 0 0
          0 0 0 2.925961629651435 -135.9082034044131 0
          <InformationKey name="L2_NORM_RANGE" location="vtkDataArray" length="2">
            <Value index="0">
              0
            </Value>
            <Value index="1">
              135.9396962
            </Value>
          </InformationKey>
        </DataArray>
        <DataArray type="Float64" Name="Fld_traction" NumberOfComponents="3" format="ascii" RangeMin="0" RangeMax="119.27921299043804">
          39.77573406822788 40.568132174544886 0 0 0 0
          0 0 0 0 0 0
          0 0 0 42.30862350490262 -43.00308634772065 0
          39.13980744290625 36.469475376831305 0 0 0 0
          0 0 0 0 0 0
          0 0 0 40.8315143251709 -38.71009194337246 0
          38.50388081758463 32.37081857911765 0 0 0 0
          0 0 0 0 0 0
          0 0 0 38.89822971629124 -34.940952645991935 0
          37.86795419226301 28.27216178140404 0 0 0 0
          0 0 0 0 0 0
          0 0 0 36.964945107411594 -31.171813348611437 0
          36.593429763800344 29.70366028261916 0 0 0 0
          0 0 0 0 0 0
          0 0 0 35.03166049853193 -27.40267405123091 0
          35.123751176862456 32.82516272417269 0 0 0 0
          0 0 0 0 0 0
          0 0 0 31.669790856156578 -31.965166836238186 0
          33.65407258992456 35.946665165726245 0 0 0 0
          0 0 0 0 0 0
          0 0 0 28.080907882884 -37.851621098151604 0
          32.18439400298668 39.068167607279776 0 0 0 0
          0 0 0 0 0 0
          0 0 0 24.49202490961145 -43.73807536006497 0
          30.64101805359467 43.08764146226197 0 0 0 0
          0 0 0 0 0 0
          0 0 0 20.903141936338905 -49.62452962197834 0
          28.30675018874834 56.74380118414963 0 0 0 0
          0 0 0 0 0 0
          0 0 0 17.314258963066326 -55.510983883891754 0
          25.97248232390203 70.3999609060372 0 0 0 0
          0 0 0 0 0 0
          0 0 0 14.308185344396925 -69.3435967733399 0
          23.638214459055703 84.05612062792487 0 0 0 0
          0 0 0 0 0 0
          0 0 0 11.504833374519764 -85.94016388866982 0
          21.303946594209393 97.71228034981243 0 0 0 0
          0 0 0 0 0 0
          0 0 0 8.701481404642623 -102.5367310039996 0
          0 0 0 40.94718775683108 45.10648471019711 0
          0 0 0 0 0 0
          0 0 0 43.22964321201235 -47.934758791154906 0
          0 0 0 18.96967872936306 111.3684400717001 0
          0 0 0 0 0 0
          0 0 0 5.898129434765461 -119.1332981193295 0
          <InformationKey name="L2_NORM_RANGE" location="vtkDataArray" length="2">
            <Value index="0">
              0
            </Value>
            <Value index="1">
              119.27921299
            </Value>
          </InformationKey>
        </DataArray>
        <DataArray type="Float64" Name="Velocity" NumberOfComponents="3" format="ascii" RangeMin="0.0010076107947142436" RangeMax="0.0024611925066980954">
          0.0022739992368209895 -0.00039867564791936294 0 0.002284566569509423 -0.00037346726614453186 0
          0.002299043468190422 -0.0003473018000589016 0 0.0023176253593566974 -0.00032012899026360103 0
          0.002340495071712505 -0.0002918911871802754 0 0.0023678507686213483 -0.0002625327972345236 0
          0.0022013391487785876 -0.0004337205533330242 0 0.00220916898603799 -0.00040685432018248296 0
          0.002220850834292949 -0.00037894470296850414 0 0.0022365419712776996 -0.00034995232547680626 0
          0.0022564081250991265 -0.00031982752977712534 0 0.002280628037612853 -0.0002884932659220135 0
          0.00212500282470584 -0.00046352939655687427 0 0.002129903005770423 -0.00043502724695531784 0
          0.0021385840285963863 -0.0004053930921192367 0 0.002151235545532845 -0.000374625416307689 0
          0.0021679497883643965 -0.00034269488264685464 0 0.0021887965337742026 -0.00030951142852148837 0
          0.0020450782219500973 -0.00048779683663740343 0 0.002046775680383094 -0.00045763917261757976 0
          0.002052336175583527 -0.0004263498652359035 0 0.0020618243027532876 -0.000393890668602487 0
          0.00207532178909949 -0.0003602120719398399 0 0.0020927648231194793 -0.00032530311902796407 0
          0.0019617167052247606 -0.0005053118304710439 0 0.001960203079604505 -0.00047406959408351364 0
          0.001962486181792018 -0.0004416085669158498 0 0.001968590312433379 -0.00040781749407145973 0
          0.001978652713973819 -0.0003726108296914832 0 0.0019928711674486502 -0.0003359807134504948 0
          0.00187550716583996 -0.0005168994672589678 0 0.001870867827962712 -0.0004848897723522055 0
          0.0018696974493235604 -0.00045164241890549356 0 0.0018721778191852952 -0.000417019085181627 0
          0.0018785361411270817 -0.00038093941210132567 0 0.0018891637647094166 -0.00034335479923882256 0
          0.0017871380910120145 -0.0005225670674866501 0 0.0017792104037217694 -0.0004899613672057028 0
          0.001774460525584577 -0.00045606693237587993 0 0.0017731725184819331 -0.00042078632721792873 0
          0.0017756024160573776 -0.0003840264185070636 0 0.0017820395329097146 -0.00034563500685917583 0
          0.0016970663308875167 -0.0005215763878511213 0 0.0016854734443824703 -0.0004884628088530119 0
          0.0016769696464695807 -0.00045395652149767744 0 0.0016718247979435612 -0.00041807486404647634 0
          0.0016701373585643537 -0.0003807267539827357 0 0.0016719955849259919 -0.0003417040897709715 0
          0.001605421666918069 -0.0005129568577529077 0 0.0015897354637627592 -0.00047932651417315926 0
          0.0015774305491819754 -0.00044437350483202993 0 0.001568399438801552 -0.000408074299353079 0
          0.0015625816553109795 -0.0003703168562415733 0 0.0015597829820858116 -0.00033094070806608715 0
          0.0015122150402142114 -0.0004948449029644491 0 0.0014926411986144416 -0.00046159500428460514 0
          0.0014764666217520325 -0.00042693044135357576 0 0.0014634328582967654 -0.0003907397431887198 0
          0.001453439232942325 -0.00035291913000587487 0 0.0014463188067617894 -0.00031340851287062465 0
          0.0014180086408550796 -0.0004697216139008941 0 0.0013949638602137146 -0.00043699220327615863 0
          0.0013748838427693941 -0.0004029290161780101 0 0.0013577385964472569 -0.000367343724080636 0
          0.0013435164709424566 -0.0003301361376088015 0 0.0013323507448744078 -0.00029129136997604524 0
          0.001323558015406788 -0.0004378790984579807 0 0.001297099926430425 -0.0004059147370269157 0
          0.0012732154615454228 -0.00037264065453161666 0 0.0012520066658504932 -0.0003379176669616014 0
          0.0012335745389351785 -0.0003016311579159463 0 0.0012181078542151966 -0.00026366781577134027 0
          0.001229446235352074 -0.0003989481090881113 0 0.001199431486322457 -0.00036787357384411725 0
          0.0011717767885277405 -0.00033548873791655593 0 0.001146575341017492 -0.00030171538596569005 0
          0.001123886149579834 -0.0002664306425456206 0 0.0011037959200617632 -0.00022943911997625588 0
          0.0023560044830338387 -0.0003350987734641746 0 0.002342959426680266 -0.0003585812386886812 0
          0.002373074346133574 -0.00031074428054113243 0 0.0023943474852558956 -0.000285461888777953 0
          0.002420010269932221 -0.00025920335089032304 0 0.0024502412050753514 -0.00023191936524952873 0
          0.0011021287704426521 -0.0003221859011046641 0 0.0011358734232972162 -0.00035235710172393074 0
          0.0010707319756025656 -0.00029070277417691924 0 0.0010416634170387605 -0.0002579291670954805 0
          0.0010147800487070673 -0.0002237676074015546 0 0.000989923534713419 -0.00018796518040626597 0
          <InformationKey name="L2_NORM_RANGE" location="vtkDataArray" length="2">
            <Value index="0">
              0.0010076107947
            </Value>
            <Value index="1">
              0.0024611925067
            </Value>
          </InformationKey>
        </DataArray>
      </PointData>
      <CellData>
        <DataArray type="UInt8" Name="vtkGhostType" format="ascii" RangeMin="0" RangeMax="1">
          1 1 1 1 1 0
          0 0 0 0 0 0
          0 0 0 0 0 0
          0 0 0 0 0 0
          0 0 0 0 0 0
          0 0 0 0 0 0
          0 0 0 0 0 0
          0 0 0 0 0 0
          0 0 0 0 0 0
          0 0 0 0 0 0
          0 0 0 0 0 0
          0 0 0 0
        </DataArray>
        <DataArray type="Float64" Name="Gauss Stress" NumberOfComponents="6" format="ascii" RangeMin="448.89170672124146" RangeMax="744.3338233626607">
          445.56535473073507 43.44720137330399 0 32.97908002978369 0 0
          461.2199468171745 44.35561469763164 0 17.436262464331843 0 0
          477.35162096691045 45.02860061859337 0 1.1631462726387023 0 0
          493.8901586533325 45.42047359686698 0 -15.83628242449312 0 0
          510.75572558374523 45.483129261101006 0 -33.58764455893165 0 0
          636.7157316187017 105.4874633162851 0 17.419886534408523 0 0
          660.2166984476905 107.49480710390092 0 11.671707141341297 0 0
          684.0951941328503 109.45793473330855 0 5.894643279343231 0 0
          709.0103970224245 110.96417447730957 0 0.44617667402378913 0 0
          630.3204695495301 91.87732752988616 0 19.667799398492445 0 0
          653.0614700184489 93.38972833107907 0 13.544164462227652 0 0
          676.7715114928662 94.41557023041152 0 7.168957919198233 0 0
          701.5964638189937 94.94738984729871 0 0.644182747245021 0 0
          727.8603874030631 94.83031556591375 0 -6.290948957728385 0 0
          622.8158082415976 78.24952940704944 0 21.293522650856346 0 0
          644.828135096577 79.15415445064778 0 14.025345522507024 0 0
          668.2656141938844 79.30266738133453 0 6.731352529275558 0 0
          692.5259615057179 78.88059947005611 0 -0.5844732088677314 0 0
          717.2524029794715 78.10124433451739 0 -8.386021229862177 0 0
          612.4687050623361 64.65188692584177 0 22.289180445459884 0 0
          634.673059222122 65.13819076539211 0 13.346655846031851 0 0
          658.4243263909611 65.09381845851277 0 4.930461549802288 0 0
          682.6259350545732 64.28695217690851 0 -3.2996728560852846 0 0
          706.0055924973531 62.54133716049862 0 -11.423116209504167 0 0
          598.3754918430602 50.561001618147095 0 23.157479582204893 0 0
          622.684698675461 52.50856828214218 0 13.161202040439951 0 0
          646.7646714628077 53.59982883699751 0 3.4946145642028004 0 0
          671.1308147949691 53.75741811032391 0 -6.233128666602113 0 0
          695.8224490990712 52.982862252589996 0 -15.612906789231037 0 0
          583.634514094379 41.441423059585745 0 26.79826496230654 0 0
          608.8158396909033 44.08512022735454 0 15.833115031518805 0 0
          632.8525282937256 45.933101601161624 0 4.702972216635422 0 0
          657.3774853332716 47.048131510813974 0 -6.452949208024079 0 0
          683.713620315578 47.45031512915294 0 -17.386063117190158 0 0
          570.947801768961 38.320213659686985 0 28.274323312913218 0 0
          593.8051156071629 39.59137530356671 0 17.48811091292938 0 0
          617.1847983225758 40.79319454755301 0 5.75396793412887 0 0
          641.3534347738382 41.560961214111295 0 -6.512538560034466 0 0
          667.1255049195122 41.52036460093248 0 -19.39535989080088 0 0
          557.6473936694256 35.20376229613801 0 29.19259229573794 0 0
          578.5316661217497 35.96725192555641 0 17.703369663860478 0 0
          600.5056460331775 36.228770524504256 0 5.432192678839691 0 0
          623.2583860967721 36.105264934877965 0 -7.623012679956707 0 0
          647.0101321173986 35.601193947046674 0 -21.87418664112449 0 0
          542.2364278405178 32.03317103522793 0 29.564354828208934 0 0
          562.0181279149817 32.425963026834246 0 16.831839637067795 0 0
          582.8994920616046 32.25136050369323 0 3.7199819088905928 0 0
          604.0821160147677 31.412883267078104 0 -10.038024051413204 0 0
          624.7361204287118 29.927273372568393 0 -24.824770564952736 0 0
          523.851976566079 29.42581924824072 0 29.93984469053639 0 0
          543.8135086468893 30.490605249218053 0 15.966296245036304 0 0
          563.7638865231186 30.7686522410928 0 1.6339426521879656 0 0
          583.7120653032928 30.341102897237104 0 -13.357483500385154 0 0
          602.6911027963735 29.168767377351777 0 -28.90457153421916 0 0
          504.22917688684964 30.61947343088573 0 31.437970404308807 0 0
          523.8524344436712 31.910557304431524 0 16.550414048187847 0 0
          543.0169811068429 32.68814428419003 0 1.2338868850855382 0 0
          562.2023717186495 33.06827570198647 0 -14.436847909496581 0 0
          582.0393238037457 33.35591816500121 0 -30.146881037134918 0 0
          485.0230313319793 34.96301411845983 0 31.744264446167946 0 0
          503.1021110590859 35.68427515613794 0 16.829612173364026 0 0
          521.5127439967016 36.41295179148067 0 1.2491556528716063 0 0
          540.2363337845912 36.93812243616478 0 -14.806293586919121 0 0
          559.6964887375881 37.08313826142779 0 -31.315426890641675 0 0
          465.324953836158 38.99108836041306 0 32.196067961827254 0 0
          482.3738137615306 39.936564662151234 0 17.043309703768127 0 0
          499.6809182574799 40.58667056158641 0 1.1958387976198255 0 0
          517.4308342604006 40.97232116816398 0 -15.323028217599806 0 0
          535.6602495347304 40.985910243682156 0 -32.56952704685932 0 0
          735.9248997857097 111.46787593421439 0 -4.721769984268727 0 0
          <InformationKey name="L2_NORM_RANGE" location="vtkDataArray" length="2">
            <Value index="0">
              448.89170672
            </Value>
            <Value index="1">
              744.33382336
            </Value>
          </InformationKey>
        </DataArray>
        <DataArray type="Float64" Name="Gauss Strain" NumberOfComponents="6" format="ascii" RangeMin="0.0002999276980835679" RangeMax="0.00046824973415715457">
          0.00024989276567095875 -0.00015218606787451017 0 0.00006595172846804066 0 0
          0.00025891819298776153 -0.0001579039970148188 0 0.00003486901950437493 0 0
          0.00026832305842004744 -0.00016395480470776658 0 0.0000023260714728484953 0 0
          0.0002780834073477789 -0.00017033791630766124 0 -0.000031669125236259424 0 0
          0.0002881704816577735 -0.00017705036738308033 0 -0.0000671677914535018 0 0
          0.00033971440063919334 -0.00019143501014026731 0 0.000034834587581841525 0 0
          0.00035300255907369515 -0.00019963446564452703 0 0.000023339816025055923 0 0
          0.0003665342712322467 -0.0002080117877865106 0 0.000011787399073464196 0 0
          0.0003808696047385707 -0.00021707854175895267 0 8.921867160338345e-7 0 0
          0.0003413191920931674 -0.00019704617785790132 0 0.0000393299043524434 0 0
          0.00035434947636084346 -0.00020523871194647045 0 0.00002708427105391905 0 0
          0.00036815471707619946 -0.0002141114034362179 0 0.000014335688396584434 0 0
          0.00038282526167461584 -0.00022372716808086168 0 0.0000012881418924658206 0 0
          0.0003986171670376793 -0.00023430874623761588 0 -0.000012579847456538939 0 0
          0.0003422659148706736 -0.00020222401022504388 0 0.00004258106371777229 0 0
          0.0003551022209919985 -0.00021048985221189254 0 0.000028046617124320588 0 0
          0.0003690946192632383 -0.00021978026970700948 0 0.000013460677438498416 0 0
          0.0003838077860484624 -0.00022974290329061398 0 -0.0000011687828240146385 0 0
          0.0003989425263937612 -0.00024010696467050008 0 -0.000016769391380773447 0 0
          0.0003414964115584368 -0.00020624621966025547 0 0.00004457231713569896 0 0
          0.0003546150886964139 -0.00021484006550384627 0 0.00002668956616766913 0 0
          0.00036887267876149765 -0.00022437197136310202 0 0.00000985948571986995 0 0
          0.00038370433608818366 -0.00023454227819033613 0 -0.000006598371256009298 0 0
          0.00039841772086392224 -0.0002449476327402999 0 -0.000022842733084437324 0 0
          0.00033867803098397426 -0.0002090653572571488 0 0.00004630894278149226 0 0
          0.0003524747959651048 -0.00021762433748884197 0 0.00002631884539111624 0 0
          0.00036647567757709665 -0.00022660607807009625 0 0.000006988248443600942 0 0
          0.0003810205745020667 -0.00023626331679396648 0 -0.000012464449240597662 0 0
          0.0003961324029260749 -0.00024661091278238567 0 -0.000031221135678876884 0 0
          0.0003334843079212946 -0.00020864099662548652 0 0.00005358983991906373 0 0
          0.0003475260109166433 -0.00021713096551090327 0 0.000031662103197314487 0 0
          0.00036119874843894284 -0.00022564100027722134 0 0.000009404674758274832 0 0
          0.0003754564079462286 -0.00023478695998369048 0 -0.00001290407325887335 0 0
          0.0003910839782533676 -0.00024508628228039897 0 -0.00003476703543051511 0 0
          0.0003271250394448755 -0.00020543764484595714 0 0.00005654176528151711 0 0
          0.00034032210533595225 -0.0002138214274328143 0 0.00003497180181864024 0 0
          0.0003538594251527999 -0.00022245632865894316 0 0.000011506431770584267 0 0
          0.0003680424629942531 -0.00023166808952274076 0 -0.00001302328804970877 0 0
          0.0003835089641243822 -0.00024200750840883134 0 -0.000038785210758781306 0 0
          0.00032039585904133916 -0.0002019858273086539 0 0.00005837827158209517 0 0
          0.0003326130845467956 -0.0002098846491965234 0 0.00003540239866615714 0 0
          0.00034568362920163465 -0.00021852138813163724 0 0.000010863012765812969 0 0
          0.00035937418844728114 -0.00022770150461334793 0 -0.000015244003724905169 0 0
          0.00037381486640034045 -0.00023751060283047631 0 -0.000043742387398889954 0 0
          0.0003124227830337972 -0.00019772187729605317 0 0.00005912193008336053 0 0
          0.00032412735161649325 -0.00020540185202400085 0 0.00003365968950504637 0 0
          0.00033671731903528457 -0.0002138630679443254 0 0.0000074390616610103255 0 0
          0.0003497524438220711 -0.00022284400633715282 0 -0.0000200734830457954 0 0
          0.0003627283718502794 -0.00023200260175471055 0 -0.00004964302703550845 0 0
          0.00030244153438882537 -0.00019192991471020382 0 0.000059873079568808317 0 0
          0.0003139856615456127 -0.0001992782851583663 0 0.00003192894191950059 0 0
          0.0003258367789510802 -0.0002070950845404207 0 0.000003267516237417171 0 0
          0.0003379677531371028 -0.0002153352582194845 0 -0.000026711664148049296 0 0
          0.000349814432361803 -0.00022363543996628543 0 -0.000057801815238236806 0 0
          0.00029019819237199873 -0.00018336085591619256 0 0.00006286923899494261 0 0
          0.0003014494354521696 -0.0001904377692338033 0 0.000033097171763412045 0 0
          0.0003126300687183725 -0.00019764001765215644 0 0.0000024675127494866535 0 0
          0.00032398120444857015 -0.0002050899068500589 0 -0.000028870234690705424 0 0
          0.00033575908363560336 -0.00021285680142490992 0 -0.00006028631732743573 0 0
          0.00027694539556434583 -0.00017306782366338644 0 0.00006348194796450862 0 0
          0.00028749880908808534 -0.0001798686674088501 0 0.00003365562021624747 0 0
          0.0002982472911178258 -0.00018679838066348875 0 0.0000024980558436856053 0 0
          0.0003092639102466321 -0.0001939762131629441 0 -0.000029609144904519563 0 0
          0.0003208731825463246 -0.0002016778015479781 0 -0.0000626233529040356 0 0
          0.000263523296772622 -0.00016276757452673984 0 0.00006438566163022211 0 0
          0.0002733696605076857 -0.00016902137911298243 0 0.00003408308019073745 0 0
          0.00028348818114232177 -0.00017555646929159896 0 0.000002391441884155431 0 0
          0.0002939770743342618 -0.00018242823811995268 0 -0.0000306426099737016 0 0
          0.00030490123608721553 -0.00018971606480097658 0 -0.00006513151621884394 0 0
          0.0003968035957594984 -0.00022754759381971024 0 -0.000009441964189477896 0 0
          <InformationKey name="L2_NORM_RANGE" location="vtkDataArray" length="2">
            <Value index="0">
              0.00029992769808
            </Value>
            <Value index="1">
              0.00046824973416
            </Value>
          </InformationKey>
        </DataArray>
        <DataArray type="Float64" Name="Btraction" NumberOfComponents="3" format="ascii" RangeMin="0" RangeMax="55.537571994213806">
          20.18073045626474 21.4186542211855 0 0 0 0
          0 0 0 0 0 0
          21.384566679228744 -22.734461284718886 0 10.068406330893113 52.27018010537813 0
          0 0 0 0 0 0
          0 0 0 11.235540263316272 45.44210024443432 0
          0 0 0 0 0 0
          0 0 0 5.051578694790598 -47.11922372316735 0
          12.402674195739433 38.61402038349051 0 0 0 0
          0 0 0 0 0 0
          6.453254679729172 -38.82094016550242 0 13.56980812816259 31.785940522546706 0
          0 0 0 0 0 0
          0 0 0 7.905611076865813 -31.21364516430791 0
          14.73694206058575 24.9578606616029 0 0 0 0
          0 0 0 0 0 0
          9.554350224851307 -26.28387837646752 0 15.706353014145336 20.538952267385437 0
          0 0 0 0 0 0
          0 0 0 11.34879171148759 -23.34065124551082 0
          16.459616648227808 18.7537081932515 0 0 0 0
          0 0 0 0 0 0
          13.14323319812386 -20.39742411455414 0 17.194455941696752 17.192956972474732 0
          0 0 0 0 0 0
          0 0 0 14.937674684760141 -17.454196983597445 0
          17.929295235165696 15.632205751697962 0 0 0 0
          0 0 0 0 0 0
          16.675362838672125 -14.841960221867271 0 18.615345989015832 14.493955516005801 0
          0 0 0 0 0 0
          0 0 0 17.99915140148588 -14.643621849960587 0
          19.09295875246191 15.160745090130423 0 0 0 0
          0 0 0 0 0 0
          18.96579370592571 -16.52819149865084 0 19.41092206512272 17.210073488987238 0
          0 0 0 0 0 0
          0 0 0 19.93243601036553 -18.412761147341097 0
          19.728885377783534 19.259401887844046 0 0 0 0
          0 0 0 0 0 0
          20.78503445751838 -20.428294572773275 0 3.6499027098520203 -55.41750728083226 0
          <InformationKey name="L2_NORM_RANGE" location="vtkDataArray" length="2">
            <Value index="0">
              0
            </Value>
            <Value index="1">
              55.537571994
            </Value>
          </InformationKey>
        </DataArray>
      </CellData>
      <Points>
        <DataArray type="Float32" Name="Points" NumberOfComponents="3" format="ascii" RangeMin="0.45867757026346817" RangeMax="0.5568715472885115">
          0.508737325668335 0.20999999344348907 0 0.508737325668335 0.20600000023841858 0
          0.508737325668335 0.20200000703334808 0 0.508737325668335 0.1979999989271164 0
          0.508737325668335 0.1940000057220459 0 0.508737325668335 0.1899999976158142 0
          0.5017170906066895 0.20999999344348907 0 0.5017170906066895 0.20600000023841858 0
          0.5017170906066895 0.20200000703334808 0 0.5017170906066895 0.1979999989271164 0
          0.5017170906066895 0.1940000057220459 0 0.5017170906066895 0.1899999976158142 0
          0.49469688534736633 0.20999999344348907 0 0.49469688534736633 0.20600000023841858 0
          0.49469688534736633 0.20200000703334808 0 0.49469688534736633 0.1979999989271164 0
          0.49469688534736633 0.1940000057220459 0 0.49469688534736633 0.1899999976158142 0
          0.4876767098903656 0.20999999344348907 0 0.4876767098903656 0.20600000023841858 0
          0.4876767098903656 0.20200000703334808 0 0.4876767098903656 0.1979999989271164 0
          0.4876767098903656 0.1940000057220459 0 0.4876767098903656 0.1899999976158142 0
          0.4806565046310425 0.20999999344348907 0 0.4806565046310425 0.20600000023841858 0
          0.4806565046310425 0.20200000703334808 0 0.4806565046310425 0.1979999989271164 0
          0.4806565046310425 0.1940000057220459 0 0.4806565046310425 0.1899999976158142 0
          0.47363629937171936 0.20999999344348907 0 0.47363629937171936 0.20600000023841858 0
          0.47363629937171936 0.20200000703334808 0 0.47363629937171936 0.1979999989271164 0
          0.47363629937171936 0.1940000057220459 0 0.47363629937171936 0.1899999976158142 0
          0.46661609411239624 0.20999999344348907 0 0.46661609411239624 0.20600000023841858 0
          0.46661609411239624 0.20200000703334808 0 0.46661609411239624 0.1979999989271164 0
          0.46661609411239624 0.1940000057220459 0 0.46661609411239624 0.1899999976158142 0
          0.4595958888530731 0.20999999344348907 0 0.4595958888530731 0.20600000023841858 0
          0.4595958888530731 0.20200000703334808 0 0.4595958888530731 0.1979999989271164 0
          0.4595958888530731 0.1940000057220459 0 0.4595958888530731 0.1899999976158142 0
          0.4525757133960724 0.20999999344348907 0 0.4525757133960724 0.20600000023841858 0
          0.4525757133960724 0.20200000703334808 0 0.4525757133960724 0.1979999989271164 0
          0.4525757133960724 0.1940000057220459 0 0.4525757133960724 0.1899999976158142 0
          0.44555550813674927 0.20999999344348907 0 0.44555550813674927 0.20600000023841858 0
          0.44555550813674927 0.20200000703334808 0 0.44555550813674927 0.1979999989271164 0
          0.44555550813674927 0.1940000057220459 0 0.44555550813674927 0.1899999976158142 0
          0.43853530287742615 0.20999999344348907 0 0.43853530287742615 0.20600000023841858 0
          0.43853530287742615 0.20200000703334808 0 0.43853530287742615 0.1979999989271164 0
          0.43853530287742615 0.1940000057220459 0 0.43853530287742615 0.1899999976158142 0
          0.431515097618103 0.20999999344348907 0 0.431515097618103 0.20600000023841858 0
          0.431515097618103 0.20200000703334808 0 0.431515097618103 0.1979999989271164 0
          0.431515097618103 0.1940000057220459 0 0.431515097618103 0.1899999976158142 0
          0.4244948923587799 0.20999999344348907 0 0.4244948923587799 0.20600000023841858 0
          0.4244948923587799 0.20200000703334808 0 0.4244948923587799 0.1979999989271164 0
          0.4244948923587799 0.1940000057220459 0 0.4244948923587799 0.1899999976158142 0
          0.5157576203346252 0.20600000023841858 0 0.5157576203346252 0.20999999344348907 0
          0.5157576203346252 0.20200000703334808 0 0.5157576203346252 0.1979999989271164 0
          0.5157576203346252 0.1940000057220459 0 0.5157576203346252 0.1899999976158142 0
          0.4174746870994568 0.20600000023841858 0 0.4174746870994568 0.20999999344348907 0
          0.4174746870994568 0.20200000703334808 0 0.4174746870994568 0.1979999989271164 0
          0.4174746870994568 0.1940000057220459 0 0.4174746870994568 0.1899999976158142 0
          <InformationKey name="L2_NORM_RANGE" location="vtkDataArray" length="2">
            <Value index="0">
              0.45867757026
            </Value>
            <Value index="1">
              0.55687154729
            </Value>
          </InformationKey>
        </DataArray>
      </Points>
      <Cells>
        <DataArray type="Int64" Name="connectivity" format="ascii" RangeMin="0" RangeMax="89">
          1 78 79 0 2 80
          78 1 3 81 80 2
          4 82 81 3 5 83
          82 4 84 73 72 85
          86 74 73 84 87 75
          74 86 88 76 75 87
          73 67 66 72 74 68
          67 73 75 69 68 74
          76 70 69 75 77 71
          70 76 67 61 60 66
          68 62 61 67 69 63
          62 68 70 64 63 69
          71 65 64 70 61 55
          54 60 62 56 55 61
          63 57 56 62 64 58
          57 63 65 59 58 64
          55 49 48 54 56 50
          49 55 57 51 50 56
          58 52 51 57 59 53
          52 58 49 43 42 48
          50 44 43 49 51 45
          44 50 52 46 45 51
          53 47 46 52 43 37
          36 42 44 38 37 43
          45 39 38 44 46 40
          39 45 47 41 40 46
          37 31 30 36 38 32
          31 37 39 33 32 38
          40 34 33 39 41 35
          34 40 31 25 24 30
          32 26 25 31 33 27
          26 32 34 28 27 33
          35 29 28 34 25 19
          18 24 26 20 19 25
          27 21 20 26 28 22
          21 27 29 23 22 28
          19 13 12 18 20 14
          13 19 21 15 14 20
          22 16 15 21 23 17
          16 22 13 7 6 12
          14 8 7 13 15 9
          8 14 16 10 9 15
          17 11 10 16 7 1
          0 6 8 2 1 7
          9 3 2 8 10 4
          3 9 11 5 4 10
          89 77 76 88
        </DataArray>
        <DataArray type="Int64" Name="offsets" format="ascii" RangeMin="4" RangeMax="280">
          4 8 12 16 20 24
          28 32 36 40 44 48
          52 56 60 64 68 72
          76 80 84 88 92 96
          100 104 108 112 116 120
          124 128 132 136 140 144
          148 152 156 160 164 168
          172 176 180 184 188 192
          196 200 204 208 212 216
          220 224 228 232 236 240
          244 248 252 256 260 264
          268 272 276 280
        </DataArray>
        <DataArray type="UInt8" Name="types" format="ascii" RangeMin="9" RangeMax="9">
          9 9 9 9 9 9
          9 9 9 9 9 9
          9 9 9 9 9 9
          9 9 9 9 9 9
          9 9 9 9 9 9
          9 9 9 9 9 9
          9 9 9 9 9 9
          9 9 9 9 9 9
          9 9 9 9 9 9
          9 9 9 9 9 9
          9 9 9 9 9 9
          9 9 9 9
        </DataArray>
      </Cells>
    </Piece>
  </UnstructuredGrid>
</VTKFile>
