<?xml version="1.0"?>
<VTKFile type="UnstructuredGrid" version="0.1" byte_order="LittleEndian" header_type="UInt32" compressor="vtkZLibDataCompressor">
  <UnstructuredGrid>
    <Piece NumberOfPoints="83" NumberOfCells="64">
      <PointData>
        <DataArray type="Float64" Name="sld_BC" NumberOfComponents="3" format="ascii" RangeMin="0" RangeMax="0">
          0 0 0 0 0 0
          0 0 0 0 0 0
          0 0 0 0 0 0
          0 0 0 0 0 0
          0 0 0 0 0 0
          0 0 0 0 0 0
          0 0 0 0 0 0
          0 0 0 0 0 0
          0 0 0 0 0 0
          0 0 0 0 0 0
          0 0 0 0 0 0
          0 0 0 0 0 0
          0 0 0 0 0 0
          0 0 0 0 0 0
          0 0 0 0 0 0
          0 0 0 0 0 0
          0 0 0 0 0 0
          0 0 0 0 0 0
          0 0 0 0 0 0
          0 0 0 0 0 0
          0 0 0 0 0 0
          0 0 0 0 0 0
          0 0 0 0 0 0
          0 0 0 0 0 0
          0 0 0 0 0 0
          0 0 0 0 0 0
          0 0 0 0 0 0
          0 0 0 0 0 0
          0 0 0 0 0 0
          0 0 0 0 0 0
          0 0 0 0 0 0
          0 0 0 0 0 0
          0 0 0 0 0 0
          0 0 0 0 0 0
          0 0 0 0 0 0
          0 0 0 0 0 0
          0 0 0 0 0 0
          0 0 0 0 0 0
          0 0 0 0 0 0
          0 0 0 0 0 0
          0 0 0 0 0 0
          0 0 0
          <InformationKey name="L2_NORM_RANGE" location="vtkDataArray" length="2">
            <Value index="0">
              0
            </Value>
            <Value index="1">
              0
            </Value>
          </InformationKey>
        </DataArray>
        <DataArray type="Float64" Name="sld_FIXNO" NumberOfComponents="3" format="ascii" RangeMin="1.4142135623730951" RangeMax="1.4142135623730951">
          -1 -1 0 -1 -1 0
          -1 -1 0 -1 -1 0
          -1 -1 0 -1 -1 0
          -1 -1 0 -1 -1 0
          -1 -1 0 -1 -1 0
          -1 -1 0 -1 -1 0
          -1 -1 0 -1 -1 0
          -1 -1 0 -1 -1 0
          -1 -1 0 -1 -1 0
          -1 -1 0 -1 -1 0
          -1 -1 0 -1 -1 0
          -1 -1 0 -1 -1 0
          -1 -1 0 -1 -1 0
          -1 -1 0 -1 -1 0
          -1 -1 0 -1 -1 0
          -1 -1 0 -1 -1 0
          -1 -1 0 -1 -1 0
          -1 -1 0 -1 -1 0
          -1 -1 0 -1 -1 0
          -1 -1 0 -1 -1 0
          -1 -1 0 -1 -1 0
          -1 -1 0 -1 -1 0
          -1 -1 0 -1 -1 0
          -1 -1 0 -1 -1 0
          -1 -1 0 -1 -1 0
          -1 -1 0 -1 -1 0
          -1 -1 0 -1 -1 0
          -1 -1 0 -1 -1 0
          -1 -1 0 -1 -1 0
          -1 -1 0 -1 -1 0
          -1 -1 0 -1 -1 0
          -1 -1 0 -1 -1 0
          -1 -1 0 -1 -1 0
          -1 -1 0 -1 -1 0
          -1 -1 0 -1 -1 0
          1 1 0 1 1 0
          1 1 0 1 1 0
          1 1 0 1 1 0
          -1 -1 0 -1 -1 0
          -1 -1 0 -1 -1 0
          -1 -1 0 -1 -1 0
          -1 -1 0
          <InformationKey name="L2_NORM_RANGE" location="vtkDataArray" length="2">
            <Value index="0">
              1.4142135624
            </Value>
            <Value index="1">
              1.4142135624
            </Value>
          </InformationKey>
        </DataArray>
        <DataArray type="Float64" Name="Disp" NumberOfComponents="3" format="ascii" RangeMin="0" RangeMax="0.00012085332151755367">
          -0.0000388430492216825 0.00010058592662558636 0 -0.00003360555764502759 0.00009868780814645836 0
          -0.000028370715189680798 0.00009669569457259357 0 -0.000023086636011780204 0.00009460341841423654 0
          -0.000047285273980384765 0.00009449523555978226 0 -0.00004165695835836027 0.0000926941168598205 0
          -0.000036144371757267234 0.00009082647431450423 0 -0.000030687626647246964 0.00008889451725969133 0
          -0.00002522345123134573 0.00008689585214718879 0 -0.000019689010282701774 0.0000848224221539128 0
          -0.00004476445780559952 0.000084476526394654 0 -0.000038976783509548746 0.00008259008698868203 0
          -0.00003331957007323893 0.00008066403169597764 0 -0.000027718689657372614 0.0000787039171553077 0
          -0.000022099248367426092 0.00007670797931889655 0 -0.000016385213503780614 0.00007466806379285277 0
          -0.000041960372627113815 0.00007418928041415552 0 -0.000036093573534495736 0.00007221121253845568 0
          -0.000030375864989309644 0.00007022763856798463 0 -0.000024717850319160123 0.00006824508190417677 0
          -0.000019030321615434618 0.00006626272439580801 0 -0.000013224900704055178 0.00006427259910328834 0
          -0.00003883908206049859 0.00006380334346063058 0 -0.000032994072481290104 0.00006172276312741787 0
          -0.000027316948942626057 0.000059678205532929564 0 -0.00002170385773716307 0.000057676441848047484 0
          -0.000016051007265044956 0.00005571697609251876 0 -0.000010254464282936524 0.000053791812786909 0
          -0.00003536549901586907 0.000053511392604067945 0 -0.00002966025108252072 0.00005131702117143083 0
          -0.00002414229584016369 0.00004920642151889324 0 -0.000018692833468832027 0.000047186639073216 0
          -0.000013193133491165864 0.00004525714861346175 0 -0.00000752460026389527 0.000043410067842643734 0
          -0.0000315019255335903 0.00004354072773126885 0 -0.000026072011840836075 0.00004121883933714092 0
          -0.000020849584426261623 0.00003903578007082549 0 -0.000015699450130258086 0.000036998636571704976 0
          -0.000010487964425635621 0.000035106193398372253 0 -0.0000050830148573828406 0.000033350711744144664 0
          -0.000027206939862806786 0.00003414820245878154 0 -0.0000222081274345466 0.00003168490283372516 0
          -0.000017434604661024975 0.000029422076136640833 0 -0.000012736658790602726 0.000027364978563436382 0
          -0.000007966248681245875 0.000025514952472526468 0 -0.0000029760972103487184 0.000023863152673699406 0
          -0.000022446668969897328 0.000025631459374368794 0 -0.000018046011081175192 0.000023016216252074066 0
          -0.000013882614527177807 0.000020656448356880967 0 -0.000009806589098467323 0.000018567107786513263 0
          -0.000005655694375098249 0.000016755162518297314 0 -0.0000012562819089248 0.000015221885457926352 0
          -0.000017216884515692538 0.000018326582646658622 0 -0.000013565611972102733 0.000015549889678353517 0
          -0.000010144698198899351 0.000013073730032158451 0 -0.000006873140611062765 0.000010902707125947498 0
          -0.0000035873084177074096 0.000009120089685654542 0 -9.906500765023188e-9 0.000007729454575480898 0
          -0.000011682665754262186 0.000012445422639954528 0 -0.00000874731727902123 0.000009601291983618509 0
          -0.000006126860516667055 0.000006947738366298244 0 -0.000003909773793070368 0.000004743205995197522 0
          -0.0000018066660119762532 0.000003005639063377989 0 5.691925587791395e-7 0.0000018330742256083304 0
          -0.000005870974137211948 0.000008057153955940553 0 -0.0000034147996496122598 0.00000477278168138896 0
          -0.0000022276704522573284 0.0000024470659164061 0 -0.0000012492968352075107 7.132255325318014e-7 0
          -3.3819074030205806e-7 -6.327533252150596e-7 0 3.6836917199003473e-7 -0.0000016669988440427484 0
          0 0 0 0 0 0
          0 0 0 0 0 0
          0 0 0 0 0 0
          -0.00004413794463159963 0.00010239242508339464 0 -0.000049546289688408274 0.00010410723548045436 0
          -0.00004140711480318559 0.00010983934585276586 0 -0.00004642014609998899 0.0001115826839517713 0
          -0.000036453879089529034 0.00010798171462060882 0 -0.00003151204046253739 0.00010600680014964057 0
          -0.00002653448965145857 0.00010390929204401096 0
          <InformationKey name="L2_NORM_RANGE" location="vtkDataArray" length="2">
            <Value index="0">
              0
            </Value>
            <Value index="1">
              0.00012085332152
            </Value>
          </InformationKey>
        </DataArray>
        <DataArray type="Float64" Name="Sld_traction" NumberOfComponents="3" format="ascii" RangeMin="0" RangeMax="1589.7627454457622">
          0 0 0 0 0 0
          0 0 0 -20.258358441514805 -596.4819739676307 0
          -3.587303227112109 674.180084638516 0 0 0 0
          0 0 0 0 0 0
          0 0 0 -19.45682495684005 -603.1628386280074 0
          0.9974467085248262 662.0083966897079 0 0 0 0
          0 0 0 0 0 0
          0 0 0 -19.216591724749424 -611.9565938709246 0
          4.682558697753979 645.898904932883 0 0 0 0
          0 0 0 0 0 0
          0 0 0 -19.623562298900097 -622.4228564885856 0
          8.011676112517286 627.4036635021961 0 0 0 0
          0 0 0 0 0 0
          0 0 0 -20.5841370887441 -635.2823665155422 0
          11.153553827150443 607.0305684896933 0 0 0 0
          0 0 0 0 0 0
          0 0 0 -21.86039984280098 -651.8025091354759 0
          14.059632562839495 585.1523447301207 0 0 0 0
          0 0 0 0 0 0
          0 0 0 -23.231864806856386 -671.5892744632705 0
          16.500142024126983 562.2860464367104 0 0 0 0
          0 0 0 0 0 0
          0 0 0 -25.045100021704503 -695.6443358781969 0
          16.66724334864051 541.9830156417347 0 0 0 0
          0 0 0 0 0 0
          0 0 0 -28.953055765803843 -727.3235358608222 0
          12.653941482936707 538.8585571015051 0 0 0 0
          0 0 0 0 0 0
          0 0 0 -37.0281613736876 -775.3959349041874 0
          -5.996014464991404 564.0206166097084 0 0 0 0
          0 0 0 0 0 0
          0 0 0 -46.95126078992453 -836.2617884196263 0
          177.9562943760251 333.6966279457284 0 0 0 0
          0 0 0 0 0 0
          0 0 0 43.21701252411111 -744.7103911143203 0
          1086.211933784485 -722.7956160122977 0 1550.4662098714623 -351.2835305761865 0
          967.1268826860944 -181.30172343786163 0 538.73656547029 -55.39459336279984 0
          159.07786448228592 41.37127850397421 0 73.72057753235764 -197.32183868696822 0
          0 0 0 -8.63045928013538 683.6084313527322 0
          0 0 0 0 0 0
          0 0 0 0 0 0
          -21.980316328694318 -589.84040727757 0
          <InformationKey name="L2_NORM_RANGE" location="vtkDataArray" length="2">
            <Value index="0">
              0
            </Value>
            <Value index="1">
              1589.7627454
            </Value>
          </InformationKey>
        </DataArray>
        <DataArray type="Float64" Name="Fld_traction" NumberOfComponents="3" format="ascii" RangeMin="0" RangeMax="649.3834627661987">
          0 0 0 0 0 0
          0 0 0 -14.427989996918765 -635.4488564298968 0
          -13.80729032381973 648.515108543402 0 0 0 0
          0 0 0 0 0 0
          0 0 0 -11.629926210200964 -632.9332366506479 0
          -11.085073072455302 645.9510434071412 0 0 0 0
          0 0 0 0 0 0
          0 0 0 -9.076816009253472 -630.2981932892874 0
          -9.491946082622922 642.3915535071313 0 0 0 0
          0 0 0 0 0 0
          0 0 0 -7.458596588110085 -627.207357433784 0
          -8.145643083681753 639.3395595399427 0 0 0 0
          0 0 0 0 0 0
          0 0 0 -5.923130152095575 -624.3359671367267 0
          -7.067450352647117 636.8388283167805 0 0 0 0
          0 0 0 0 0 0
          0 0 0 -4.872071236860294 -622.7491356836483 0
          -6.366990995836612 635.6191823005001 0 0 0 0
          0 0 0 0 0 0
          0 0 0 -3.984929869087761 -622.102081206746 0
          -5.870928497558541 635.3973989065148 0 0 0 0
          0 0 0 0 0 0
          0 0 0 -3.30690505297965 -622.5970602167971 0
          -5.51355935284378 636.6017099768399 0 0 0 0
          0 0 0 0 0 0
          0 0 0 -2.9102627899705085 -624.1006068459545 0
          -4.79129547531666 638.9674910546845 0 0 0 0
          0 0 0 0 0 0
          0 0 0 -2.7478012306120814 -626.5176014830236 0
          -3.8392558571414503 641.8836550205925 0 0 0 0
          0 0 0 0 0 0
          0 0 0 -2.554437031783306 -629.2547413632961 0
          -2.4217104118622865 643.7839786870674 0 0 0 0
          0 0 0 0 0 0
          0 0 0 -1.616660093679604 -631.5361306378798 0
          304.7404598582457 404.0506156150355 0 0 0 0
          0 0 0 0 0 0
          0 0 0 299.9054621541957 -396.1155559418443 0
          0 0 0 -18.76035943310755 649.1124175581296 0
          0 0 0 0 0 0
          0 0 0 0 0 0
          -17.176643123867457 -636.8150646582775 0
          <InformationKey name="L2_NORM_RANGE" location="vtkDataArray" length="2">
            <Value index="0">
              0
            </Value>
            <Value index="1">
              649.38346277
            </Value>
          </InformationKey>
        </DataArray>
        <DataArray type="Float64" Name="Velocity" NumberOfComponents="3" format="ascii" RangeMin="0" RangeMax="0.0015421773643662965">
          0.0005858178139553395 0.0010617891646495883 0 0.0006550826022180972 0.001101239661819379 0
          0.0007266343110739894 0.001140764384567359 0 0.00080109890156252 0.0011802625763309709 0
          0.00041398396381361197 0.0008472163099888457 0 0.0004789956445189472 0.0008906428945195991 0
          0.0005454937501410521 0.0009342949725332509 0 0.0006140209639339327 0.0009780805859175169 0
          0.0006851906474408251 0.001021957225852282 0 0.000759497399604874 0.0010658556020271244 0
          0.0003722613151913852 0.0007140106142276945 0 0.00043562292292639686 0.0007610920788291729 0
          0.0005007620144985819 0.0008084363814062118 0 0.0005682028052181802 0.0008560786981891303 0
          0.0006385565290763402 0.0009040148942125089 0 0.0007124979124245947 0.0009522127749818892 0
          0.00032725444574499183 0.0005838526768101786 0 0.00038890037911001093 0.0006340342539654821 0
          0.00045226705624943795 0.0006845155957917481 0 0.0005180928131752187 0.0007354203035786174 0
          0.0005871131535679015 0.0007867794828129251 0 0.0006600654150989412 0.000838533316561356 0
          0.00028032895976440233 0.00045844737216187376 0 0.00033967584357024686 0.0005107899142632853 0
          0.00040068690443063274 0.0005636774980420671 0 0.00046417878263074145 0.0006172943355125199 0
          0.000531048525365875 0.0006717748486424516 0 0.0006022594215274819 0.0007271665192679176 0
          0.0002328973938672302 0.0003393428283248609 0 0.0002891804131534971 0.0003928247122890352 0
          0.00034692952411766284 0.00044719639989010526 0 0.0004070808157581602 0.0005026938062591755 0
          0.0004706623966568425 0.0005594862469659252 0 0.00053885268614281 0.0006176677517054901 0
          0.00018655421096326911 0.0002283258271424991 0 0.00023866150110332868 0.0002819591588562941 0
          0.00029199392977252475 0.00033700365559153527 0 0.00034753255489236687 0.00039372323412327416 0
          0.0004064332318088036 0.00045235989878061677 0 0.00046996914881946043 0.0005130927299092582 0
          0.00014235183421081748 0.0001266765718129087 0 0.00018906655125560767 0.0001799450821908832 0
          0.0002365881372361231 0.0002351682407150618 0 0.00028601884310798097 0.0002926875352122977 0
          0.00033856889647982617 0.0003527479538077046 0 0.0003956224648566354 0.00041565323272921815 0
          0.00010114144748541007 0.00003664939675528944 0 0.0001408861962351783 0.00008911349791653237 0
          0.00018093710173353538 0.00014439710440654205 0 0.00022270181671088084 0.0002026144147820705 0
          0.00026744179961404543 0.0002639028141947783 0 0.0003162057580870679 0.0003283649906720068 0
          0.00006404496463604349 -0.000039093205760521224 0 0.00009446702370984137 0.000012201452618710294 0
          0.00012405922311860225 0.00006776827217033868 0 0.00015668589103839123 0.00012779390934847262 0
          0.00019345973140882738 0.0001904077440163956 0 0.00023313660905760415 0.0002559635123945484 0
          0.00003609558642298291 -0.00009337628537866633 0 0.00005010678891319493 -0.000045570527558953024 0
          0.00006449261655839497 0.000010559836827960176 0 0.00008620871111791897 0.0000709794349111296 0
          0.0001169913930590252 0.00013568127362407863 0 0.00015141551416194806 0.00019984919274847418 0
          0.00001835019605474469 -0.00011273338025407175 0 0.0000060977330356292326 -0.00006303125910263769 0
          0.00001183136219696383 -0.000017374944386392736 0 0.000021359199908288487 0.00002981718803926747 0
          0.00003546948049579988 0.00008451174563316649 0 0.00007324890936784759 0.0001542010401638989 0
          0 0 0 0 0 0
          0 0 0 0 0 0
          0 0 0 0 0 0
          0.0005182392287649696 0.00102255204490866 0 0.0004515019600645899 0.0009836698028581315 0
          0.0006215141860256837 0.0011895841714081648 0 0.0005529346857318042 0.0011547530020725699 0
          0.0006913757868745262 0.0012247143025152286 0 0.0007630703254146915 0.0012599682430240555 0
          0.0008372574597538846 0.0012951104081313876 0
          <InformationKey name="L2_NORM_RANGE" location="vtkDataArray" length="2">
            <Value index="0">
              0
            </Value>
            <Value index="1">
              0.0015421773644
            </Value>
          </InformationKey>
        </DataArray>
      </PointData>
      <CellData>
        <DataArray type="UInt8" Name="vtkGhostType" format="ascii" RangeMin="0" RangeMax="1">
          1 1 0 1 1 1
          1 0 0 0 0 0
          0 0 0 0 0 0
          0 0 0 0 0 0
          0 0 0 0 0 0
          0 0 0 0 0 0
          0 0 0 0 0 0
          0 0 0 0 0 0
          0 0 0 0 0 0
          0 0 0 0 0 0
          0 0 0 0
        </DataArray>
        <DataArray type="Float64" Name="Gauss Stress" NumberOfComponents="6" format="ascii" RangeMin="283.74995376665026" RangeMax="1205.5173335106088">
          -129.7281298304338 647.4559736772617 0 -2.6569830445973275 0 0
          -183.80467841731917 644.3832033838792 0 16.885421969681676 0 0
          -238.25074672284288 640.5806716742836 0 27.312395785945128 0 0
          -144.06591694069965 644.8219838329479 0 12.04822724257011 0 0
          -213.62275134658643 641.3564813127047 0 23.022428355014437 0 0
          -284.1824540188392 638.3322965362702 0 25.910332031533105 0 0
          -356.59870286103666 636.453482213569 0 20.978872718262895 0 0
          -1163.2496040813157 -90.86663326372172 0 303.093475611909 0 0
          -624.353000770118 68.38312088794291 0 182.809621061383 0 0
          -309.5352879435411 154.85302744518688 0 51.35490219934192 0 0
          -2.7601716013195983 278.53401310463863 0 -54.08531463468081 0 0
          264.914663935038 392.0443581356428 0 -126.04698855178373 0 0
          -848.865076074299 710.9317271571936 0 -9.2655831373617 0 0
          -727.6054947981338 552.4397586858007 0 93.88901320362626 0 0
          -416.7895758792187 542.7961220245825 0 103.83039946827571 0 0
          -111.04940416684836 568.5146493004585 0 84.53340411415309 0 0
          281.16855088577773 647.3219176396543 0 61.47294788301349 0 0
          -805.8753675761036 634.1049472479209 0 9.01230527003634 0 0
          -604.6008278399598 666.0251670810619 0 51.89548210509583 0 0
          -396.7496847717515 647.536551641185 0 94.05494878210807 0 0
          -132.43947562289142 645.5790180247242 0 99.97919899010043 0 0
          138.00255873971994 626.5194099745222 0 55.44560258071067 0 0
          -724.8661314134941 640.7717591451367 0 22.076765063042 0 0
          -545.0646945414844 644.871525295797 0 61.29853781164713 0 0
          -358.33527398867113 649.5021008803953 0 83.24176815140164 0 0
          -167.89117548124182 637.7971505239852 0 79.63167368730552 0 0
          25.19403961735211 626.8130216166448 0 39.847925162446145 0 0
          -633.8427508411191 636.511943393634 0 23.77053977212425 0 0
          -489.69129698785196 637.6842373317157 0 61.639315307206836 0 0
          -345.41788627098333 634.710333213743 0 76.51229015207642 0 0
          -201.119327420689 630.0035579209489 0 67.1790856106941 0 0
          -61.49277963389981 623.7366172016988 0 32.415197938972334 0 0
          -543.1550514249416 636.1397984003975 0 21.422782649411346 0 0
          -440.0354931201191 634.2504645355039 0 56.4268341291301 0 0
          -335.3859013774241 630.7908571178366 0 69.29238236221269 0 0
          -232.33491721288607 626.2212328193234 0 60.19538427135022 0 0
          -133.02391383259936 622.5927379896502 0 29.227718331280936 0 0
          -458.65350747025195 636.6520778008719 0 17.961722052351544 0 0
          -392.44426362127626 634.4602976770447 0 49.81328416256987 0 0
          -324.53084472352964 630.4430570930539 0 61.86316069721089 0 0
          -257.63810383652316 626.0912845875853 0 54.23432842320782 0 0
          -194.3730482426848 622.5569327152772 0 27.04944781384001 0 0
          -380.8792207603117 638.3509112905737 0 14.441363133752903 0 0
          -347.08749967171207 635.9575858802568 0 43.07748746357845 0 0
          -311.54684124489035 631.8364404342045 0 54.38447571643338 0 0
          -276.9360200596231 627.2931998547709 0 48.35971977903716 0 0
          -245.86781555425745 623.6794552735838 0 24.9976837133837 0 0
          -309.4398156888533 640.9560806822432 0 10.67918016686588 0 0
          -303.87760120849345 638.3358395019857 0 36.3243574577027 0 0
          -296.6041669887844 634.0733055845121 0 46.92329883841701 0 0
          -290.1751005219187 629.5083314548267 0 42.46871155524491 0 0
          -287.3708000104449 625.8376023101237 0 22.9903935950751 0 0
          -244.01919376382756 644.0963917205121 0 6.896869321913161 0 0
          -262.70321313163095 641.0641168140681 0 29.67340469066079 0 0
          -279.6313963342014 636.6745558672353 0 39.76523984221235 0 0
          -297.4614830735208 632.210200663033 0 37.06509751407475 0 0
          -318.50730964970467 628.9478136392346 0 21.510443765450066 0 0
          -184.55773057827187 646.7870688160945 0 2.5074083818156727 0 0
          -223.09704670050644 643.226190549078 0 22.99145253177954 0 0
          -260.2651274046604 638.9520808061991 0 33.063396796499404 0 0
          -298.6074141749209 634.7512592333059 0 32.31937058123582 0 0
          -340.41559289903563 631.6061508211214 0 20.69372279399676 0 0
          -293.94578413579467 636.9298315293927 0 28.41573045046719 0 0
          -352.6884089628745 634.2012411464793 0 20.467660529177415 0 0
          <InformationKey name="L2_NORM_RANGE" location="vtkDataArray" length="2">
            <Value index="0">
              283.74995377
            </Value>
            <Value index="1">
              1205.5173335
            </Value>
          </InformationKey>
        </DataArray>
        <DataArray type="Float64" Name="Gauss Strain" NumberOfComponents="6" format="ascii" RangeMin="0.00022972173571216182" RangeMax="0.0011033200509892385">
          -0.0003369582204754973 0.0004401454957763118 0 -0.000005313284923182952 0 0
          -0.0003682024873515599 0.0004599092201569982 0 0.000033767827387630763 0 0
          -0.0003993788041637136 0.00047938203944843105 0 0.00005462045165266968 0 0
          -0.00034451391926695885 0.00044429513306246116 0 0.000024094165789388985 0 0
          -0.0003848983648020443 0.0004700079155365577 0 0.000046041000740865914 0 0
          -0.000426065079105753 0.0004963845504097203 0 0.00005181703309970938 0 0
          -0.00046880885006353457 0.0005241880086727102 0 0.0000419553904959516 0 0
          -0.0006621789696403535 0.00041042714844502504 0 0.000606394820042044 0 0
          -0.00040218029842753467 0.0002906071083771111 0 0.0003656789837250692 0 0
          -0.00024773497214830575 0.0002166536859515011 0 0.0001027246917639191 0 0
          -0.00011308787390007513 0.00016818276991863168 0 -0.0001081562043429115 0 0
          0.000002119348439855175 0.00012922761447332895 0 -0.00025205581514794713 0 0
          -0.000794443582455312 0.00076539600995916 0 -0.000018533136514452778 0 0
          -0.0006580687629132442 0.0006220244671779201 0 0.00018778788409448411 0 0
          -0.00046747280490555543 0.0004920902458969006 0 0.00020765961230458606 0 0
          -0.00029415328607756974 0.00038535022843226574 0 0.00016905457075233206 0 0
          -0.00009023864282944882 0.00027585134247311294 0 0.00012292466310387086 0 0
          -0.0007378153385328712 0.000702215587771518 0 0.00001802490191778711 0 0
          -0.0006296520107801351 0.0006409595021952957 0 0.00010378872852080171 0 0
          -0.0004973784284679761 0.0005468574219322231 0 0.00018810024348237377 0 0
          -0.0003378504657116921 0.00044009058453398087 0 0.00019993826104735011 0 0
          -0.0001678431299760863 0.00032060122659141593 0 0.0001108760631082502 0 0
          -0.0006918014278013139 0.0006738605013546645 0 0.00004415344844054736 0 0
          -0.0005854062447605557 0.0006045072552075814 0 0.0001225940519876114 0 0
          -0.0004750867159181438 0.0005326931335975782 0 0.00016647340793336912 0 0
          -0.0003560182298481818 0.00044959568977095965 0 0.00015924856787427456 0 0
          -0.00023567835554810787 0.0003658632295682196 0 0.0000796862717438712 0 0
          -0.0006353958967103557 0.000634958810305508 0 0.00004754043647603297 0 0
          -0.0005492584756706664 0.0005780844157843024 0 0.00012327459125924145 0 0
          -0.00046140209336861804 0.0005186701617124756 0 0.00015301560486396772 0 0
          -0.00037284955073740855 0.00045820274181915255 0 0.00013434682004945928 0 0
          -0.000286492262485033 0.00039866062737776986 0 0.00006482359309353835 0 0
          -0.0005807562117407516 0.0005985170814298141 0 0.000042844354873028965 0 0
          -0.0005180509263490174 0.0005561937355204188 0 0.00011284905179209494 0 0
          -0.0004538050155801776 0.0005123150949147977 0 0.00013857652880133089 0 0
          -0.00039008038633450703 0.00046840851122165184 0 0.00012038142328229203 0 0
          -0.00032898528046262915 0.0004265576617373673 0 0.000058450013753248565 0 0
          -0.000530193707772797 0.0005650730596327286 0 0.00003592192779069735 0 0
          -0.000489544953840293 0.00053731013083827 0 0.00009962160935196388 0 0
          -0.000447144214450329 0.0005077714969204117 0 0.00012371872743311414 0 0
          -0.0004052237854988982 0.00047844068190343314 0 0.00010846074618770389 0 0
          -0.0003658114259571244 0.00045104872200055207 0 0.00005409443318819202 0 0
          -0.00048415309474933443 0.000535024623288527 0 0.000028881132400675632 0 0
          -0.0004628987032578302 0.0005200897024330852 0 0.00008614993332734655 0 0
          -0.00043990228356388655 0.0005034206940969372 0 0.00010876197335914814 0 0
          -0.0004172944085016894 0.00048687155879294225 0 0.00009671270189695528 0 0
          -0.0003971861130611376 0.0004722955127303557 0 0.00004999166240776772 0 0
          -0.000442285061924702 0.0005080478504437963 0 0.000021356930746344014 0 0
          -0.00043789642868760636 0.0005042540517094241 0 0.00007264384463637807 0 0
          -0.0004318220261584904 0.0004987927126651609 0 0.0000938402657122195 0 0
          -0.000426132201787055 0.0004934888904289669 0 0.00008493167126728354 0 0
          -0.0004229765334184954 0.0004901701036081757 0 0.00004597768235747736 0 0
          -0.000404249966227288 0.0004837945909961089 0 0.000013792686072830423 0 0
          -0.0004142583566386082 0.0004894406443090998 0 0.00005934234725120927 0 0
          -0.00042266873938423544 0.0004935718592147671 0 0.00007952481595286463 0 0
          -0.0004315899273669709 0.0004980196011732663 0 0.00007412523199307521 0 0
          -0.0004429232317205711 0.0005044731508807021 0 0.000043018188917987706 0 0
          -0.0003696167449128984 0.00046165125979565075 0 0.0000050144474477925565 0 0
          -0.0003913367510174903 0.0004749137730992032 0 0.00004597910304358129 0 0
          -0.00041194867345054065 0.00048720053246774364 0 0.00006612181865525757 0 0
          -0.0004332953646797033 0.0005000006809490337 0 0.00006463439832566941 0 0
          -0.0004571469102697401 0.0005148183641722898 0 0.00004138499777360256 0 0
          -0.00043136762479092927 0.0004994443037718566 0 0.00005682757790841906 0 0
          -0.0004655580107629786 0.0005212762741969162 0 0.00004093298800102008 0 0
          <InformationKey name="L2_NORM_RANGE" location="vtkDataArray" length="2">
            <Value index="0">
              0.00022972173571
            </Value>
            <Value index="1">
              0.001103320051
            </Value>
          </InformationKey>
        </DataArray>
        <DataArray type="Float64" Name="Btraction" NumberOfComponents="3" format="ascii" RangeMin="0" RangeMax="324.5090376541027">
          -8.141912439231819 324.4068815253828 0 0 0 0
          0 0 0 0 0 0
          0 0 0 0 0 0
          -7.901158280196556 -318.06598027204353 0 75.57968736159584 261.95864857552573 0
          0 0 0 0 0 0
          0 0 0 74.57220051512901 -256.912921644931 0
          -1.565241567250934 321.4169084269149 0 0 0 0
          0 0 0 0 0 0
          -1.0427742813657275 -315.19771800029395 0 -2.157637833114527 320.2127865188192 0
          0 0 0 0 0 0
          0 0 0 -1.3255595655988468 -313.9430857115799 0
          -2.57621370704011 318.89230025788106 0 0 0 0
          0 0 0 0 0 0
          -1.4145160051456473 -312.6545520822445 0 -2.84612196260058 317.99977722083867 0
          0 0 0 0 0 0
          0 0 0 -1.5542919607375396 -311.6744167656879 0
          -3.0594798733487876 317.75414530175374 0 0 0 0
          0 0 0 0 0 0
          -1.8229587305168524 -311.1747853558858 0 -3.358610337120932 318.1145026543201 0
          0 0 0 0 0 0
          0 0 0 -2.2142502764870136 -311.21280422259855 0
          -3.8032733590822168 319.04459696418076 0 0 0 0
          0 0 0 0 0 0
          -2.698800347238967 -311.77127570509373 0 -4.409397291576168 320.4327782617685 0
          0 0 0 0 0 0
          0 0 0 -3.3454316850514143 -312.88583114262764 0
          -5.1442547887695556 322.0856492285681 0 0 0 0
          0 0 0 0 0 0
          -4.133853149340888 -314.3763876807678 0 -6.2230908490687575 323.61653798763575 0
          0 0 0 0 0 0
          0 0 0 -5.176685554863608 -315.8078574849838 0
          0 0 0 -6.514479051779931 -317.09552327013614 0
          <InformationKey name="L2_NORM_RANGE" location="vtkDataArray" length="2">
            <Value index="0">
              0
            </Value>
            <Value index="1">
              324.50903765
            </Value>
          </InformationKey>
        </DataArray>
      </CellData>
      <Points>
        <DataArray type="Float32" Name="Points" NumberOfComponents="3" format="ascii" RangeMin="0.31320268577451565" RangeMax="0.397753309761242">
          0.33323219418525696 0.20200000703334808 0 0.33323219418525696 0.1979999989271164 0
          0.33323219418525696 0.1940000057220459 0 0.33323219418525696 0.1899999976158142 0
          0.32621198892593384 0.20999999344348907 0 0.32621198892593384 0.20600000023841858 0
          0.32621198892593384 0.20200000703334808 0 0.32621198892593384 0.1979999989271164 0
          0.32621198892593384 0.1940000057220459 0 0.32621198892593384 0.1899999976158142 0
          0.3191918134689331 0.20999999344348907 0 0.3191918134689331 0.20600000023841858 0
          0.3191918134689331 0.20200000703334808 0 0.3191918134689331 0.1979999989271164 0
          0.3191918134689331 0.1940000057220459 0 0.3191918134689331 0.1899999976158142 0
          0.31217160820961 0.20999999344348907 0 0.31217160820961 0.20600000023841858 0
          0.31217160820961 0.20200000703334808 0 0.31217160820961 0.1979999989271164 0
          0.31217160820961 0.1940000057220459 0 0.31217160820961 0.1899999976158142 0
          0.30515140295028687 0.20999999344348907 0 0.30515140295028687 0.20600000023841858 0
          0.30515140295028687 0.20200000703334808 0 0.30515140295028687 0.1979999989271164 0
          0.30515140295028687 0.1940000057220459 0 0.30515140295028687 0.1899999976158142 0
          0.29813119769096375 0.20999999344348907 0 0.29813119769096375 0.20600000023841858 0
          0.29813119769096375 0.20200000703334808 0 0.29813119769096375 0.1979999989271164 0
          0.29813119769096375 0.1940000057220459 0 0.29813119769096375 0.1899999976158142 0
          0.2911109924316406 0.20999999344348907 0 0.2911109924316406 0.20600000023841858 0
          0.2911109924316406 0.20200000703334808 0 0.2911109924316406 0.1979999989271164 0
          0.2911109924316406 0.1940000057220459 0 0.2911109924316406 0.1899999976158142 0
          0.2840907871723175 0.20999999344348907 0 0.2840907871723175 0.20600000023841858 0
          0.2840907871723175 0.20200000703334808 0 0.2840907871723175 0.1979999989271164 0
          0.2840907871723175 0.1940000057220459 0 0.2840907871723175 0.1899999976158142 0
          0.2770706117153168 0.20999999344348907 0 0.2770706117153168 0.20600000023841858 0
          0.2770706117153168 0.20200000703334808 0 0.2770706117153168 0.1979999989271164 0
          0.2770706117153168 0.1940000057220459 0 0.2770706117153168 0.1899999976158142 0
          0.27005040645599365 0.20999999344348907 0 0.27005040645599365 0.20600000023841858 0
          0.27005040645599365 0.20200000703334808 0 0.27005040645599365 0.1979999989271164 0
          0.27005040645599365 0.1940000057220459 0 0.27005040645599365 0.1899999976158142 0
          0.26303020119667053 0.20999999344348907 0 0.26303020119667053 0.20600000023841858 0
          0.26303020119667053 0.20200000703334808 0 0.26303020119667053 0.1979999989271164 0
          0.26303020119667053 0.1940000057220459 0 0.26303020119667053 0.1899999976158142 0
          0.2560099959373474 0.20999999344348907 0 0.2560099959373474 0.20600000023841858 0
          0.2560099959373474 0.20200000703334808 0 0.2560099959373474 0.1979999989271164 0
          0.2560099959373474 0.1940000057220459 0 0.2560099959373474 0.1899999976158142 0
          0.24898980557918549 0.20999999344348907 0 0.24898980557918549 0.20600000023841858 0
          0.24898980557918549 0.20200000703334808 0 0.24898980557918549 0.1979999989271164 0
          0.24898980557918549 0.1940000057220459 0 0.24898980557918549 0.1899999976158142 0
          0.33323219418525696 0.20600000023841858 0 0.33323219418525696 0.20999999344348907 0
          0.3402523994445801 0.20200000703334808 0 0.3402523994445801 0.20600000023841858 0
          0.3402523994445801 0.1979999989271164 0 0.3402523994445801 0.1940000057220459 0
          0.3402523994445801 0.1899999976158142 0
          <InformationKey name="L2_NORM_RANGE" location="vtkDataArray" length="2">
            <Value index="0">
              0.31320268577
            </Value>
            <Value index="1">
              0.39775330976
            </Value>
          </InformationKey>
        </DataArray>
      </Points>
      <Cells>
        <DataArray type="Int64" Name="connectivity" format="ascii" RangeMin="0" RangeMax="82">
          5 76 77 4 6 0
          76 5 7 1 0 6
          0 78 79 76 1 80
          78 0 2 81 80 1
          3 82 81 2 71 65
          64 70 72 66 65 71
          73 67 66 72 74 68
          67 73 75 69 68 74
          65 59 58 64 66 60
          59 65 67 61 60 66
          68 62 61 67 69 63
          62 68 59 53 52 58
          60 54 53 59 61 55
          54 60 62 56 55 61
          63 57 56 62 53 47
          46 52 54 48 47 53
          55 49 48 54 56 50
          49 55 57 51 50 56
          47 41 40 46 48 42
          41 47 49 43 42 48
          50 44 43 49 51 45
          44 50 41 35 34 40
          42 36 35 41 43 37
          36 42 44 38 37 43
          45 39 38 44 35 29
          28 34 36 30 29 35
          37 31 30 36 38 32
          31 37 39 33 32 38
          29 23 22 28 30 24
          23 29 31 25 24 30
          32 26 25 31 33 27
          26 32 23 17 16 22
          24 18 17 23 25 19
          18 24 26 20 19 25
          27 21 20 26 17 11
          10 16 18 12 11 17
          19 13 12 18 20 14
          13 19 21 15 14 20
          11 5 4 10 12 6
          5 11 13 7 6 12
          14 8 7 13 15 9
          8 14 8 2 1 7
          9 3 2 8
        </DataArray>
        <DataArray type="Int64" Name="offsets" format="ascii" RangeMin="4" RangeMax="256">
          4 8 12 16 20 24
          28 32 36 40 44 48
          52 56 60 64 68 72
          76 80 84 88 92 96
          100 104 108 112 116 120
          124 128 132 136 140 144
          148 152 156 160 164 168
          172 176 180 184 188 192
          196 200 204 208 212 216
          220 224 228 232 236 240
          244 248 252 256
        </DataArray>
        <DataArray type="UInt8" Name="types" format="ascii" RangeMin="9" RangeMax="9">
          9 9 9 9 9 9
          9 9 9 9 9 9
          9 9 9 9 9 9
          9 9 9 9 9 9
          9 9 9 9 9 9
          9 9 9 9 9 9
          9 9 9 9 9 9
          9 9 9 9 9 9
          9 9 9 9 9 9
          9 9 9 9 9 9
          9 9 9 9
        </DataArray>
      </Cells>
    </Piece>
  </UnstructuredGrid>
</VTKFile>
