<?xml version="1.0"?>
<VTKFile type="UnstructuredGrid" version="0.1" byte_order="LittleEndian" header_type="UInt32" compressor="vtkZLibDataCompressor">
  <UnstructuredGrid>
    <Piece NumberOfPoints="33" NumberOfCells="46">
      <PointData>
        <DataArray type="Float64" Name="proc" format="ascii" RangeMin="0" RangeMax="1">
          1 1 1 1 1 1
          1 1 1 1 1 1
          1 1 1 1 1 1
          1 1 1 1 1 1
          1 1 1 1 0 0
          0 0 0
        </DataArray>
        <DataArray type="Float64" Name="Displacement" NumberOfComponents="3" format="ascii" RangeMin="0" RangeMax="1.7561289111860945e-8">
          7.433058249970031e-9 -9.389729693815098e-9 0 3.3824861177448373e-9 -9.38426088694118e-9 0
          5.303675180878705e-9 -1.034102067804489e-8 0 7.411467557733063e-9 -1.1602479761733263e-8 0
          2.2620841998008296e-9 -1.0310141278389271e-8 0 3.40531992120096e-9 -1.1159893164225897e-8 0
          4.938534271578856e-9 -1.2042675156105613e-8 0 6.2282584909495035e-9 -1.3181431621532076e-8 0
          1.0446118215350396e-9 -1.1154919226224132e-8 0 2.6134924534510465e-9 -1.2174595112888676e-8 0
          3.4268211769364744e-9 -1.2914797174887854e-8 0 7.389571513691712e-9 -1.3791964679335717e-8 0
          4.871678250909912e-9 -1.3890233381970393e-8 0 6.192841684805348e-9 -1.4541152761428801e-8 0
          1.6403223898094284e-9 -1.3137742910986906e-8 0 3.1155522751257864e-9 -1.4350891774594263e-8 0
          3.4073998534651746e-9 -1.4778226925453561e-8 0 7.371089388234444e-9 -1.5939445300920086e-8 0
          5.0076458989144046e-9 -1.597477498678231e-8 0 2.9014724105839714e-9 -1.4513725644276226e-8 0
          3.1913906294937462e-9 -1.4690875313251398e-8 0 3.6604146042560453e-9 -1.4826289475700793e-8 0
          2.93725528219046e-9 -1.4810667691385578e-8 0 0 0 0
          5.551688988663681e-9 -9.156431956565335e-9 0 4.378914836638189e-9 -1.2805590809102857e-8 0
          3.2689537845049892e-9 -1.4973009979055053e-8 0 2.966892619753341e-9 -1.500264731661795e-8 0
          2.0386854972559867e-9 -8.502937448617382e-9 0 6.848361719736107e-10 -9.350390456785396e-9 0
          3.363081862963174e-9 -7.587369802240239e-9 0 5.307953348569844e-9 -8.429164002646331e-9 0
          7.455243665999485e-9 -7.1403015792697445e-9 0
          <InformationKey name="L2_NORM_RANGE" location="vtkDataArray" length="2">
            <Value index="0">
              0
            </Value>
            <Value index="1">
              1.7561289112e-08
            </Value>
          </InformationKey>
        </DataArray>
        <DataArray type="Float64" Name="TopologicalDerivative1" format="ascii" RangeMin="-0.00105188237896107" RangeMax="0.8709326118359614">
          -0.0005536630616057942 -0.0005118947192129474 -0.0007686083626720966 -0.0006199265188273164 0.00004445658898992932 0.00019382190061030449
          -0.0008461385168992382 -0.0007193202286748272 0.0007671448291796212 0.002946201574601686 0.002964959155268151 -0.00025232437047559547
          -0.0006919299950821756 -0.0006506098290526908 0.0055335009285918425 0.006281319222998504 0.005479859956118943 0.2727963956725093
          0.0696247786870329 0.0038064649151023015 0.0018719829253022418 0.024207266043836075 -0.0004746036222631531 0.8709326118359614
          0.38146664445209866 0.10898319969628502 0.012060700573393725 -0.00105188237896107 -0.0007142573469606961 -0.00047922827554052274
          -0.0007720643589342662 -0.0007986876300964038 -0.0005618495080440364
        </DataArray>
      </PointData>
      <CellData>
        <DataArray type="UInt8" Name="vtkGhostType" format="ascii" RangeMin="0" RangeMax="1">
          1 1 1 0 0 1
          1 1 1 0 0 0
          1 0 0 0 0 0
          0 0 0 0 0 0
          0 0 0 0 0 0
          0 0 0 0 0 0
          0 0 0 0 0 0
          0 0 0 0
        </DataArray>
        <DataArray type="Float64" Name="Stress" NumberOfComponents="6" format="ascii" RangeMin="0.000034778258587259344" RangeMax="110.99313548658108">
          -0.016053821237127803 -0.00017194849592064472 0 0.0031664684494079466 0 0
          -0.0003340948430066759 -0.00033747928542239645 0 0.001183416178301294 0 0
          -0.01730313234586532 -0.006943571166999401 0 0.010075208347207041 0 0
          -0.1582999843063363 -0.22327000485530063 0 0.7209802822114408 0 0
          -0.015428735963460078 -0.000048497113925057525 0 -0.00028663513241230186 0 0
          -0.00022721770464184432 0.000018777842460375278 0 0.000015756363106225944 0 0
          -0.000049609372791220974 0.0000058978876606957745 0 -8.485663371683687e-7 0 0
          -0.000044494132322515254 0.000022961832137779357 0 -0.000001148080297139589 0 0
          0.00022148736595441768 0.000028357906905551267 0 0.000016475049846102507 0 0
          0.0002121061716259884 0.00001611842050361895 0 -0.000028538364907351863 0 0
          -15.621877857973228 -48.476469587842224 0 -25.90729313626702 0 0
          0.6075104988520182 -1.0011438381928768 0 -33.36985901078699 0 0
          -2.9063531292721687 -0.3553442118167157 0 0.5716613482476215 0 0
          -4.234484071299269 -0.05861675832223345 0 1.1803946597151231 0 0
          -7.726412520566644 -1.9262856709132645 0 2.3777078466873034 0 0
          -5.0107047370915225 -2.646018977629728 0 3.448821151905303 0 0
          -0.9104971082123876 -2.1749401312873786 0 3.8223076285920685 0 0
          -8.210003666337446 -7.284286020801909 0 7.047738096564027 0 0
          -6.0495608834466275 -0.08281007783248207 0 3.5202105880382444 0 0
          -2.481604179546764 -8.727707576158586 0 6.3095295436164065 0 0
          -0.001575226536929783 0.00016747366907548806 0 -0.0009252764667092479 0 0
          -14.231606079387298 3.0073138996907374 0 1.8491967499985464 0 0
          0.08351431936050346 3.3119152392534073 0 0.21465005179744515 0 0
          -0.21241275571475832 -0.0031971599440581556 0 -0.01167154635494319 0 0
          -0.9673685960276157 -0.19102781204032274 0 0.22615435344799478 0 0
          -0.049415065790845925 -0.010335742237850238 0 -0.011173939210109046 0 0
          -0.33322164156212153 0.288515284560628 0 -0.07745946076667948 0 0
          -0.15645962364592092 0.060528440819527476 0 -0.04755615221739846 0 0
          -0.00005934910257592837 0.00005083948548447163 0 -0.00002861140867325605 0 0
          -0.4283059316726958 -0.46516884561000504 0 -0.5351136619274656 0 0
          -0.05954098475134459 0.023045016832521366 0 -0.06541952625039568 0 0
          0.000011358515755890502 0.000007003924148603087 0 -0.00005913074752305471 0 0
          -0.04123103156322448 0.06170569134390398 0 -0.0995770454222082 0 0
          0.00003197201632718542 0.00006672316721943753 0 -0.000017781260013224904 0 0
          0.17008026862435577 -0.02254332095904641 0 -0.057362225290039176 0 0
          0.0002160499959509914 0.00001949324384675148 0 0.000017466736516066812 0 0
          0.12974679554225887 0.0016196863640964216 0 -0.04739552594141317 0 0
          0.00007882362079773227 0.000007885704550074284 0 -0.000043406023009151554 0 0
          -1.6880516707228082 2.7676735195953763 0 -17.723499006537796 0 0
          -0.1604626131201652 14.223020127693726 0 -6.062873217594313 0 0
          -13.048834389895442 -29.923680356394975 0 -11.445733520580871 0 0
          0.1546347072505308 0.3477712986435311 0 -2.030890713659026 0 0
          -3.10632387553711 0.6525757742026606 0 -1.5517778324762252 0 0
          -0.44967712105741664 -0.4496771210575433 0 -0.4496771210573861 0 0
          41.537695696060965 -97.41587476996571 0 -33.23015654802641 0 0
          -0.0000336568402360167 -0.000005460029104274297 0 -0.000006850726813266114 0 0
          <InformationKey name="L2_NORM_RANGE" location="vtkDataArray" length="2">
            <Value index="0">
              3.4778258587e-05
            </Value>
            <Value index="1">
              110.99313549
            </Value>
          </InformationKey>
        </DataArray>
        <DataArray type="Float64" Name="Strain" NumberOfComponents="6" format="ascii" RangeMin="1.538832399252582e-13" RangeMax="6.527852407856936e-10">
          -1.1169935127242147e-11 3.2417586362798126e-12 0 5.746699315417505e-12 0 0
          -9.702127390831537e-13 -9.885451355016402e-13 0 1.282034193159735e-11 0 0
          -1.1169935127242147e-11 -1.2862484422236367e-12 0 1.9224791643342338e-11 0 0
          -1.1416901728061355e-12 -2.1976406573045827e-12 0 2.343602393480032e-11 0 0
          -1.1416901728061355e-12 3.392382775703372e-13 0 -5.5198898615236827e-14 0 0
          -9.702127390831537e-13 3.62263141053869e-13 0 1.70693933650781e-13 0 0
          -2.1407807953929046e-13 8.658624790859195e-14 0 -9.19280198599066e-15 0 0
          -2.140945081827044e-13 1.5129196597722473e-13 0 -1.2437536552345547e-14 0 0
          8.874166411781345e-13 -1.5870126200322517e-13 0 1.784797066661105e-13 0 0
          8.636276894787613e-13 -1.979726291007399e-13 0 -3.0916561982964526e-13 0 0
          -4.495570756752335e-12 -1.8245794262687608e-10 0 -2.806623423095594e-10 0 0
          3.782723542957839e-12 -4.93082078270201e-12 0 -3.6150680595019236e-10 0 0
          -1.7988782478071447e-11 3.318980976343663e-12 0 9.54980964679834e-12 0 0
          -1.7570412682510836e-11 5.048868596114782e-12 0 1.27876088135805e-11 0 0
          -2.978552841371944e-11 1.63182535523637e-12 0 2.575850167244578e-11 0 0
          -1.757041268251085e-11 -4.761698152092797e-12 0 3.736222914564079e-11 0 0
          -1.0750627867757255e-12 -7.924129161765257e-12 0 4.1408332643080745e-11 0 0
          -2.5102991083736983e-11 -2.0088687170419475e-11 0 7.635049604611028e-11 0 0
          -2.5102991083737016e-11 7.21690911333961e-12 0 3.813561470374765e-11 0 0
          5.696170554200505e-13 -3.326344300956066e-11 0 6.835323672251107e-11 0 0
          -1.7593473381336173e-13 6.927574683527468e-14 0 -2.6038613681550285e-13 0 0
          -6.305750103872715e-11 3.031998218127885e-11 0 2.0032964791650917e-11 0 0
          -3.7919177183979954e-12 1.3695253931021902e-11 0 2.3253755611389896e-12 0 0
          -1.0750627867757255e-12 3.077269182137155e-13 0 -1.542838532803368e-13 0 0
          -3.7919177183979954e-12 4.1326152819984134e-13 0 2.4500054956866104e-12 0 0
          -3.0575570804745847e-13 2.963378621298078e-14 0 -1.9179563410268315e-13 0 0
          -1.7891435803244338e-12 1.6557623630275921e-12 0 -8.583712678223487e-13 0 0
          -7.433280740241061e-13 4.574709779878045e-13 0 -5.263458397185643e-13 0 0
          -3.108372842552911e-13 2.860175677385423e-13 0 -3.099569272936073e-13 0 0
          -1.2124219059289015e-12 -1.4136352866527297e-12 0 -5.841753539671062e-12 0 0
          -2.771992081395962e-13 1.7063519107520203e-13 0 -7.094934655605403e-13 0 0
          3.857224379712323e-14 1.4984872590983064e-14 0 -6.40583098166426e-13 0 0
          -2.5374623525722624e-13 3.1461986691829886e-13 0 -1.0996312214803636e-12 0 0
          4.981277567230897e-14 2.3804817633867463e-13 0 -1.9263031680993642e-13 0 0
          7.392850182906787e-13 -3.075450898559011e-13 0 -6.234802770914036e-13 0 0
          8.758417616540247e-13 -1.888406455772747e-13 0 1.8922297892405716e-13 0 0
          5.385988922499069e-13 -1.5543822173247682e-13 0 -5.134628300138371e-13 0 0
          3.185746226362916e-13 -6.567242370518915e-14 0 -4.702319159324752e-13 0 0
          -1.0493140527505921e-11 1.3642037586717577e-11 0 -1.920045725708261e-10 0 0
          -1.844736938095118e-11 5.94631621317907e-11 0 -6.568112652393841e-11 0 0
          -1.696554284573729e-11 -1.0837095849760979e-10 0 -1.2399544647295942e-10 0 0
          2.095971569061311e-13 1.2557536936182162e-12 0 -2.2001316064639443e-11 0 0
          -1.3758735865824616e-11 6.601970570265806e-12 0 -1.6810926518492443e-11 0 0
          -1.4818668781440457e-12 -1.4818668781448212e-12 0 -5.504076975963891e-12 0 0
          2.948435755293778e-10 -4.5782159782826664e-10 0 -3.5999336260361937e-10 0 0
          -1.3341179793639335e-13 1.93209290272113e-14 0 -7.421620714371624e-14 0 0
          <InformationKey name="L2_NORM_RANGE" location="vtkDataArray" length="2">
            <Value index="0">
              1.5388323993e-13
            </Value>
            <Value index="1">
              6.5278524079e-10
            </Value>
          </InformationKey>
        </DataArray>
      </CellData>
      <Points>
        <DataArray type="Float32" Name="Points" NumberOfComponents="3" format="ascii" RangeMin="0" RangeMax="128.28654354956544">
          100 0 0 100 45.35898208618164 0
          89.30555725097656 23.870376586914062 0 75 0 0
          90 62.67949295043945 0 80 45.35898208618164 0
          70 28.038475036621094 0 57 13.358983993530273 0
          80 80 0 70 62.67949295043945 0
          60 45.35898208618164 0 50 0 0
          48.827545166015625 28.876956939697266 0 41.327545166015625 13.757295608520508 0
          60 80 0 50 62.67949295043945 0
          38.48822784423828 45.76527404785156 0 25 0 0
          24.63772964477539 27.38901710510254 0 40 80 0
          30 62.67949295043945 0 17.464101791381836 47.607696533203125 0
          20 80 0 0 0 0
          0 20 0 0 40 0
          0 60 0 0 80 0
          110 62.67949295043945 0 100 80 0
          120 45.35898208618164 0 110.71759033203125 23.771137237548828 0
          125 0 0
          <InformationKey name="L2_NORM_RANGE" location="vtkDataArray" length="2">
            <Value index="0">
              0
            </Value>
            <Value index="1">
              128.28654355
            </Value>
          </InformationKey>
        </DataArray>
      </Points>
      <Cells>
        <DataArray type="Int64" Name="connectivity" format="ascii" RangeMin="0" RangeMax="32">
          28 29 4 30 28 1
          1 28 4 4 5 1
          1 5 2 31 30 1
          31 1 2 31 2 0
          0 32 31 3 0 2
          25 24 18 18 24 17
          4 29 8 4 8 9
          9 8 14 4 9 5
          5 9 10 10 9 15
          15 9 14 10 15 16
          2 5 6 15 14 19
          16 15 20 6 5 10
          15 19 20 6 10 12
          20 19 22 12 10 16
          6 12 7 20 22 26
          12 16 18 7 12 13
          13 12 18 7 13 11
          11 13 17 7 11 3
          17 13 18 7 3 6
          25 18 21 21 18 16
          25 21 26 26 21 20
          20 21 16 27 26 22
          24 23 17 2 6 3
        </DataArray>
        <DataArray type="Int64" Name="offsets" format="ascii" RangeMin="3" RangeMax="138">
          3 6 9 12 15 18
          21 24 27 30 33 36
          39 42 45 48 51 54
          57 60 63 66 69 72
          75 78 81 84 87 90
          93 96 99 102 105 108
          111 114 117 120 123 126
          129 132 135 138
        </DataArray>
        <DataArray type="UInt8" Name="types" format="ascii" RangeMin="5" RangeMax="5">
          5 5 5 5 5 5
          5 5 5 5 5 5
          5 5 5 5 5 5
          5 5 5 5 5 5
          5 5 5 5 5 5
          5 5 5 5 5 5
          5 5 5 5 5 5
          5 5 5 5
        </DataArray>
      </Cells>
    </Piece>
  </UnstructuredGrid>
</VTKFile>
